67
Part 3b canonical input from 2270937 POKJAE Cu1; +z vacancy-facing
Cu   0.0000000000  0.0000000000  0.0000000000
C   -0.0862138988  0.1017118250  1.8792175616
Cl  -0.0000000000  0.0000000000 -2.1159462114
N    0.9304557718  0.0000000000  2.7681495078
N   -1.1624470072  0.4166816761  2.6546669266
C    0.5097249305  0.2441730173  4.0710869502
C    2.3212348717 -0.4039855303  2.4655788138
C   -2.4965646691  0.6317985572  2.1450366205
C   -0.8170566410  0.5102200363  4.0002521451
C    1.4221338230  0.1897712809  5.2471797893
C    2.7021404490 -0.4069774189  1.0059064551
H    2.4666256873 -1.3141265671  2.8272049178
H    2.9343857401  0.2070494473  2.9461963737
C   -3.3609233852 -0.4667864627  2.0409869584
C   -2.8844821547  1.9331813189  1.8191396780
C   -1.8045639664  0.8614603045  5.0597843756
H    0.9149925704  0.3826270203  6.0632937038
H    2.1335365107  0.8552809394  5.1398113765
H    1.8183070331 -0.7041776036  5.3123502194
C    3.1159571043  0.7857677991  0.3881141276
C    2.7560340554 -1.6159167590  0.2880552053
C   -4.6329362608 -0.2333391380  1.5165196489
C   -2.9617355861 -1.8590184801  2.5001178138
C   -4.1691155092  2.1146760638  1.3072521935
C   -1.9596655988  3.1254059179  2.0162602378
H   -1.3421055963  0.9600113146  5.9178073000
H   -2.4752781792  0.1502275945  5.1296250510
H   -2.2462522283  1.7050148977  4.8275997960
C    3.6102851365  0.7452720365 -0.9057713373
C    2.9917677152  2.1058446194  1.1003345154
C    2.2594967251 -2.9140292571  0.8828397434
C    3.2617255529 -1.6140669353 -1.0087068028
C   -5.0282702640  1.0374671746  1.1477370252
H   -5.2361116154 -0.9596853258  1.4116851764
C   -2.7852488052 -2.8122935159  1.3212086820
C   -3.9755267975 -2.4145812691  3.5062863448
H   -2.0800017813 -1.7845788315  2.9664131989
H   -4.4589949920  2.9864245345  1.0655753751
C   -1.4739226473  3.6814905473  0.6767641658
C   -2.6384520744  4.2107440760  2.8482805146
H   -1.1580617939  2.8088391141  2.5239467940
C    3.7077641895 -0.4439106498 -1.6162200993
H    3.8905244404  1.5538474936 -1.3182851929
H    3.3618103150  2.8171884356  0.5368885190
H    3.4861898961  2.0687368354  1.9459355737
H    2.0469916251  2.2913826464  1.2824453608
H    2.3409454202 -3.6299240618  0.2185009660
H    1.3198043005 -2.8155916403  1.1432721175
H    2.7954879219 -3.1380224926  1.6719356836
H    3.3039076141 -2.4315016047 -1.4905318931
H   -5.8942898219  1.1749006170  0.7823531355
H   -3.6353080384 -2.8996105053  0.8417682471
H   -2.5044131106 -3.6913759405  1.6512534529
H   -2.1024170083 -2.4579705384  0.7141332089
H   -4.0919893889 -1.7754483442  4.2397726012
H   -3.6479268311 -3.2662479237  3.8637354626
H   -4.8353477993 -2.5577578512  3.0580524270
H   -1.0206592782  2.9729234144  0.1742272367
H   -0.8488011622  4.4193583256  0.8370514358
H   -2.2404342253  4.0087921379  0.1619006869
H   -3.4187550510  4.5531403299  2.3647401327
H   -2.0065398894  4.9425754207  3.0090008198
H   -2.9254555428  3.8332410135  3.7061830295
C    4.2661185324 -0.4611800217 -3.0152962828
H    4.3577586558 -1.3884969032 -3.3189965641
H    5.1444746358 -0.0268871074 -3.0220433058
H    3.6589120418  0.0203730814 -3.6152737157
