58
Part 3b canonical input from 2270938 POKJEI Cu2; +z vacancy-facing
Cu   0.0000000000  0.0000000000  0.0000000000
C    0.0362599271 -0.0417903375  1.8666182861
Cl  -0.0000000000  0.0000000000 -2.1060119527
N    1.1612794257 -0.0000000000  2.6438403580
N   -0.9707565567 -0.1857534617  2.7510905428
C    0.8282015879 -0.0884926929  4.0082002930
C    2.5013601467  0.1072466567  2.1383176657
C   -0.5041179954 -0.2054733314  4.0809562233
C   -2.3938139306 -0.2519473021  2.3515553837
C    1.8920773686 -0.0697675094  5.0615716625
C    3.1494982143  1.3427002008  2.2049501451
C    3.1458258366 -1.0347771912  1.6860179558
C   -1.4008954850 -0.3005210710  5.2647859630
C   -3.1417384748 -1.4851726530  2.8278119652
H   -2.4454781375 -0.2157994526  1.3643958618
H   -2.8563191430  0.5495616983  2.7041525965
H    2.1962384242  0.8506827627  5.2036122978
H    2.6486165632 -0.6222880507  4.7714334744
H    1.5299460057 -0.4273621364  5.8991226542
C    4.4724914256  1.3901766235  1.7809567491
C    2.4699559321  2.5751486462  2.7120212919
C    4.4692727192 -0.9445448721  1.3021268081
C    2.4311453464 -2.3795809641  1.6203909827
H   -0.8618637020 -0.4065937801  6.0759019700
H   -1.9943028424 -1.0744428935  5.1634129350
H   -1.9386393880  0.5158244452  5.3337628850
C   -4.3161905940 -1.3739664948  3.5684415065
C   -2.6896859810 -2.7693377011  2.4778728808
C    5.1540240559  0.2740985428  1.3578140490
H    4.9236401242  2.2259738936  1.7838753233
H    2.7081052629  2.7170872568  3.6510576960
H    1.4981341315  2.4674212232  2.6338476582
H    2.7556143156  3.3475809594  2.1809149848
H    4.9220793602 -1.7220891257  0.9967711079
H    2.0041363858 -2.5655368866  2.4824736107
H    3.0805491208 -3.0852315467  1.4183645351
H    1.7485424230 -2.3535143186  0.9169712257
C   -5.0100523960 -2.5115825647  3.9918593062
C   -4.9025184291 -0.0301334686  3.9868078163
C   -3.4090299514 -3.8829706322  2.8950768548
C   -1.4437643427 -2.9848443161  1.6685381213
C    6.6179466131  0.3495440740  0.9895415196
C   -4.5634846506 -3.7795131633  3.6676056568
H   -5.8004430574 -2.4126101532  4.5092891464
H   -4.2907008468  0.4140841813  4.6100123158
H   -5.7679252826 -0.1730123167  4.4251395217
H   -5.0276347882  0.5329665904  3.1944370663
H   -3.1024169681 -4.7462500283  2.6427690928
H   -0.6610545943 -2.9558370412  2.2577028770
H   -1.3680557499 -2.2812932139  0.9903571444
H   -1.4874076546 -3.8594726665  1.2273423403
H    6.7471252982  1.0399343770  0.3062546501
H    6.9112620281 -0.5168814134  0.6386004503
H    7.1434116112  0.5749428345  1.7853802325
C   -5.3116629950 -4.9995479671  4.1607004199
H   -4.9357542327 -5.2895545262  5.0178938008
H   -5.2265849726 -5.7223346623  3.5048843097
H   -6.2588583302 -4.7754949565  4.2788361683
