58
Part 3b canonical input from 2270938 POKJEI Cu1; +z vacancy-facing
Cu   0.0000000000  0.0000000000  0.0000000000
C   -0.1721294891  0.1695492181  1.8664817993
Cl   0.0000000000 -0.0000000000 -2.1186177187
N    0.7607612492  0.0000000000  2.8527593738
N   -1.2376040520  0.6714227993  2.5325351412
C    0.2824003631  0.3937432935  4.0828640795
C    2.0881666725 -0.6231109163  2.6396090103
C   -2.4869131579  1.0440125414  1.8973611985
C   -0.9792526804  0.8229864027  3.8950653879
C    1.1188888676  0.3588231665  5.3298227137
C    2.5765637663 -0.5456568555  1.2231941008
H    2.0403157526 -1.5740902007  2.9096258262
H    2.7469846540 -0.1764502196  3.2290051850
C   -3.5124309802  0.1214423334  1.8292995376
C   -2.6163016843  2.3759924216  1.4414175875
C   -1.9883428019  1.3786824915  4.8313006153
H    1.8540705107  1.0010278111  5.2485073088
H    1.4847305554 -0.5427230842  5.4521673286
H    0.5638476037  0.5929267762  6.1027933789
C    3.0469239016  0.6779355364  0.7383061975
C    2.6378272102 -1.6945111497  0.4231089238
C   -4.7227992367  0.5267272409  1.2511965778
C   -3.3765951087 -1.2760761092  2.3942721080
C   -3.8734439933  2.7343138195  0.9286242183
C   -1.4872724494  3.3444432246  1.5187822094
H   -2.7190265457  0.7353981820  4.9439770044
H   -2.3447396244  2.2170268965  4.4688754543
H   -1.5687382859  1.5515462885  5.7001425484
C    3.5636148998  0.7378153725 -0.5418919661
C    3.0018633146  1.9406978035  1.5746876397
C    2.1430321653 -3.0446945941  0.8959024147
C    3.1831732056 -1.5883928766 -0.8526958588
C   -4.9132034366  1.8388803500  0.8367824667
H   -5.4239320408 -0.1061697799  1.1414684910
H   -2.4722624397 -1.6115769549  2.2208836982
H   -4.0318252681 -1.8655283563  1.9672581307
H   -3.5369762257 -1.2538016374  3.3608081047
H   -4.0101714361  3.6265209371  0.6339268375
H   -1.1524042012  3.3823497460  2.4383077654
H   -1.8004586570  4.2318740358  1.2469152035
H   -0.7676289059  3.0539696844  0.9200320149
C    3.6471156634 -0.3893321558 -1.3585295883
H    3.8719584073  1.5720594559 -0.8761854183
H    2.0693155975  2.2186613784  1.6957721159
H    3.4978077940  2.6519428087  1.1189034190
H    3.4069715991  1.7677305654  2.4496889919
H    2.2328208395 -3.6989509635  0.1711044772
H    1.2006419833 -2.9753900553  1.1570758190
H    2.6741007652 -3.3369982709  1.6662070822
H    3.2386812792 -2.3669781768 -1.3941850911
C   -6.2748385731  2.2480213731  0.2963413392
C    4.1726292342 -0.2931904126 -2.7611829802
H   -6.2533278615  3.1928754429  0.0388944240
H   -6.9543264007  2.1120139702  0.9883374308
H   -6.4919271142  1.7005313769 -0.4874344421
H    3.4273492684 -0.3571363479 -3.3945388168
H    4.8046412165 -1.0231178175 -2.9248525438
H    4.6285001146  0.5668678576 -2.8802026854
