58
Part 3b canonical input from 2270939 POKJIM Cu1; +z vacancy-facing
Cu   0.0000000000  0.0000000000  0.0000000000
C   -0.1504823286 -0.0749515017  1.8593927817
Cl   0.0000000000 -0.0000000000 -2.0973161079
N    0.7584295585 -0.0000000000  2.8626261560
N   -1.3252098089 -0.2884872727  2.5131190080
C    0.1760493564 -0.1811943777  4.1137215091
C    2.1988037036  0.0730689534  2.6233844655
C   -2.5883157007 -0.4338926124  1.8285687807
C   -1.1477192866 -0.3610857003  3.8980848784
C    0.9690087895 -0.1057867267  5.3725698229
C    2.8939739017 -1.2573219517  2.7764010980
H    2.5978623578  0.7182213468  3.2606466945
H    2.3568847242  0.4157618282  1.7086916493
C   -2.9399393190 -1.6855606950  1.3220410194
C   -3.3898905571  0.7035561575  1.6762891326
C   -2.2788601636 -0.6089683789  4.8317369158
H    1.2376011812  0.8230312916  5.5343836988
H    1.7685260554 -0.6667003218  5.2896341769
H    0.4238028296 -0.4231761085  6.1224056197
C    4.2523890845 -1.2849663035  3.0741172611
C    2.2268001116 -2.4666340389  2.5766097908
C   -4.1379858659 -1.7819419736  0.6271849756
C   -2.0690697878 -2.9204824238  1.5165487968
C   -4.6023637066  0.5515404279  0.9888556593
C   -2.9586585227  2.0736328387  2.1664646012
H   -1.9271826764 -0.8113967035  5.7236674844
H   -2.8090944112 -1.3664142443  4.5090684126
H   -2.8443282293  0.1905499938  4.8774944280
C    4.9291701120 -2.4907769464  3.1447758276
H    4.7185782424 -0.4714258763  3.2307737236
C    2.9139240410 -3.6735897995  2.6565106991
H    1.2965227043 -2.4658007438  2.3857900920
C   -4.9593074068 -0.6816801246  0.4685348769
H   -4.3971431150 -2.6166915710  0.2546816599
C   -1.5793838700 -3.4696145537  0.1808500405
C   -2.8108026914 -4.0046874178  2.2893214335
H   -1.2677515937 -2.6525166160  2.0530285956
H   -5.1809477375  1.2964468877  0.8810804611
C   -2.6798740355  2.9887342252  0.9738013424
C   -3.9849085320  2.7125636288  3.1056076866
H   -2.1049534470  1.9630611756  2.6744108978
C    4.2704034385 -3.6874791094  2.9276659626
H    5.8579818266 -2.4960243772  3.3450070689
H    2.4497733801 -4.4913502071  2.5237969739
H   -5.7787913083 -0.7717217651 -0.0039411682
H   -2.3467787593 -3.7762935109 -0.3464844670
H   -0.9719183571 -4.2226380250  0.3402210760
H   -1.1063197406 -2.7659070710 -0.3085394537
H   -3.1414772098 -3.6346433614  3.1345655899
H   -2.2008951986 -4.7487181435  2.4748666202
H   -3.5664996890 -4.3262168602  1.7553629687
H   -1.9589847034  2.6070923450  0.4305754093
H   -2.4110702360  3.8741397667  1.2973475667
H   -3.4901835332  3.0723843253  0.4291637372
H   -4.8106683924  2.8965686541  2.6104666500
H   -3.6240849183  3.5506937222  3.4620575138
H   -4.1774540424  2.0986619384  3.8447658593
H    4.7447866569 -4.5092461158  2.9642763991
