61
Part 3b canonical input from 1994536 POKPAK Cu1; +z vacancy-facing
Cu   0.0000000000  0.0000000000  0.0000000000
C    0.1157920199  0.0107359562  1.8819509952
Cl  -0.0000000000 -0.0000000000 -2.1076496765
N    1.2428088290 -0.0000000000  2.6264202523
N   -0.8903786031  0.0277789624  2.7940374520
C    0.9523835312  0.0216801505  3.9805451035
C    2.6012242305 -0.0295073256  2.0595639794
C   -2.2889742836  0.0990731405  2.4403871881
C   -0.3933981865  0.0346225200  4.0835214937
H    1.5769677251  0.0268812881  4.6967550868
C    3.5446750837  0.9024944107  2.7861929336
H    2.5604948379  0.2288330100  1.1049417272
H    2.9542255505 -0.9532306063  2.1097589874
C   -2.8575233037  1.3641434616  2.2722332020
C   -2.9963927824 -1.0941578442  2.2730836575
H   -0.9009557739  0.0458322794  4.8867986220
C    3.3951746694  2.2929442702  2.6300412127
C    4.5526123795  0.3943228005  3.6065202746
C   -4.1987401422  1.4115057120  1.8858457067
C   -2.0857075710  2.6473281273  2.5133657480
C   -4.3283073396 -0.9846874939  1.8948058324
C   -2.3732329882 -2.4443277852  2.5632676941
C    2.3251205927  2.8734013059  1.7384666703
C    4.2587131060  3.1437190306  3.3134272669
C    4.7524831439 -1.0968269632  3.8109980518
C    5.4044953334  1.2798831280  4.2682886008
C   -4.9207772190  0.2475211578  1.6976752691
H   -4.6195581290  2.2520254824  1.7505796046
C   -1.7662625862  3.3652750597  1.2052279384
C   -2.8076313183  3.5693358235  3.5013693714
H   -1.2136843270  2.3930136679  2.9314496587
H   -4.8426554552 -1.7727738267  1.7693911104
C   -2.8581551296 -2.9588024361  3.9340634453
C   -2.6358899577 -3.4603467615  1.4726874837
H   -1.3836937585 -2.3132991477  2.6231084253
H    2.4580533038  3.8402841028  1.6551163584
H    1.4435109979  2.6966078045  2.1281564760
H    2.3790245088  2.4584418947  0.8517733434
C    5.2599189893  2.6661777038  4.1450187014
H    4.1588079642  4.0823089676  3.2066857445
H    5.5211593339 -1.2450618075  4.4010043888
H    4.9160287383 -1.5267308142  2.9465168046
H    3.9485802730 -1.4805510012  4.2204794343
H    6.0989095555  0.9340781108  4.8164574199
H   -5.8310024867  0.2959510918  1.4305403470
H   -1.2771863898  2.7589841324  0.6107829713
H   -1.2162497787  4.1545865026  1.3915714913
H   -2.6009362811  3.6435494047  0.7730630348
H   -3.6421106626  3.8896486475  3.0977702499
H   -2.2333421494  4.3340798379  3.7133514942
H   -3.0107243410  3.0744217726  4.3216388777
H   -2.6294615746 -2.3054854579  4.6278327879
H   -2.4228225989 -3.8137256941  4.1343036053
H   -3.8296042131 -3.0843059214  3.9107871694
H   -3.5971299335 -3.6429732124  1.4198154434
H   -2.1569476587 -4.2912640896  1.6779722910
H   -2.3224243149 -3.1072904237  0.6140691073
C    6.1677580553  3.5950258420  4.9017881409
H    6.1034427269  4.4955909752  4.5205507314
H    7.0913826359  3.2760219800  4.8330831172
H    5.8984158944  3.6185005054  5.8433325077
