47
Case 3f IMes; xTB-constructed symmetric analogue
Cu   0.0000000000  0.0000000000  0.0000000000
C    0.0362599271 -0.0417903375  1.8666182861
Cl  -0.0000000000  0.0000000000 -2.1060119527
N    1.1612794257 -0.0000000000  2.6438403580
N   -0.9707565567 -0.1857534617  2.7510905428
C    0.8282015879 -0.0884926929  4.0082002930
C   -0.5041179954 -0.2054733314  4.0809562233
C    2.5013601467  0.1072466567  2.1383176657
C    3.1494982143  1.3427002008  2.2049501451
C    3.1458258366 -1.0347771912  1.6860179558
C    4.4724914256  1.3901766235  1.7809567491
C    2.4699559321  2.5751486462  2.7120212919
C    4.4692727192 -0.9445448721  1.3021268081
C    2.4311453464 -2.3795809641  1.6203909827
C    5.1540240559  0.2740985428  1.3578140490
H    4.9236401242  2.2259738936  1.7838753233
H    2.7081052629  2.7170872568  3.6510576960
H    1.4981341315  2.4674212232  2.6338476582
H    2.7556143156  3.3475809594  2.1809149848
H    4.9220793602 -1.7220891257  0.9967711079
H    2.0041363858 -2.5655368866  2.4824736107
H    3.0805491208 -3.0852315467  1.4183645351
H    1.7485424230 -2.3535143186  0.9169712257
C    6.6179466131  0.3495440740  0.9895415196
H    6.7471252982  1.0399343770  0.3062546501
H    6.9112620281 -0.5168814134  0.6386004503
H    7.1434116112  0.5749428345  1.7853802325
C   -2.3521756699 -0.2500104888  2.3632456707
C   -3.0030791440  0.9287388084  1.9921081448
C   -2.9727252684 -1.4876660520  2.2780610182
C   -4.3148359865  0.8171166078  1.5458235739
C   -2.3350518837  2.2655436018  2.0593432225
C   -4.2673397676 -1.5519456787  1.8017550621
C   -2.2528405877 -2.7691425005  2.6819873093
C   -4.9515613531 -0.3941044454  1.4166294527
H   -4.7899679060  1.6081835812  1.3209604029
H   -1.9958431918  2.5066002932  1.1730700276
H   -1.5892412756  2.2259045670  2.6952278115
H   -2.9814892867  2.9390577182  2.3573763061
H   -4.6995293975 -2.3953792378  1.7333227646
H   -1.3815009811 -2.8094927678  2.2356221438
H   -2.7916907712 -3.5438808794  2.4175943888
H   -2.1224759514 -2.7789603790  3.6537559270
C   -6.3472297401 -0.4821203374  0.8432631702
H   -6.9462241106  0.1032743402  1.3519139981
H   -6.6662681949 -1.4066268330  0.9014773937
H   -6.3329795507 -0.1994889168 -0.0949232370
