67
Case 3f IPr; xTB-constructed symmetric analogue
Cu   0.0000000000  0.0000000000  0.0000000000
C    0.1157920199  0.0107359562  1.8819509952
Cl  -0.0000000000 -0.0000000000 -2.1076496765
N    1.2428088290 -0.0000000000  2.6264202523
N   -0.8903786031  0.0277789624  2.7940374520
C    0.9523835312  0.0216801505  3.9805451035
C    2.6012242305 -0.0295073256  2.0595639794
C   -0.3933981865  0.0346225200  4.0835214937
H    1.5769677251  0.0268812881  4.6967550868
C   -2.8575233037  1.3641434616  2.2722332020
C   -2.9963927824 -1.0941578442  2.2730836575
H   -0.9009557739  0.0458322794  4.8867986220
C   -4.1987401422  1.4115057120  1.8858457067
C   -2.0857075710  2.6473281273  2.5133657480
C   -4.3283073396 -0.9846874939  1.8948058324
C   -2.3732329882 -2.4443277852  2.5632676941
C   -4.9207772190  0.2475211578  1.6976752691
H   -4.6195581290  2.2520254824  1.7505796046
C   -1.7662625862  3.3652750597  1.2052279384
C   -2.8076313183  3.5693358235  3.5013693714
H   -1.2136843270  2.3930136679  2.9314496587
H   -4.8426554552 -1.7727738267  1.7693911104
C   -2.8581551296 -2.9588024361  3.9340634453
C   -2.6358899577 -3.4603467615  1.4726874837
H   -1.3836937585 -2.3132991477  2.6231084253
H   -5.8310024867  0.2959510918  1.4305403470
H   -1.2771863898  2.7589841324  0.6107829713
H   -1.2162497787  4.1545865026  1.3915714913
H   -2.6009362811  3.6435494047  0.7730630348
H   -3.6421106626  3.8896486475  3.0977702499
H   -2.2333421494  4.3340798379  3.7133514942
H   -3.0107243410  3.0744217726  4.3216388777
H   -2.6294615746 -2.3054854579  4.6278327879
H   -2.4228225989 -3.8137256941  4.1343036053
H   -3.8296042131 -3.0843059214  3.9107871694
H   -3.5971299335 -3.6429732124  1.4198154434
H   -2.1569476587 -4.2912640896  1.6779722910
H   -2.3224243149 -3.1072904237  0.6140691073
C   -0.1366939485  0.0386976403  2.5537563540
C    2.5536957070  1.2230516341  0.9791411877
C    2.5463309498 -1.2391525105  0.9739185386
C    3.4532676052  1.1944013681 -0.0887308315
C    2.0524976996  2.5479993862  1.5211018208
C    3.4363071323 -1.2052470275 -0.0918521079
C    1.9932408148 -2.5515779458  1.4907594749
C    3.8889130016 -0.0085878702 -0.6127877725
H    3.7695145037  2.0097405840 -0.4589578471
C    3.1355660407  3.2783641921  2.3099285723
C    1.4675469239  3.4315843779  0.4145154478
H    1.3095062014  2.3439965917  2.1584722251
H    3.7398156323 -2.0211545288 -0.4707194252
C    0.9254786824 -3.0877978136  0.5154303391
C    3.0699092071 -3.5841855938  1.7460143623
H    1.5394820341 -2.3654583674  2.3621949432
H    4.5043153249 -0.0117856274 -1.3363113159
H    3.4639296031  2.6983180880  3.0281715126
H    2.7619435958  4.0976788569  2.6964260634
H    3.8768396991  3.5083235331  1.7111670531
H    2.1837341369  3.7036204272 -0.1977921514
H    1.0600074227  4.2278049761  0.8139177406
H    0.7883926543  2.9287982536 -0.0804434877
H    0.2156817662 -2.4205085160  0.4088796571
H    0.5436252009 -3.9164986860  0.8731272692
H    1.3386311883 -3.2672746780 -0.3546841900
H    3.5044703257 -3.8202242227  0.9000991395
H    2.6663275399 -4.3864731926  2.1402321077
H    3.7355519253 -3.2170151244  2.3642704752
