162
Case 4 matched D3 reference; common carbene core; R=H; constructed, unoptimized seed; charge +2; singlet
P    0.9731000000 -1.5387000000 -0.7799000000
Au   2.6230000000 -0.1641000000  0.2807000000
C    0.5594000000 -3.0808000000  0.1773000000
C    0.9374000000 -3.1833000000  1.5184000000
C   -0.0284000000 -4.1768000000 -0.4663000000
C    0.7288000000 -4.3762000000  2.2126000000
H    1.3985000000 -2.3383000000  2.0172000000
C   -0.2350000000 -5.3640000000  0.2299000000
H   -0.2946000000 -4.1197000000 -1.5162000000
C    0.1455000000 -5.4654000000  1.5694000000
H    1.0273000000 -4.4531000000  3.2516000000
H   -0.6806000000 -6.2132000000 -0.2745000000
H   -0.0045000000 -6.3954000000  2.1054000000
C    1.8071000000 -2.2177000000 -2.3177000000
C    2.6570000000 -3.3217000000 -2.1796000000
C    1.6831000000 -1.5966000000 -3.5624000000
C    3.3613000000 -3.8067000000 -3.2790000000
H    2.7702000000 -3.8110000000 -1.2191000000
C    2.3881000000 -2.0899000000 -4.6612000000
H    1.0425000000 -0.7375000000 -3.7147000000
C    3.2255000000 -3.1938000000 -4.5239000000
H    4.0146000000 -4.6632000000 -3.1609000000
H    2.2773000000 -1.6034000000 -5.6234000000
H    3.7749000000 -3.5700000000 -5.3784000000
O   -4.2970000000  3.9895000000  1.9551000000
N   -2.4042000000 -0.5931000000  0.3422000000
O   -2.2316000000  3.7079000000  1.0420000000
C   -1.6335000000 -0.0794000000 -0.6724000000
C   -4.1040000000  2.5267000000  0.0551000000
N   -3.1888000000  1.3605000000 -0.0983000000
C   -4.7512000000  4.7098000000 -1.1630000000
N   -3.3417000000  0.2777000000  0.6997000000
C   -4.1299000000  3.3304000000 -1.2818000000
H   -4.6360000000  2.7247000000 -2.0353000000
H   -3.0991000000  3.4692000000 -1.6130000000
C   -5.8319000000  7.2941000000 -0.9273000000
H   -6.2496000000  8.2901000000 -0.8388000000
C   -4.4552000000  7.0985000000 -0.8233000000
H   -3.7963000000  7.9430000000 -0.6571000000
C   -3.9212000000  5.8173000000 -0.9434000000
H   -2.8483000000  5.6744000000 -0.8661000000
C   -6.1299000000  4.9209000000 -1.2774000000
H   -6.7978000000  4.0889000000 -1.4654000000
C   -2.1331000000  1.1823000000 -0.9329000000
H   -1.8125000000  1.9195000000 -1.6391000000
C   -6.6665000000  6.2020000000 -1.1584000000
H   -7.7367000000  6.3456000000 -1.2517000000
C   -3.4410000000  3.4533000000  1.0861000000
C   -3.3403000000  4.2949000000  4.1808000000
H   -2.5054000000  3.6261000000  3.9581000000
H   -3.0031000000  5.0237000000  4.9231000000
H   -4.1566000000  3.7127000000  4.6168000000
C   -3.8139000000  5.0208000000  2.9355000000
H   -2.9860000000  5.5379000000  2.4457000000
C   -4.9963000000  5.9410000000  3.1512000000
H   -5.8385000000  5.3922000000  3.5808000000
H   -4.7167000000  6.7408000000  3.8425000000
H   -5.3134000000  6.3922000000  2.2084000000
C   -5.4990000000  2.0671000000  0.5400000000
H   -6.1056000000  2.9746000000  0.5817000000
H   -5.3962000000  1.7358000000  1.5739000000
C   -6.2360000000  0.9863000000 -0.2295000000
C   -7.8002000000 -1.0118000000 -1.4640000000
C   -6.5109000000 -0.2247000000  0.4212000000
C   -6.7686000000  1.1758000000 -1.5119000000
C   -7.5353000000  0.1845000000 -2.1267000000
C   -7.2874000000 -1.2107000000 -0.1828000000
H   -6.1186000000 -0.3870000000  1.4188000000
H   -6.6194000000  2.1076000000 -2.0416000000
H   -7.9420000000  0.3602000000 -3.1163000000
H   -7.4953000000 -2.1320000000  0.3497000000
H   -8.4091000000 -1.7746000000 -1.9354000000
Cu  -2.3625000000 -2.1844000000  1.3915000000
C   -0.6507000000 -0.8491000000 -1.4877000000
H   -0.3336000000 -0.2105000000 -2.3112000000
H   -1.1562000000 -1.7048000000 -1.9454000000
N   -2.0451000000 -2.6205000000  3.3971000000
N   -3.2865000000 -3.9722000000  1.3947000000
C    1.4535000000  0.5656000000  3.5931000000
H    2.5169000000  0.6959000000  3.7456000000
C    0.7552000000  1.4919000000  2.8113000000
O   -0.7421000000  0.4409000000 -4.9317000000
O    1.4836000000  2.4907000000  2.1848000000
C   -1.2527000000 -1.9853000000  4.2977000000
C   -2.6548000000 -3.7861000000  3.7244000000
C   -2.4853000000 -4.3595000000  4.9822000000
H   -2.9517000000 -5.3014000000  5.2322000000
C   -4.3109000000 -5.5094000000  2.9152000000
H   -4.4736000000 -5.8636000000  3.9228000000
C   -3.4546000000 -4.4455000000  2.6577000000
C   -1.6784000000 -3.7159000000  5.9153000000
H   -1.5377000000 -4.1448000000  6.8995000000
C   -1.0567000000 -2.5230000000  5.5734000000
H   -0.4366000000 -1.9957000000  6.2857000000
C   -0.6262000000  1.3621000000  2.6586000000
H   -1.1858000000  2.1125000000  2.1189000000
C   -3.9042000000 -4.5632000000  0.3476000000
C    1.4256000000  4.2557000000 -1.2061000000
H    0.4752000000  4.7941000000 -1.0846000000
H    2.1354000000  4.9796000000 -1.6240000000
C   -3.9427000000 -0.9092000000 -3.6100000000
H   -4.8708000000 -0.5585000000 -3.1691000000
C    0.7901000000 -0.5369000000  4.1197000000
C   -3.0022000000  0.0307000000 -4.0381000000
H   -3.2211000000  1.0856000000 -3.9339000000
C   -0.5787000000 -0.7363000000  3.8793000000
C   -1.2796000000  0.2551000000  3.1910000000
H   -2.3485000000  0.1552000000  3.0531000000
C   -4.9738000000 -6.1148000000  1.8495000000
H   -5.6444000000 -6.9459000000  2.0289000000
C    0.8777000000  3.1020000000  0.9893000000
H    0.4166000000  2.2964000000  0.4097000000
H    0.0927000000  3.7946000000  1.2977000000
C    1.2519000000  3.1092000000 -2.2169000000
H    0.5009000000  2.3984000000 -1.8444000000
H    2.1958000000  2.5542000000 -2.2860000000
C   -1.8015000000 -0.4033000000 -4.5999000000
C   -3.6409000000 -4.0622000000 -1.0510000000
H   -3.2892000000 -4.9101000000 -1.6537000000
H   -2.8284000000 -3.3342000000 -1.0152000000
C   -4.7581000000 -5.6513000000  0.5607000000
H   -5.2433000000 -6.1226000000 -0.2844000000
C   -3.7185000000 -2.2831000000 -3.7412000000
C    1.9489000000  3.8057000000  0.1750000000
H    2.3156000000  4.6735000000  0.7339000000
H    2.7976000000  3.1300000000  0.0280000000
C   -4.7443000000 -3.2894000000 -3.2631000000
H   -5.7291000000 -3.0010000000 -3.6493000000
H   -4.5164000000 -4.2699000000 -3.6981000000
C   -1.5833000000 -1.7686000000 -4.7972000000
H   -0.6606000000 -2.0907000000 -5.2620000000
C   -2.5319000000 -2.6911000000 -4.3686000000
H   -2.3479000000 -3.7494000000 -4.5235000000
C    0.8569000000  3.5828000000 -3.6267000000
H    1.6545000000  4.2275000000 -4.0127000000
H   -0.0429000000  4.2129000000 -3.5740000000
C   -0.7790000000  1.8365000000 -4.5100000000
H   -1.4951000000  2.3899000000 -5.1259000000
H   -1.1258000000  1.8758000000 -3.4731000000
C   -4.8771000000 -3.4456000000 -1.7336000000
H   -5.7494000000 -4.0820000000 -1.5413000000
H   -5.0980000000 -2.4752000000 -1.2777000000
C    0.6259000000  2.4206000000 -4.6166000000
H    0.8064000000  2.7505000000 -5.6437000000
H    1.3497000000  1.6240000000 -4.4102000000
H    1.3535000000 -1.2765000000  4.6790000000
C    5.2682000000  1.4242000000  0.3664000000
C    4.1388000000  0.9702000000  1.0823000000
C    5.9812000000  2.5775000000  0.5749000000
H    3.8344000000  1.5989000000  1.9142000000
O    5.7439000000  0.5505000000 -0.6592000000
C    5.3120000000  0.7190000000 -1.9622000000
O    4.5104000000  1.6057000000 -2.2622000000
C    7.0731000000  2.9898000000 -0.3628000000
H    7.5303000000  2.1402000000 -0.8686000000
H    6.6611000000  3.6588000000 -1.1295000000
H    7.8447000000  3.5477000000  0.1718000000
C    5.6574000000  3.5637000000  1.6522000000
H    4.9186000000  3.2181000000  2.3721000000
H    6.5715000000  3.8318000000  2.1902000000
H    5.2785000000  4.4855000000  1.1935000000
H    5.7685707317  0.0114969859 -2.6543579675
