175
Case4 Phenylacetate; Rmp; charge +2; singlet; common 146-atom scaffold; constructed unoptimized seed; no styrene/counterions
P 0.973100 -1.538700 -0.779900
Au 2.623000 -0.164100 0.280700
C 0.559400 -3.080800 0.177300
C 0.937400 -3.183300 1.518400
C -0.028400 -4.176800 -0.466300
C 0.728800 -4.376200 2.212600
H 1.398500 -2.338300 2.017200
C -0.235000 -5.364000 0.229900
H -0.294600 -4.119700 -1.516200
C 0.145500 -5.465400 1.569400
H 1.027300 -4.453100 3.251600
H -0.680600 -6.213200 -0.274500
H -0.004500 -6.395400 2.105400
C 1.807100 -2.217700 -2.317700
C 2.657000 -3.321700 -2.179600
C 1.683100 -1.596600 -3.562400
C 3.361300 -3.806700 -3.279000
H 2.770200 -3.811000 -1.219100
C 2.388100 -2.089900 -4.661200
H 1.042500 -0.737500 -3.714700
C 3.225500 -3.193800 -4.523900
H 4.014600 -4.663200 -3.160900
H 2.277300 -1.603400 -5.623400
H 3.774900 -3.570000 -5.378400
O -4.297000 3.989500 1.955100
N -2.404200 -0.593100 0.342200
O -2.231600 3.707900 1.042000
C -1.633500 -0.079400 -0.672400
C -4.104000 2.526700 0.055100
N -3.188800 1.360500 -0.098300
C -4.751200 4.709800 -1.163000
N -3.341700 0.277700 0.699700
C -4.129900 3.330400 -1.281800
H -4.636000 2.724700 -2.035300
H -3.099100 3.469200 -1.613000
C -5.831900 7.294100 -0.927300
H -6.249600 8.290100 -0.838800
C -4.455200 7.098500 -0.823300
H -3.796300 7.943000 -0.657100
C -3.921200 5.817300 -0.943400
H -2.848300 5.674400 -0.866100
C -6.129900 4.920900 -1.277400
H -6.797800 4.088900 -1.465400
C -2.133100 1.182300 -0.932900
H -1.812500 1.919500 -1.639100
C -6.666500 6.202000 -1.158400
H -7.736700 6.345600 -1.251700
C -3.441000 3.453300 1.086100
C -3.340300 4.294900 4.180800
H -2.505400 3.626100 3.958100
H -3.003100 5.023700 4.923100
H -4.156600 3.712700 4.616800
C -3.813900 5.020800 2.935500
H -2.986000 5.537900 2.445700
C -4.996300 5.941000 3.151200
H -5.838500 5.392200 3.580800
H -4.716700 6.740800 3.842500
H -5.313400 6.392200 2.208400
C -5.499000 2.067100 0.540000
H -6.105600 2.974600 0.581700
H -5.396200 1.735800 1.573900
C -6.236000 0.986300 -0.229500
C -7.800200 -1.011800 -1.464000
C -6.510900 -0.224700 0.421200
C -6.768600 1.175800 -1.511900
C -7.535300 0.184500 -2.126700
C -7.287400 -1.210700 -0.182800
H -6.118600 -0.387000 1.418800
H -6.619400 2.107600 -2.041600
H -7.942000 0.360200 -3.116300
H -7.495300 -2.132000 0.349700
H -8.409100 -1.774600 -1.935400
Cu -2.362500 -2.184400 1.391500
C -0.650700 -0.849100 -1.487700
H -0.333600 -0.210500 -2.311200
H -1.156200 -1.704800 -1.945400
N -2.045100 -2.620500 3.397100
N -3.286500 -3.972200 1.394700
C 1.453500 0.565600 3.593100
H 2.516900 0.695900 3.745600
C 0.755200 1.491900 2.811300
O -0.742100 0.440900 -4.931700
O 1.483600 2.490700 2.184800
C -1.252700 -1.985300 4.297700
C -2.654800 -3.786100 3.724400
C -2.485300 -4.359500 4.982200
H -2.951700 -5.301400 5.232200
C -4.310900 -5.509400 2.915200
H -4.473600 -5.863600 3.922800
C -3.454600 -4.445500 2.657700
C -1.678400 -3.715900 5.915300
H -1.537700 -4.144800 6.899500
C -1.056700 -2.523000 5.573400
H -0.436600 -1.995700 6.285700
C -0.626200 1.362100 2.658600
H -1.185800 2.112500 2.118900
C -3.904200 -4.563200 0.347600
C 1.425600 4.255700 -1.206100
H 0.475200 4.794100 -1.084600
H 2.135400 4.979600 -1.624000
C -3.942700 -0.909200 -3.610000
H -4.870800 -0.558500 -3.169100
C 0.790100 -0.536900 4.119700
C -3.002200 0.030700 -4.038100
H -3.221100 1.085600 -3.933900
C -0.578700 -0.736300 3.879300
C -1.279600 0.255100 3.191000
H -2.348500 0.155200 3.053100
C -4.973800 -6.114800 1.849500
H -5.644400 -6.945900 2.028900
C 0.877700 3.102000 0.989300
H 0.416600 2.296400 0.409700
H 0.092700 3.794600 1.297700
C 1.251900 3.109200 -2.216900
H 0.500900 2.398400 -1.844400
H 2.195800 2.554200 -2.286000
C -1.801500 -0.403300 -4.599900
C -3.640900 -4.062200 -1.051000
H -3.289200 -4.910100 -1.653700
H -2.828400 -3.334200 -1.015200
C -4.758100 -5.651300 0.560700
H -5.243300 -6.122600 -0.284400
C -3.718500 -2.283100 -3.741200
C 1.948900 3.805700 0.175000
H 2.315600 4.673500 0.733900
H 2.797600 3.130000 0.028000
C -4.744300 -3.289400 -3.263100
H -5.729100 -3.001000 -3.649300
H -4.516400 -4.269900 -3.698100
C -1.583300 -1.768600 -4.797200
H -0.660600 -2.090700 -5.262000
C -2.531900 -2.691100 -4.368600
H -2.347900 -3.749400 -4.523500
C 0.856900 3.582800 -3.626700
H 1.654500 4.227500 -4.012700
H -0.042900 4.212900 -3.574000
C -0.779000 1.836500 -4.510000
H -1.495100 2.389900 -5.125900
H -1.125800 1.875800 -3.473100
C -4.877100 -3.445600 -1.733600
H -5.749400 -4.082000 -1.541300
H -5.098000 -2.475200 -1.277700
C 0.625900 2.420600 -4.616600
H 0.806400 2.750500 -5.643700
H 1.349700 1.624000 -4.410200
H 1.353500 -1.276500 4.679000
C 5.268200 1.424200 0.366400
C 4.138800 0.970200 1.082300
C 5.981200 2.577500 0.574900
H 3.834400 1.598900 1.914200
O 5.743900 0.550500 -0.659200
C 5.312000 0.719000 -1.962200
O 4.510400 1.605700 -2.262200
C 7.073100 2.989800 -0.362800
H 7.530300 2.140200 -0.868600
H 6.661100 3.658800 -1.129500
H 7.844700 3.547700 0.171800
C 5.657400 3.563700 1.652200
H 4.918600 3.218100 2.372100
H 6.571500 3.831800 2.190200
H 5.278500 4.485500 1.193500
C 6.200329 0.387833 -4.244033
C 5.331332 1.388212 -4.694995
C 7.298517 0.007516 -5.025185
C 5.561582 2.007641 -5.917841
H 4.488532 1.672258 -4.076869
C 7.520647 0.626499 -6.250794
H 7.968605 -0.763301 -4.667967
C 6.655598 1.627193 -6.696195
H 4.892653 2.786509 -6.263522
H 8.370016 0.334341 -6.856650
H 6.836289 2.112387 -7.648428
C 5.927900 -0.235400 -2.895900
H 6.869853 -0.584031 -2.472484
H 5.254357 -1.081974 -3.029137
