240
aligned d3map frame 1
Ru  -0.1124710000 -1.1337000000 -1.5155990000
N   -1.2096010000  4.4256180000 -0.9447300000
N   -2.7464310000  4.2615530000  0.6938680000
N    3.0631850000  1.3377040000  3.1269230000
N    4.6463250000  2.3278100000  1.8412250000
N   -6.2000770000  3.3301170000  0.8444290000
N    7.7190900000  1.0155440000  0.4786320000
C    1.1361130000  3.9274860000 -4.4051030000
C    1.6940370000  4.2651110000 -3.1710480000
C    0.8799040000  4.4592990000 -2.0560310000
C   -0.5121660000  4.3015620000 -2.1503020000
C   -1.0809890000  3.9903840000 -3.3936930000
C   -0.2492800000  3.8133350000 -4.5003160000
C    3.1761160000  4.3340420000 -3.0318580000
C   -2.5434070000  4.4228360000 -0.6335520000
C   -4.0218350000  4.4142850000  1.3657290000
C   -3.7843150000  4.7228830000  2.8829600000
C   -5.1480930000  4.8078240000  3.5901180000
C   -3.0799510000  6.0888620000  2.9914290000
C   -2.9279290000  3.6454620000  3.5753830000
C   -1.4008890000  0.1908060000  4.6096540000
C    0.0337830000 -0.2231070000  4.4764730000
C    2.6909530000 -0.9478260000  4.0556040000
C    1.7721370000 -1.8556740000  4.5759970000
C    0.4353200000 -1.5175120000  4.7881260000
C    4.3817670000  1.3460330000  2.7359100000
C    5.9712820000  2.5823650000  1.2985180000
C    5.9944940000  3.9397380000  0.5042200000
C    7.4082320000  4.1855520000 -0.0511500000
C    5.6506600000  5.0654230000  1.4998650000
C    4.9704570000  3.8877970000 -0.6514310000
C    4.8875730000  5.1146030000 -1.5605520000
C    6.4242370000  1.4208750000  0.3922660000
C   -4.8895000000  3.1522990000  1.1753110000
C   -6.8169310000  4.5814890000  0.3674710000
C   -8.0793580000  4.1025800000 -0.3526790000
C   -8.4871150000  2.8744890000  0.4614470000
C   -7.1428110000  2.1793430000  0.8156430000
C    8.6841090000  1.3065270000  1.5512860000
C    9.8449210000  0.3520040000  1.2433310000
C    9.7930790000  0.2238140000 -0.2850220000
C    8.2763530000  0.1684060000 -0.5832990000
C    2.1987840000 -3.2522080000  4.9309650000
C   -0.8475260000  3.5162280000 -5.8467970000
C   -6.7718880000  1.1849020000 -0.2881250000
C   -7.2215850000 -0.1430650000 -0.2334820000
C   -6.0335900000  1.5961340000 -1.4062920000
C   -5.7110860000  0.7027740000 -2.4211760000
C   -6.1337840000 -0.6196790000 -2.3131150000
C    7.7510270000 -1.2543940000 -0.5978470000
C    7.7692260000 -1.9604240000 -1.8089260000
C    7.3097840000 -1.9000410000  0.5623060000
C    7.3437330000 -3.2804800000 -1.8752980000
C    6.8953280000 -3.2280090000  0.5184220000
C    6.9089660000 -3.8971580000 -0.7030460000
C   -6.9069690000 -1.0500890000 -1.2379040000
O    3.9579280000  3.6745530000 -3.6905830000
O    3.5347010000  5.2036870000 -2.0662950000
O   -4.4182810000  2.0328620000  1.3892670000
O    5.6740080000  0.9593940000 -0.4709380000
F    1.4574410000 -4.1730240000  4.2601040000
F    2.0255050000 -3.5090700000  6.2457050000
F    3.4939420000 -3.4920400000  4.6391830000
F   -0.7100050000  4.5553810000 -6.6978660000
F   -2.1659160000  3.2268110000 -5.7783190000
F   -0.2379990000  2.4541090000 -6.4368880000
F   -1.5444980000  1.3637350000  5.2567400000
F   -1.9760420000  0.3599100000  3.3812340000
F   -2.1544650000 -0.7277930000  5.2583020000
S    5.5909480000  0.3190770000  3.3210480000
S   -3.8140060000  4.6359010000 -1.7312480000
H    1.7790300000  3.7569440000 -5.2606220000
H    1.3366460000  4.6876090000 -1.0990030000
H   -2.1511090000  3.8896030000 -3.4895120000
H   -0.5958180000  4.5385800000 -0.1323080000
H   -1.9261850000  4.1357080000  1.2789840000
H   -4.5236050000  5.2802460000  0.9312340000
H   -5.0053640000  5.1220090000  4.6295440000
H   -5.8072600000  5.5401300000  3.1094520000
H   -5.6602280000  3.8406460000  3.6018550000
H   -3.6793490000  6.8815450000  2.5273460000
H   -2.9355460000  6.3481170000  4.0466310000
H   -2.0960570000  6.0748610000  2.5140260000
H   -1.8872260000  3.6537200000  3.2348030000
H   -3.3313370000  2.6462630000  3.4080640000
H   -0.2670350000 -2.2424530000  5.1799080000
H    3.8585730000  2.8626710000  1.4749670000
H    6.6636310000  2.6796770000  2.1384110000
H    7.4464700000  5.1569040000 -0.5553210000
H    8.1551360000  4.2082080000  0.7500280000
H    7.7028060000  3.4227670000 -0.7784810000
H    5.7690930000  6.0489680000  1.0336960000
H    4.6197470000  4.9836360000  1.8499370000
H    6.3177930000  5.0308710000  2.3688340000
H    3.9733600000  3.7883190000 -0.2276990000
H    5.1510440000  3.0053070000 -1.2650870000
H    5.5835590000  5.0686480000 -2.4011100000
H    5.0251060000  6.0546800000 -1.0243340000
H   -7.0733670000  5.2333200000  1.2129120000
H   -6.1329280000  5.1088900000 -0.2992920000
H   -7.8374940000  3.8183590000 -1.3819130000
H   -8.8548630000  4.8725810000 -0.3868770000
H    9.0189070000  2.3493500000  1.5029010000
H    8.2228420000  1.1268130000  2.5256910000
H    9.6661210000 -0.6223390000  1.7100990000
H    10.8019890000  0.7313800000  1.6108880000
H   -2.9027860000  3.8389770000  4.6535480000
H   -9.1601840000  2.1957870000 -0.0682720000
H   -8.9809590000  3.1857790000  1.3900580000
H   -7.7930510000 -0.4942920000  0.6167710000
H   -5.6489740000  2.6076390000 -1.4623470000
H   -5.1103220000  1.0103240000 -3.2673260000
H    10.2217490000  1.1163200000 -0.7554550000
H    10.3209520000 -0.6526110000 -0.6684630000
H    8.1033440000 -1.4607100000 -2.7141460000
H    7.2360610000 -1.3464020000  1.4920240000
H    7.3330060000 -3.8316330000 -2.8067420000
H    6.5376510000 -3.7380540000  1.4035850000
H   -7.2150740000 -2.0851170000 -1.1858240000
Ru   1.6542510000 -3.2423300000 -1.0373550000
C   -1.7448510000 -2.0844750000 -1.2813420000
S    0.6733710000 -1.8821390000  0.5898090000
S    0.6087200000 -2.7087510000 -3.0920110000
Cl  -0.0015640000 -4.9756620000 -0.5776550000
C   -1.2650490000  0.8045650000 -1.5655820000
C   -0.7791960000  0.4770320000 -2.8815530000
C    0.6664300000  0.6488180000 -2.8772020000
C    1.0643760000  0.9665780000 -1.5582670000
C   -0.1276590000  1.0350890000 -0.7381970000
C   -2.6968240000  0.9663430000 -1.1851550000
H   -3.0961430000  1.8735730000 -1.6508970000
H   -2.8392780000  1.0755480000 -0.1095570000
H   -3.3016720000  0.1256480000 -1.5270380000
C   -1.6392320000  0.2308580000 -4.0824480000
H   -1.0977430000 -0.3350980000 -4.8452030000
H   -1.9621150000  1.1756080000 -4.5324220000
H   -2.5372170000 -0.3333510000 -3.8175770000
C    1.5338270000  0.5467930000 -4.0920460000
H    2.5088710000  1.0092470000 -3.9215850000
H    1.0609440000  1.0608150000 -4.9320770000
H    1.6847960000 -0.4974230000 -4.3903230000
C    2.4282110000  1.2995890000 -1.0476770000
H    2.7815260000  0.5728260000 -0.3136130000
H    2.3984760000  2.2709500000 -0.5469910000
H    3.1667140000  1.3477060000 -1.8476270000
C   -0.1406940000  1.4279750000  0.7012640000
C    3.2663240000 -4.8241610000 -1.0818570000
C    3.3263680000 -4.0567540000  0.1357110000
C    3.6901950000 -2.6974150000 -0.2110050000
C    3.7823600000 -2.6166450000 -1.6351740000
C    3.5287520000 -3.9365470000 -2.1654950000
C    3.0511050000 -6.2986480000 -1.1658290000
H    2.6458360000 -6.5880620000 -2.1382210000
H    4.0104640000 -6.8099180000 -1.0221120000
H    2.3495210000 -6.6324760000 -0.3994010000
C    3.2010260000 -4.6119710000  1.5165350000
H    3.1153480000 -3.8101240000  2.2479770000
H    4.0834810000 -5.2140010000  1.7656690000
H    2.3158400000 -5.2478590000  1.6040360000
C    3.9924820000 -1.6176140000  0.7764770000
H    4.5541080000 -0.8025930000  0.3217550000
H    4.5925730000 -2.0127800000  1.5983710000
H    3.0829370000 -1.2050240000  1.2223480000
C    4.2308840000 -1.4516010000 -2.4607650000
H    3.4726030000 -1.1667450000 -3.1936950000
H    4.4690270000 -0.5854940000 -1.8444370000
H    5.1386080000 -1.7185670000 -3.0141230000
C    3.6466970000 -4.3165880000 -3.6063680000
H    2.9895690000 -5.1539340000 -3.8539950000
H    4.6779820000 -4.6291110000 -3.8151780000
H    3.3971270000 -3.4786060000 -4.2616030000
C   -0.6134370000 -2.6623540000  1.6249690000
H   -0.0939580000 -3.2484210000  2.3858230000
H   -1.2601580000 -3.3042260000  1.0339700000
H   -1.1707990000 -1.8548030000  2.1040740000
C   -0.7169890000 -3.8496240000 -3.6231780000
H   -1.1386680000 -4.3652510000 -2.7633570000
H   -0.2692960000 -4.5649980000 -4.3182810000
H   -1.4792770000 -3.2590830000 -4.1376340000
S    1.3509420000  4.5457170000  2.1348600000
O    2.3018600000  4.0708380000  1.0821630000
O    1.3889300000  3.6968400000  3.3562670000
O   -0.0321460000  4.7589510000  1.5950270000
C    1.9036140000  6.1840010000  2.6289260000
C   -2.8909000000 -2.5557580000 -1.0863890000
C   -4.0899690000 -3.0008180000 -0.6436520000
C   -4.6686800000 -2.5689530000  0.5913010000
H   -4.6586550000 -3.7156050000 -1.2340060000
C   -5.8956780000 -3.1306200000  1.0590690000
C   -4.0719030000 -1.5544260000  1.3684070000
C   -4.6155340000 -1.1222510000  2.5595880000
C   -5.8061810000 -1.7146500000  3.0152700000
C   -6.4519300000 -2.7096260000  2.2608670000
H   -1.0418110000  1.0828800000  1.2100380000
H   -0.0982220000  2.5153830000  0.7938540000
H    0.7251860000  1.0190390000  1.2246210000
H   -7.3669500000 -3.1348260000  2.6519430000
H   -3.1676260000 -1.0927610000  0.9921930000
H    3.7195400000 -1.2361640000  3.9069870000
H    1.2106320000  6.5652630000  3.3809170000
H    1.9046100000  6.8275160000  1.7472200000
H    2.9095090000  6.1022550000  3.0444430000
O   -6.4551810000 -4.0603310000  0.2553620000
O   -6.4141400000 -1.3747320000  4.1719190000
C   -5.7528730000 -0.4474150000  5.0355730000
H   -6.3649090000 -0.4013070000  5.9368090000
H   -5.6962240000  0.5462480000  4.5783460000
H   -4.7435280000 -0.7896550000  5.2854390000
C   -7.7834290000 -4.5224620000  0.5224770000
H   -8.4399660000 -3.6554570000  0.6655060000
H   -7.7895390000 -5.1137260000  1.4483590000
H    2.5484560000  2.2112690000  2.9781700000
N    6.4228550000 -5.2739040000 -0.7692700000
N   -5.7087210000 -1.5944670000 -3.3157140000
O   -6.1270880000 -2.7505840000 -3.2117900000
O    6.3297080000 -5.7994940000 -1.8812390000
O   -4.9410600000 -1.2133510000 -4.2015550000
O    6.1229770000 -5.8333770000  0.2866560000
H   -4.1361130000 -0.3241430000  3.1034780000
C    2.2716210000  0.3539430000  3.7324970000
C    0.9333250000  0.7102180000  3.9700740000
H    0.6060370000  1.7200510000  3.7500210000
C   -8.2051870000 -5.3611640000 -0.6733940000
H   -7.4615060000 -6.1559620000 -0.8078540000
H   -8.1597290000 -4.7348570000 -1.5744010000
C   -9.6060310000 -5.9811810000 -0.5360590000
H   -9.6234900000 -6.5807240000  0.3869610000
C   -10.7070210000 -4.9154530000 -0.4340500000
H   -10.5995170000 -4.2879980000  0.4577900000
H   -10.6898420000 -4.2570660000 -1.3121530000
H   -11.6969420000 -5.3828230000 -0.3877910000
C   -9.8767720000 -6.9229340000 -1.7162320000
H   -9.1167630000 -7.7096890000 -1.7812910000
H   -10.8563190000 -7.4044580000 -1.6193460000
H   -9.8674520000 -6.3697330000 -2.6637500000
C   -7.2277220000  1.5162150000  2.1973680000
H   -7.3775070000  2.2913220000  2.9553460000
H   -8.0764150000  0.8285860000  2.2549570000
H   -6.3113430000  0.9713990000  2.4137190000
H    8.0394220000  0.6211380000 -1.5513220000
