240
aligned d3map frame 1
Ru   0.0891220000  1.0263860000 -1.5279560000
N   -3.1081900000 -1.1266430000  3.2280410000
N   -4.6658900000 -2.1497940000  1.9750400000
N    1.5711760000 -4.4478040000 -0.5990570000
N    2.8396510000 -4.1675780000  1.2742980000
N   -7.7114480000 -1.1555560000  0.3449320000
N    6.1855190000 -2.8373860000  1.3618180000
C   -0.3601440000  1.5895230000  4.8913410000
C   -0.0456830000  0.2467490000  4.6775380000
C   -1.0011680000 -0.6303680000  4.1652340000
C   -2.2927200000 -0.1786180000  3.8476750000
C   -2.6332860000  1.1565760000  4.1153460000
C   -1.6613040000  2.0169730000  4.6304940000
C    1.3295620000 -0.2457390000  4.9624870000
C   -4.4247740000 -1.1405180000  2.8426950000
C   -5.9659790000 -2.5269540000  1.4653780000
C   -5.9142190000 -4.0049960000  0.9409080000
C   -7.2931550000 -4.3947780000  0.3818940000
C   -5.5911390000 -4.9247600000  2.1349190000
C   -4.8565260000 -4.2008510000 -0.1626570000
C   -2.2493900000 -4.4493460000 -3.5958110000
C   -0.7593780000 -4.3380350000 -3.4340620000
C    1.9880520000 -4.1671870000 -3.0366880000
C    1.4406980000 -4.0329970000 -4.3104900000
C    0.0680190000 -4.1212610000 -4.5352040000
C    2.8278560000 -4.4426080000 -0.0526560000
C    4.0729850000 -3.9793190000  2.0244220000
C    3.7799020000 -3.8283910000  3.5582310000
C    5.1128640000 -3.6361940000  4.3043580000
C    3.1247250000 -5.1365530000  4.0460690000
C    2.8521120000 -2.6166980000  3.8034120000
C    2.5576230000 -2.2767500000  5.2621890000
C    4.8351630000 -2.7448340000  1.4937240000
C   -6.4051270000 -1.5397690000  0.3627190000
C   -8.6697940000 -1.3174360000  1.4568800000
C   -9.8169900000 -0.3726190000  1.0858160000
C   -9.7911720000 -0.3917350000 -0.4426600000
C   -8.2790010000 -0.3925890000 -0.7978400000
C    6.9986390000 -4.0646890000  1.3351180000
C    8.3259440000 -3.5871380000  0.7357100000
C    8.4297160000 -2.1423930000  1.2401980000
C    6.9796630000 -1.6236400000  1.1141900000
C    2.3819170000 -3.8114740000 -5.4627510000
C   -1.9924520000  3.4549120000  4.9204740000
C   -7.7708130000  1.0520950000 -0.8176260000
C   -7.9096930000  1.8380520000 -1.9737570000
C   -7.2377000000  1.6459340000  0.3337140000
C   -6.8458500000  2.9804260000  0.3363370000
C   -6.9624780000  3.7197900000 -0.8365730000
C    6.7075570000 -0.9602140000 -0.2231900000
C    7.0266940000  0.3954630000 -0.3621390000
C    6.1501300000 -1.6473030000 -1.3063460000
C    6.7132110000  1.0873410000 -1.5243660000
C    5.8295730000 -0.9726250000 -2.4796410000
C    6.0779010000  0.3971100000 -2.5549180000
C   -7.4959400000  3.1651180000 -1.9981250000
O    2.3375330000  0.4375890000  4.8921680000
O    1.3118990000 -1.5459730000  5.2997920000
O   -5.6062890000 -1.1782130000 -0.5055220000
O    4.2485540000 -1.6758520000  1.3058140000
F    1.7694130000 -3.1809280000 -6.4931070000
F    2.8750600000 -4.9711700000 -5.9467120000
F    3.4426600000 -3.0514390000 -5.1019030000
F   -1.7176160000  3.7800790000  6.2023750000
F   -3.2898880000  3.7477620000  4.6973450000
F   -1.2532600000  4.2948060000  4.1473570000
F   -2.6799600000 -5.7234560000 -3.4758690000
F   -2.9060780000 -3.7301730000 -2.6497960000
F   -2.6669130000 -3.9982700000 -4.8008540000
S    4.2552160000 -4.8013920000 -0.8905090000
S   -5.6355780000 -0.0987840000  3.3972410000
H    0.3925970000  2.2698860000  5.2722840000
H   -0.7328580000 -1.6666480000  3.9866390000
H   -3.6370120000  1.5068430000  3.9259890000
H   -2.6072160000 -1.9920830000  3.0060710000
H   -3.8768650000 -2.7290020000  1.7065450000
H   -6.6731860000 -2.4948410000  2.2961770000
H   -7.2782490000 -5.4439830000  0.0686940000
H   -8.0787470000 -4.2877640000  1.1383520000
H   -7.5675530000 -3.7923850000 -0.4891430000
H   -6.3427940000 -4.8221670000  2.9269200000
H   -5.5904100000 -5.9702470000  1.8047040000
H   -4.6094200000 -4.7053640000  2.5633070000
H   -3.8336040000 -4.0919580000  0.2103600000
H   -4.9933610000 -3.4971490000 -0.9854230000
H   -0.3435160000 -4.0022490000 -5.5289460000
H    1.9571200000 -3.9592310000  1.7393350000
H    4.6868900000 -4.8735510000  1.8963790000
H    4.9374740000 -3.5972800000  5.3844150000
H    5.7967050000 -4.4714780000  4.1183050000
H    5.6185390000 -2.7097350000  4.0130400000
H    3.0282700000 -5.1387620000  5.1369710000
H    2.1258340000 -5.2680970000  3.6244460000
H    3.7409600000 -6.0001900000  3.7704080000
H    1.8795720000 -2.8115340000  3.3517370000
H    3.2652070000 -1.7354640000  3.3116910000
H    3.3412490000 -1.6770030000  5.7310990000
H    2.3613700000 -3.1596230000  5.8716960000
H   -9.0246430000 -2.3529580000  1.5119460000
H   -8.1937730000 -1.0535360000  2.4044450000
H   -9.6133470000  0.6361960000  1.4587280000
H   -10.7723430000 -0.7009020000  1.5036170000
H    7.1489890000 -4.4539110000  2.3497090000
H    6.5043620000 -4.8261260000  0.7279090000
H    8.2672550000 -3.6005050000 -0.3580270000
H    9.1689100000 -4.2136560000  1.0390640000
H   -4.9342930000 -5.2183860000 -0.5621400000
H   -10.3118400000  0.4508290000 -0.9045680000
H   -10.2415420000 -1.3187160000 -0.8180480000
H   -8.3310350000  1.4106300000 -2.8764230000
H   -7.0835730000  1.0544690000  1.2288990000
H   -6.4262550000  3.4403830000  1.2214830000
H    8.7335390000 -2.1291970000  2.2936260000
H    9.1340570000 -1.5293220000  0.6729540000
H    7.4618270000  0.9315140000  0.4753090000
H    5.8828070000 -2.6928270000 -1.2057570000
H    6.8942460000  2.1497820000 -1.6192370000
H    5.3393470000 -1.4781060000 -3.3022930000
H   -7.5757570000  3.7684710000 -2.8934490000
Ru  -1.6758190000  3.1392880000 -1.1034350000
C    1.7095030000  2.0182930000 -1.4039900000
S   -0.6326220000  1.8699020000  0.5636320000
S   -0.7352920000  2.4901580000 -3.1693160000
Cl   0.0047160000  4.8876400000 -0.8167050000
C    1.3199180000 -0.8712670000 -1.7333830000
C    0.5542610000 -0.6472040000 -2.9288440000
C   -0.8493700000 -0.8589790000 -2.6066250000
C   -0.9477260000 -1.0998610000 -1.2189890000
C    0.3966680000 -1.0685900000 -0.6639390000
C    2.8067910000 -0.9322700000 -1.6515640000
H    3.1411560000 -1.9527650000 -1.8660290000
H    3.1885810000 -0.6755750000 -0.6638200000
H    3.2650040000 -0.2711370000 -2.3866860000
C    1.0998810000 -0.4265810000 -4.3065920000
H    0.4468820000  0.2353060000 -4.8822410000
H    1.1758290000 -1.3705370000 -4.8535600000
H    2.0960550000  0.0216130000 -4.2754040000
C   -1.9344350000 -0.8722040000 -3.6322070000
H   -2.9104600000 -1.0526280000 -3.1827770000
H   -1.7492560000 -1.6648630000 -4.3638760000
H   -1.9665470000  0.0758390000 -4.1796960000
C   -2.1482990000 -1.4505920000 -0.4041700000
H   -2.1846230000 -0.8523980000  0.5103600000
H   -2.0788660000 -2.5016380000 -0.1013650000
H   -3.0892810000 -1.3115700000 -0.9356420000
C    0.7299940000 -1.3743000000  0.7621150000
C   -3.2950480000  4.7304460000 -1.0441330000
C   -3.3149870000  3.9286470000  0.1476040000
C   -3.6707280000  2.5740690000 -0.2280100000
C   -3.8062640000  2.5358970000 -1.6482780000
C   -3.5734320000  3.8734930000 -2.1490190000
C   -3.0846960000  6.2063880000 -1.0976430000
H   -2.6326520000  6.5110530000 -2.0441220000
H   -4.0547890000  6.7072400000 -0.9927960000
H   -2.4253040000  6.5356230000 -0.2929830000
C   -3.1561410000  4.4311420000  1.5439160000
H   -2.9924430000  3.6017300000  2.2301990000
H   -4.0583940000  4.9683440000  1.8617920000
H   -2.3052530000  5.1121640000  1.6261550000
C   -3.9309550000  1.4675770000  0.7367910000
H   -4.3543940000  0.5908770000  0.2485540000
H   -4.6393290000  1.7907700000  1.5011680000
H   -3.0202250000  1.1693120000  1.2620900000
C   -4.2799740000  1.3916580000 -2.4816820000
H   -3.6761560000  1.2875480000 -3.3856740000
H   -4.2576230000  0.4533230000 -1.9281260000
H   -5.3173250000  1.5632250000 -2.7902630000
C   -3.7268360000  4.3027110000 -3.5729860000
H   -3.0657700000  5.1405900000 -3.8086680000
H   -4.7593180000  4.6331580000 -3.7436080000
H   -3.5041420000  3.4849150000 -4.2625530000
C    0.6500530000  2.7272190000  1.5412800000
H    0.1270350000  3.3775620000  2.2454230000
H    1.3071440000  3.3136560000  0.9054420000
H    1.1983180000  1.9644070000  2.0998340000
C    0.5563830000  3.5994470000 -3.8338350000
H    1.0285830000  4.1552650000 -3.0269810000
H    0.0695150000  4.2812920000 -4.5363230000
H    1.2864260000  2.9816020000 -4.3631900000
S   -1.0737820000 -4.5224080000  2.2121230000
O    0.1807930000 -4.0078400000  2.8343670000
O   -0.9171470000 -4.7615560000  0.7478180000
O   -2.2800830000 -3.6981330000  2.5343760000
C   -1.3937190000 -6.1288050000  2.9534740000
C    2.8537460000  2.5116150000 -1.2604890000
C    4.0481670000  2.9866660000 -0.8383830000
C    4.6082870000  2.6413550000  0.4324760000
H    4.6206830000  3.6630450000 -1.4693640000
C    5.8146360000  3.2496450000  0.8938290000
C    4.0080580000  1.6657310000  1.2558610000
C    4.5295480000  1.3045520000  2.4802750000
C    5.7067320000  1.9343870000  2.9219450000
C    6.3481680000  2.9047550000  2.1295740000
H    1.8003590000 -1.2840610000  0.9588820000
H    0.4313190000 -2.3973970000  0.9980080000
H    0.1831090000 -0.7265800000  1.4530480000
H    7.2528910000  3.3566110000  2.5141000000
H    3.1152130000  1.1754290000  0.8893510000
H    3.0550310000 -4.0968590000 -2.8983380000
H   -2.3105620000 -6.5305300000  2.5182800000
H   -1.5086690000 -5.9943770000  4.0304940000
H   -0.5477400000 -6.7834940000  2.7359190000
O    6.3853870000  4.1359810000  0.0466830000
O    6.3120940000  1.6545520000  4.0947410000
C    5.7202940000  0.6624480000  4.9383460000
H    6.3423600000  0.6347850000  5.8336950000
H    5.7352240000 -0.3193210000  4.4486350000
H    4.6887480000  0.9156640000  5.1973220000
C    7.6344210000  4.7410420000  0.3979330000
H    8.3688280000  3.9528690000  0.6037240000
H    7.5071050000  5.3386110000  1.3108570000
H    0.7811340000 -4.4843260000  0.0554940000
N    5.5654530000  1.1547120000 -3.6959830000
N   -6.4847570000  5.1004890000 -0.8592860000
O   -6.4451110000  5.6801440000 -1.9475410000
O    5.8525520000  2.3507830000 -3.7722920000
O   -6.1343690000  5.6078920000  0.2073420000
O    4.8451100000  0.5600120000 -4.5019070000
H    4.0271460000  0.5599980000  3.0796590000
C    1.1491620000 -4.3860240000 -1.9352600000
C   -0.2362780000 -4.4745940000 -2.1535030000
H   -0.9003490000 -4.6249190000 -1.3124730000
C    8.0539030000  5.6126720000 -0.7746240000
H    7.2263100000  6.2957600000 -1.0008320000
H    8.1882510000  4.9763190000 -1.6596510000
C    9.3361780000  6.4226580000 -0.5174480000
H    9.1719300000  7.0397400000  0.3790500000
C    10.5531890000  5.5221780000 -0.2602940000
H    10.4352920000  4.9083840000  0.6396650000
H    10.7204390000  4.8460160000 -1.1086660000
H    11.4600750000  6.1230980000 -0.1301570000
C    9.6032550000  7.3656290000 -1.6973750000
H    8.7545080000  8.0363430000 -1.8722990000
H    10.4908140000  7.9819530000 -1.5155510000
H    9.7747990000  6.7953990000 -2.6190270000
C   -8.0373320000 -1.1180420000 -2.1305320000
H   -8.3019610000 -2.1734390000 -2.0161960000
H   -8.6777140000 -0.7027280000 -2.9145260000
H   -6.9942990000 -1.0485660000 -2.4374800000
H    6.7484470000 -0.8881740000  1.8920160000
