240
aligned d3map frame 1
C    3.4860190000  4.7596360000  0.5607350000
C    2.9081050000  4.7558150000 -0.7090060000
C    2.9331920000  3.5959120000 -1.4873190000
C    3.5684700000  2.4500070000 -1.0213910000
C    4.1718660000  2.4510750000  0.2390720000
C    4.1119190000  3.6011020000  1.0270370000
N    3.5292510000  1.2938040000 -1.8337620000
C    2.3217180000  6.0095000000 -1.2519480000
O    2.1479240000  7.0376150000 -0.6199470000
O    2.0548170000  5.8816140000 -2.5655310000
C    4.6001370000  0.5901380000 -2.2982430000
N    4.2469780000 -0.4514760000 -3.0863790000
C    5.1901960000 -1.3309780000 -3.7490190000
C    4.5240810000 -2.0114340000 -4.9893700000
C    5.5252730000 -2.9951100000 -5.6210340000
C    4.1937210000 -0.9112910000 -6.0129820000
C    3.2388420000 -2.7793970000 -4.6226720000
C   -4.2457760000 -2.7389510000 -3.0935040000
C   -4.5713280000 -1.3890520000 -2.5186100000
C   -3.7561220000 -0.3134900000 -2.8558800000
C   -3.9850850000  0.9561560000 -2.2968190000
C   -5.0454520000  1.1137200000 -1.3888440000
C   -5.8436170000  0.0187660000 -1.0648070000
C   -5.6292470000 -1.2402980000 -1.6256120000
N   -3.0722380000  1.9555760000 -2.6575610000
C   -3.0510680000  3.3048490000 -2.4231940000
N   -1.8676290000  3.8668620000 -2.7965390000
C   -1.5722350000  5.2695860000 -2.5651900000
C   -0.8021200000  5.9256470000 -3.7825430000
C   -1.9041820000  6.4326480000 -4.7359350000
C    0.0382980000  4.8927750000 -4.5521140000
C    0.0553510000  7.1542150000 -3.3281730000
C    1.5773910000  7.0217700000 -3.2971630000
C   -0.9058900000  5.3917140000 -1.1899170000
C    5.7312230000 -2.3714320000 -2.7494010000
O    4.9526120000 -3.0419550000 -2.0667680000
N    7.0765470000 -2.5475180000 -2.6689380000
C    8.1106920000 -1.8121290000 -3.4164790000
C    9.3659350000 -2.6655860000 -3.2217640000
C    9.1689210000 -3.2490190000 -1.8201400000
C    7.6475220000 -3.5595900000 -1.7377850000
O   -0.0926520000  4.5581680000 -0.7884360000
N   -1.2737050000  6.4545870000 -0.4246270000
C   -2.3239020000  7.4512340000 -0.7103130000
C   -2.3553920000  8.3178640000  0.5603460000
C   -0.9493310000  8.1463600000  1.1527290000
C   -0.6361270000  6.6607280000  0.8784650000
C   -6.9905400000  0.1990190000 -0.1100480000
F   -8.1844770000  0.2103760000 -0.7539360000
F   -6.9048250000  1.3436300000  0.5946010000
F   -7.0612350000 -0.8173960000  0.7920350000
C    4.6642100000  3.5685250000  2.4222620000
F    3.6944890000  3.2700790000  3.3376830000
F    5.1800200000  4.7573300000  2.7963460000
F    5.6276130000  2.6346090000  2.5741140000
H    3.4621960000  5.6643190000  1.1571070000
H    2.4538520000  3.5771240000 -2.4537160000
H    4.6805240000  1.5659520000  0.5923710000
H    2.6050800000  1.0067380000 -2.1618540000
H    3.2516890000 -0.6366400000 -3.1898550000
H    6.0080070000 -0.7032600000 -4.1047650000
H    5.0862790000 -3.4429620000 -6.5190270000
H    6.4508540000 -2.4922940000 -5.9248700000
H    5.7826500000 -3.8096270000 -4.9362820000
H    5.0990570000 -0.3830920000 -6.3354610000
H    3.7209820000 -1.3482470000 -6.9000560000
H    3.5055530000 -0.1743580000 -5.5915670000
H    2.4373840000 -2.1174480000 -4.2791830000
H    3.4290180000 -3.5168570000 -3.8402500000
H   -2.9253740000 -0.4537170000 -3.5369380000
H   -5.2340380000  2.0788100000 -0.9458000000
H   -6.2525460000 -2.0820800000 -1.3585840000
H   -2.2510110000  1.5689160000 -3.1395750000
H   -1.0433550000  3.2518370000 -2.8094370000
H   -2.5385370000  5.7651570000 -2.5038440000
H   -1.4687040000  6.8025790000 -5.6717190000
H   -2.6034760000  5.6249690000 -4.9780780000
H   -2.4784150000  7.2492840000 -4.2820450000
H    0.5772960000  5.3837740000 -5.3702960000
H    0.7579820000  4.3816760000 -3.9139420000
H   -0.6189730000  4.1410850000 -4.9975490000
H   -0.2626610000  7.5021730000 -2.3454570000
H   -0.1389100000  7.9858890000 -4.0182020000
H    2.0102470000  7.9263060000 -2.8621190000
H    1.9831180000  6.8780190000 -4.3004250000
H    7.8444690000 -1.7184870000 -4.4698790000
H    8.2209660000 -0.8039750000 -3.0007890000
H    10.2826120000 -2.0764400000 -3.3120290000
H    9.4029670000 -3.4629470000 -3.9722280000
H   -2.0585140000  8.0525140000 -1.5875200000
H   -3.2798780000  6.9579480000 -0.9113240000
H   -3.1060980000  7.9333730000  1.2585410000
H   -2.6058860000  9.3588260000  0.3397790000
S   -4.3386930000  4.2092990000 -1.7883460000
S    6.2069330000  0.9943360000 -1.9424000000
F   -5.3002010000 -3.5890770000 -3.0200050000
F   -3.8843530000 -2.6612040000 -4.3909600000
F   -3.2185000000 -3.3269020000 -2.4370400000
H    2.8653660000 -3.2991800000 -5.5128570000
H    9.4319600000 -2.5000640000 -1.0667040000
H    9.7662440000 -4.1437540000 -1.6249110000
C    7.1591720000 -3.3362480000 -0.3077630000
C    6.8658380000 -4.4013390000  0.5519030000
C    7.0866510000 -2.0262790000  0.1946670000
C    6.4927270000 -4.1758850000  1.8730740000
H    6.9047310000 -5.4222020000  0.1931810000
C    6.7195300000 -1.7815500000  1.5104480000
H    7.2706930000 -1.1837330000 -0.4644480000
C    6.4193120000 -2.8656590000  2.3365310000
H    6.6489090000 -0.7719980000  1.8955630000
C    7.3455350000 -4.9669020000 -2.2764190000
H    7.6958060000 -5.0434460000 -3.3099410000
H    7.8606500000 -5.7364340000 -1.6934420000
H    6.2709550000 -5.1578960000 -2.2569620000
H   -0.2191280000  8.7576160000  0.6112480000
H   -0.8931070000  8.3971690000  2.2149640000
C   -1.1995550000  5.7573220000  1.9559490000
C   -0.4630720000  5.5680990000  3.1342280000
C   -2.4633560000  5.1656060000  1.8363670000
C   -0.9850650000  4.8366840000  4.1926370000
H    0.5295010000  6.0017150000  3.2189210000
C   -3.0070690000  4.4397520000  2.8899420000
H   -3.0215720000  5.2553410000  0.9101900000
C   -2.2636120000  4.2951770000  4.0586360000
H   -0.4307400000  4.6833950000  5.1093720000
H   -3.9882700000  3.9902020000  2.8157180000
H    6.2511360000 -4.9934400000  2.5398300000
N    5.9986680000 -2.6252020000  3.7125020000
N   -2.8342190000  3.5452960000  5.1701850000
O    5.7008750000 -3.6008990000  4.4072430000
O    5.9500790000 -1.4586090000  4.1097590000
O   -3.9843580000  3.1164970000  5.0517650000
O   -2.1347760000  3.3682480000  6.1720200000
S    0.4164060000  0.8893020000 -3.6486470000
O    0.4684180000  2.1210880000 -2.8035750000
O   -0.9757950000  0.4179230000 -3.8890480000
O    1.3430040000 -0.1730390000 -3.1411760000
C    1.0615680000  1.3563190000 -5.2648330000
H    1.0632550000  0.4735670000 -5.9065160000
H    2.0771230000  1.7369660000 -5.1365290000
H    0.4201030000  2.1321930000 -5.6853710000
Ru  -1.0557030000 -0.5957470000  2.3535610000
Ru   1.1045160000 -2.4141200000  2.1296510000
C   -2.4352120000 -1.7314530000  1.6974240000
S   -0.3715980000 -2.2129140000  3.9305470000
S    0.2564870000 -0.9917350000  0.4483010000
Cl  -0.1002360000 -4.3671080000  1.2445870000
C   -2.6171170000  0.9818420000  2.7173380000
C   -1.6725820000  1.4855820000  1.7607680000
C   -0.4150950000  1.7315570000  2.4442170000
C   -0.5543570000  1.2882230000  3.7766680000
C   -1.9057700000  0.7684710000  3.9418510000
C   -4.0829220000  0.7913700000  2.4920690000
H   -4.6262250000  1.6723640000  2.8530560000
H   -4.4644130000 -0.0793070000  3.0299980000
H   -4.3059010000  0.6566440000  1.4331090000
C   -1.9638970000  1.8639380000  0.3458180000
H   -1.0545330000  1.8989900000 -0.2576450000
H   -2.4310430000  2.8531590000  0.2961060000
H   -2.6517170000  1.1480370000 -0.1037450000
C    0.7520350000  2.3884300000  1.7800340000
H    1.5436470000  2.6305100000  2.4882310000
H    0.4376610000  3.3089760000  1.2782720000
H    1.1729410000  1.7461540000  0.9976780000
C    0.4339710000  1.3925060000  4.8944560000
H    0.6685600000  0.4080410000  5.3147450000
H    0.0124830000  2.0005890000  5.7033250000
H    1.3642110000  1.8580060000  4.5636550000
C   -2.4882970000  0.2489590000  5.2221560000
C    3.0567850000 -3.3520930000  1.5246590000
C    2.7738050000 -3.6127250000  2.9197880000
C    2.8164720000 -2.3539590000  3.6201620000
C    3.0540550000 -1.3178930000  2.6631990000
C    3.2158620000 -1.9399220000  1.3748520000
C    3.2353470000 -4.3991470000  0.4709110000
H    3.6414520000 -3.9728600000 -0.4469420000
H    3.9413980000 -5.1579690000  0.8270370000
H    2.2847490000 -4.8966280000  0.2556640000
C    2.6397110000 -4.9731550000  3.5237330000
H    2.0966010000 -4.9342820000  4.4717280000
H    3.6323940000 -5.3968910000  3.7230740000
H    2.0950900000 -5.6380610000  2.8489830000
C    2.7487780000 -2.1691360000  5.1001560000
H    2.2838820000 -1.2168480000  5.3655240000
H    3.7691790000 -2.1791530000  5.5000270000
H    2.1802520000 -2.9685000000  5.5804360000
C    3.3041860000  0.1232030000  2.9545130000
H    2.9082610000  0.7615260000  2.1652460000
H    2.8492610000  0.4252300000  3.8975530000
H    4.3807750000  0.3110960000  3.0379710000
C    3.5360820000 -1.2046410000  0.1224820000
H    3.3347950000 -1.8019480000 -0.7649950000
H    4.5992370000 -0.9467920000  0.0998620000
H    2.9643400000 -0.2796960000  0.0583820000
C   -1.6089560000 -3.5505750000  4.0917010000
H   -1.1812370000 -4.3152520000  4.7458130000
H   -1.8384750000 -3.9747380000  3.1176120000
H   -2.4996400000 -3.1223660000  4.5591420000
C   -0.6891880000 -1.7829550000 -0.9004460000
H   -1.0926780000 -2.7380380000 -0.5739120000
H   -0.0037580000 -1.8945240000 -1.7426430000
H   -1.4864560000 -1.0943870000 -1.1889800000
C   -3.4450550000 -2.3569900000  1.3032530000
C   -4.5483620000 -3.0067340000  0.8609880000
C   -4.5633170000 -4.2914470000  0.2471300000
H   -5.5082720000 -2.5067120000  0.9599660000
C   -5.7766740000 -4.8144240000 -0.2992620000
C   -3.3865370000 -5.0600280000  0.1148080000
C   -3.3865810000 -6.2896390000 -0.5118780000
C   -4.5955820000 -6.7858050000 -1.0380750000
C   -5.7870360000 -6.0491840000 -0.9301420000
H   -2.9091370000  1.0608710000  5.8236280000
H   -1.7252110000 -0.2567270000  5.8192500000
H   -3.2899130000 -0.4663890000  5.0178340000
H   -6.6855410000 -6.4682610000 -1.3629930000
H   -2.4594970000 -4.6615850000  0.5161690000
H   -2.4619670000 -6.8457910000 -0.5952980000
O   -6.8635270000 -4.0214310000 -0.1794740000
O   -4.7145670000 -7.9698120000 -1.6747230000
C   -3.5477310000 -8.7682720000 -1.8532100000
H   -3.8791100000 -9.6564110000 -2.3921730000
H   -3.1177720000 -9.0618970000 -0.8886920000
H   -2.7930770000 -8.2377790000 -2.4448780000
C   -8.0636860000 -4.3426270000 -0.8972990000
H   -8.4897650000 -5.2744800000 -0.5013940000
H   -7.8100130000 -4.4956580000 -1.9522020000
C   -9.0155450000 -3.1734940000 -0.6994230000
H   -9.0993460000 -2.9829120000  0.3771590000
H   -8.5750350000 -2.2718460000 -1.1389100000
C   -10.4131880000 -3.3908820000 -1.3005440000
H   -10.8425820000 -4.3011000000 -0.8545710000
C   -11.3164770000 -2.2068060000 -0.9320600000
H   -10.9037510000 -1.2693900000 -1.3252040000
H   -12.3232640000 -2.3330350000 -1.3458740000
H   -11.4067810000 -2.0989830000  0.1548420000
C   -10.3630110000 -3.5813860000 -2.8232540000
H   -9.8933360000 -2.7144440000 -3.3053340000
H   -9.7957400000 -4.4729860000 -3.1128850000
H   -11.3726540000 -3.6859430000 -3.2359070000
H    0.4364530000  6.4932620000  0.7824590000
