240
published_5c_4e_II; delta_e_kcal_mol=0.35; charge=0; multiplicity=1; SI pages=115,116,117
Ru -0.11247100 -1.13370000 -1.51559900
N  -1.20960100  4.42561800 -0.94473000
N  -2.74643100  4.26155300  0.69386800
N   3.06318500  1.33770400  3.12692300
N   4.64632500  2.32781000  1.84122500
N  -6.20007700  3.33011700  0.84442900
N   7.71909000  1.01554400  0.47863200
C   1.13611300  3.92748600 -4.40510300
C   1.69403700  4.26511100 -3.17104800
C   0.87990400  4.45929900 -2.05603100
C  -0.51216600  4.30156200 -2.15030200
C  -1.08098900  3.99038400 -3.39369300
C  -0.24928000  3.81333500 -4.50031600
C   3.17611600  4.33404200 -3.03185800
C  -2.54340700  4.42283600 -0.63355200
C  -4.02183500  4.41428500  1.36572900
C  -3.78431500  4.72288300  2.88296000
C  -5.14809300  4.80782400  3.59011800
C  -3.07995100  6.08886200  2.99142900
C  -2.92792900  3.64546200  3.57538300
C  -1.40088900  0.19080600  4.60965400
C   0.03378300 -0.22310700  4.47647300
C   2.69095300 -0.94782600  4.05560400
C   1.77213700 -1.85567400  4.57599700
C   0.43532000 -1.51751200  4.78812600
C   4.38176700  1.34603300  2.73591000
C   5.97128200  2.58236500  1.29851800
C   5.99449400  3.93973800  0.50422000
C   7.40823200  4.18555200 -0.05115000
C   5.65066000  5.06542300  1.49986500
C   4.97045700  3.88779700 -0.65143100
C   4.88757300  5.11460300 -1.56055200
C   6.42423700  1.42087500  0.39226600
C  -4.88950000  3.15229900  1.17531100
C  -6.81693100  4.58148900  0.36747100
C  -8.07935800  4.10258000 -0.35267900
C  -8.48711500  2.87448900  0.46144700
C  -7.14281100  2.17934300  0.81564300
C   8.68410900  1.30652700  1.55128600
C   9.84492100  0.35200400  1.24333100
C   9.79307900  0.22381400 -0.28502200
C   8.27635300  0.16840600 -0.58329900
C   2.19878400 -3.25220800  4.93096500
C  -0.84752600  3.51622800 -5.84679700
C  -6.77188800  1.18490200 -0.28812500
C  -7.22158500 -0.14306500 -0.23348200
C  -6.03359000  1.59613400 -1.40629200
C  -5.71108600  0.70277400 -2.42117600
C  -6.13378400 -0.61967900 -2.31311500
C   7.75102700 -1.25439400 -0.59784700
C   7.76922600 -1.96042400 -1.80892600
C   7.30978400 -1.90004100  0.56230600
C   7.34373300 -3.28048000 -1.87529800
C   6.89532800 -3.22800900  0.51842200
C   6.90896600 -3.89715800 -0.70304600
C  -6.90696900 -1.05008900 -1.23790400
O   3.95792800  3.67455300 -3.69058300
O   3.53470100  5.20368700 -2.06629500
O  -4.41828100  2.03286200  1.38926700
O   5.67400800  0.95939400 -0.47093800
F   1.45744100 -4.17302400  4.26010400
F   2.02550500 -3.50907000  6.24570500
F   3.49394200 -3.49204000  4.63918300
F  -0.71000500  4.55538100 -6.69786600
F  -2.16591600  3.22681100 -5.77831900
F  -0.23799900  2.45410900 -6.43688800
F  -1.54449800  1.36373500  5.25674000
F  -1.97604200  0.35991000  3.38123400
F  -2.15446500 -0.72779300  5.25830200
S   5.59094800  0.31907700  3.32104800
S  -3.81400600  4.63590100 -1.73124800
H   1.77903000  3.75694400 -5.26062200
H   1.33664600  4.68760900 -1.09900300
H  -2.15110900  3.88960300 -3.48951200
H  -0.59581800  4.53858000 -0.13230800
H  -1.92618500  4.13570800  1.27898400
H  -4.52360500  5.28024600  0.93123400
H  -5.00536400  5.12200900  4.62954400
H  -5.80726000  5.54013000  3.10945200
H  -5.66022800  3.84064600  3.60185500
H  -3.67934900  6.88154500  2.52734600
H  -2.93554600  6.34811700  4.04663100
H  -2.09605700  6.07486100  2.51402600
H  -1.88722600  3.65372000  3.23480300
H  -3.33133700  2.64626300  3.40806400
H  -0.26703500 -2.24245300  5.17990800
H   3.85857300  2.86267100  1.47496700
H   6.66363100  2.67967700  2.13841100
H   7.44647000  5.15690400 -0.55532100
H   8.15513600  4.20820800  0.75002800
H   7.70280600  3.42276700 -0.77848100
H   5.76909300  6.04896800  1.03369600
H   4.61974700  4.98363600  1.84993700
H   6.31779300  5.03087100  2.36883400
H   3.97336000  3.78831900 -0.22769900
H   5.15104400  3.00530700 -1.26508700
H   5.58355900  5.06864800 -2.40111000
H   5.02510600  6.05468000 -1.02433400
H  -7.07336700  5.23332000  1.21291200
H  -6.13292800  5.10889000 -0.29929200
H  -7.83749400  3.81835900 -1.38191300
H  -8.85486300  4.87258100 -0.38687700
H   9.01890700  2.34935000  1.50290100
H   8.22284200  1.12681300  2.52569100
H   9.66612100 -0.62233900  1.71009900
H   10.80198900  0.73138000  1.61088800
H  -2.90278600  3.83897700  4.65354800
H  -9.16018400  2.19578700 -0.06827200
H  -8.98095900  3.18577900  1.39005800
H  -7.79305100 -0.49429200  0.61677100
H  -5.64897400  2.60763900 -1.46234700
H  -5.11032200  1.01032400 -3.26732600
H   10.22174900  1.11632000 -0.75545500
H   10.32095200 -0.65261100 -0.66846300
H   8.10334400 -1.46071000 -2.71414600
H   7.23606100 -1.34640200  1.49202400
H   7.33300600 -3.83163300 -2.80674200
H   6.53765100 -3.73805400  1.40358500
H  -7.21507400 -2.08511700 -1.18582400
Ru  1.65425100 -3.24233000 -1.03735500
C  -1.74485100 -2.08447500 -1.28134200
S   0.67337100 -1.88213900  0.58980900
S   0.60872000 -2.70875100 -3.09201100
Cl -0.00156400 -4.97566200 -0.57765500
C  -1.26504900  0.80456500 -1.56558200
C  -0.77919600  0.47703200 -2.88155300
C   0.66643000  0.64881800 -2.87720200
C   1.06437600  0.96657800 -1.55826700
C  -0.12765900  1.03508900 -0.73819700
C  -2.69682400  0.96634300 -1.18515500
H  -3.09614300  1.87357300 -1.65089700
H  -2.83927800  1.07554800 -0.10955700
H  -3.30167200  0.12564800 -1.52703800
C  -1.63923200  0.23085800 -4.08244800
H  -1.09774300 -0.33509800 -4.84520300
H  -1.96211500  1.17560800 -4.53242200
H  -2.53721700 -0.33335100 -3.81757700
C   1.53382700  0.54679300 -4.09204600
H   2.50887100  1.00924700 -3.92158500
H   1.06094400  1.06081500 -4.93207700
H   1.68479600 -0.49742300 -4.39032300
C   2.42821100  1.29958900 -1.04767700
H   2.78152600  0.57282600 -0.31361300
H   2.39847600  2.27095000 -0.54699100
H   3.16671400  1.34770600 -1.84762700
C  -0.14069400  1.42797500  0.70126400
C   3.26632400 -4.82416100 -1.08185700
C   3.32636800 -4.05675400  0.13571100
C   3.69019500 -2.69741500 -0.21100500
C   3.78236000 -2.61664500 -1.63517400
C   3.52875200 -3.93654700 -2.16549500
C   3.05110500 -6.29864800 -1.16582900
H   2.64583600 -6.58806200 -2.13822100
H   4.01046400 -6.80991800 -1.02211200
H   2.34952100 -6.63247600 -0.39940100
C   3.20102600 -4.61197100  1.51653500
H   3.11534800 -3.81012400  2.24797700
H   4.08348100 -5.21400100  1.76566900
H   2.31584000 -5.24785900  1.60403600
C   3.99248200 -1.61761400  0.77647700
H   4.55410800 -0.80259300  0.32175500
H   4.59257300 -2.01278000  1.59837100
H   3.08293700 -1.20502400  1.22234800
C   4.23088400 -1.45160100 -2.46076500
H   3.47260300 -1.16674500 -3.19369500
H   4.46902700 -0.58549400 -1.84443700
H   5.13860800 -1.71856700 -3.01412300
C   3.64669700 -4.31658800 -3.60636800
H   2.98956900 -5.15393400 -3.85399500
H   4.67798200 -4.62911100 -3.81517800
H   3.39712700 -3.47860600 -4.26160300
C  -0.61343700 -2.66235400  1.62496900
H  -0.09395800 -3.24842100  2.38582300
H  -1.26015800 -3.30422600  1.03397000
H  -1.17079900 -1.85480300  2.10407400
C  -0.71698900 -3.84962400 -3.62317800
H  -1.13866800 -4.36525100 -2.76335700
H  -0.26929600 -4.56499800 -4.31828100
H  -1.47927700 -3.25908300 -4.13763400
S   1.35094200  4.54571700  2.13486000
O   2.30186000  4.07083800  1.08216300
O   1.38893000  3.69684000  3.35626700
O  -0.03214600  4.75895100  1.59502700
C   1.90361400  6.18400100  2.62892600
C  -2.89090000 -2.55575800 -1.08638900
C  -4.08996900 -3.00081800 -0.64365200
C  -4.66868000 -2.56895300  0.59130100
H  -4.65865500 -3.71560500 -1.23400600
C  -5.89567800 -3.13062000  1.05906900
C  -4.07190300 -1.55442600  1.36840700
C  -4.61553400 -1.12225100  2.55958800
C  -5.80618100 -1.71465000  3.01527000
C  -6.45193000 -2.70962600  2.26086700
H  -1.04181100  1.08288000  1.21003800
H  -0.09822200  2.51538300  0.79385400
H   0.72518600  1.01903900  1.22462100
H  -7.36695000 -3.13482600  2.65194300
H  -3.16762600 -1.09276100  0.99219300
H   3.71954000 -1.23616400  3.90698700
H   1.21063200  6.56526300  3.38091700
H   1.90461000  6.82751600  1.74722000
H   2.90950900  6.10225500  3.04444300
O  -6.45518100 -4.06033100  0.25536200
O  -6.41414000 -1.37473200  4.17191900
C  -5.75287300 -0.44741500  5.03557300
H  -6.36490900 -0.40130700  5.93680900
H  -5.69622400  0.54624800  4.57834600
H  -4.74352800 -0.78965500  5.28543900
C  -7.78342900 -4.52246200  0.52247700
H  -8.43996600 -3.65545700  0.66550600
H  -7.78953900 -5.11372600  1.44835900
H   2.54845600  2.21126900  2.97817000
N   6.42285500 -5.27390400 -0.76927000
N  -5.70872100 -1.59446700 -3.31571400
O  -6.12708800 -2.75058400 -3.21179000
O   6.32970800 -5.79949400 -1.88123900
O  -4.94106000 -1.21335100 -4.20155500
O   6.12297700 -5.83337700  0.28665600
H  -4.13611300 -0.32414300  3.10347800
C   2.27162100  0.35394300  3.73249700
C   0.93332500  0.71021800  3.97007400
H   0.60603700  1.72005100  3.75002100
C  -8.20518700 -5.36116400 -0.67339400
H  -7.46150600 -6.15596200 -0.80785400
H  -8.15972900 -4.73485700 -1.57440100
C  -9.60603100 -5.98118100 -0.53605900
H  -9.62349000 -6.58072400  0.38696100
C  -10.70702100 -4.91545300 -0.43405000
H  -10.59951700 -4.28799800  0.45779000
H  -10.68984200 -4.25706600 -1.31215300
H  -11.69694200 -5.38282300 -0.38779100
C  -9.87677200 -6.92293400 -1.71623200
H  -9.11676300 -7.70968900 -1.78129100
H  -10.85631900 -7.40445800 -1.61934600
H  -9.86745200 -6.36973300 -2.66375000
C  -7.22772200  1.51621500  2.19736800
H  -7.37750700  2.29132200  2.95534600
H  -8.07641500  0.82858600  2.25495700
H  -6.31134300  0.97139900  2.41371900
H   8.03942200  0.62113800 -1.55132200
