240
published_5c_4e_III; delta_e_kcal_mol=7.07; charge=0; multiplicity=1; SI pages=118,119,120
C   3.48601900  4.75963600  0.56073500
C   2.90810500  4.75581500 -0.70900600
C   2.93319200  3.59591200 -1.48731900
C   3.56847000  2.45000700 -1.02139100
C   4.17186600  2.45107500  0.23907200
C   4.11191900  3.60110200  1.02703700
N   3.52925100  1.29380400 -1.83376200
C   2.32171800  6.00950000 -1.25194800
O   2.14792400  7.03761500 -0.61994700
O   2.05481700  5.88161400 -2.56553100
C   4.60013700  0.59013800 -2.29824300
N   4.24697800 -0.45147600 -3.08637900
C   5.19019600 -1.33097800 -3.74901900
C   4.52408100 -2.01143400 -4.98937000
C   5.52527300 -2.99511000 -5.62103400
C   4.19372100 -0.91129100 -6.01298200
C   3.23884200 -2.77939700 -4.62267200
C  -4.24577600 -2.73895100 -3.09350400
C  -4.57132800 -1.38905200 -2.51861000
C  -3.75612200 -0.31349000 -2.85588000
C  -3.98508500  0.95615600 -2.29681900
C  -5.04545200  1.11372000 -1.38884400
C  -5.84361700  0.01876600 -1.06480700
C  -5.62924700 -1.24029800 -1.62561200
N  -3.07223800  1.95557600 -2.65756100
C  -3.05106800  3.30484900 -2.42319400
N  -1.86762900  3.86686200 -2.79653900
C  -1.57223500  5.26958600 -2.56519000
C  -0.80212000  5.92564700 -3.78254300
C  -1.90418200  6.43264800 -4.73593500
C   0.03829800  4.89277500 -4.55211400
C   0.05535100  7.15421500 -3.32817300
C   1.57739100  7.02177000 -3.29716300
C  -0.90589000  5.39171400 -1.18991700
C   5.73122300 -2.37143200 -2.74940100
O   4.95261200 -3.04195500 -2.06676800
N   7.07654700 -2.54751800 -2.66893800
C   8.11069200 -1.81212900 -3.41647900
C   9.36593500 -2.66558600 -3.22176400
C   9.16892100 -3.24901900 -1.82014000
C   7.64752200 -3.55959000 -1.73778500
O  -0.09265200  4.55816800 -0.78843600
N  -1.27370500  6.45458700 -0.42462700
C  -2.32390200  7.45123400 -0.71031300
C  -2.35539200  8.31786400  0.56034600
C  -0.94933100  8.14636000  1.15272900
C  -0.63612700  6.66072800  0.87846500
C  -6.99054000  0.19901900 -0.11004800
F  -8.18447700  0.21037600 -0.75393600
F  -6.90482500  1.34363000  0.59460100
F  -7.06123500 -0.81739600  0.79203500
C   4.66421000  3.56852500  2.42226200
F   3.69448900  3.27007900  3.33768300
F   5.18002000  4.75733000  2.79634600
F   5.62761300  2.63460900  2.57411400
H   3.46219600  5.66431900  1.15710700
H   2.45385200  3.57712400 -2.45371600
H   4.68052400  1.56595200  0.59237100
H   2.60508000  1.00673800 -2.16185400
H   3.25168900 -0.63664000 -3.18985500
H   6.00800700 -0.70326000 -4.10476500
H   5.08627900 -3.44296200 -6.51902700
H   6.45085400 -2.49229400 -5.92487000
H   5.78265000 -3.80962700 -4.93628200
H   5.09905700 -0.38309200 -6.33546100
H   3.72098200 -1.34824700 -6.90005600
H   3.50555300 -0.17435800 -5.59156700
H   2.43738400 -2.11744800 -4.27918300
H   3.42901800 -3.51685700 -3.84025000
H  -2.92537400 -0.45371700 -3.53693800
H  -5.23403800  2.07881000 -0.94580000
H  -6.25254600 -2.08208000 -1.35858400
H  -2.25101100  1.56891600 -3.13957500
H  -1.04335500  3.25183700 -2.80943700
H  -2.53853700  5.76515700 -2.50384400
H  -1.46870400  6.80257900 -5.67171900
H  -2.60347600  5.62496900 -4.97807800
H  -2.47841500  7.24928400 -4.28204500
H   0.57729600  5.38377400 -5.37029600
H   0.75798200  4.38167600 -3.91394200
H  -0.61897300  4.14108500 -4.99754900
H  -0.26266100  7.50217300 -2.34545700
H  -0.13891000  7.98588900 -4.01820200
H   2.01024700  7.92630600 -2.86211900
H   1.98311800  6.87801900 -4.30042500
H   7.84446900 -1.71848700 -4.46987900
H   8.22096600 -0.80397500 -3.00078900
H   10.28261200 -2.07644000 -3.31202900
H   9.40296700 -3.46294700 -3.97222800
H  -2.05851400  8.05251400 -1.58752000
H  -3.27987800  6.95794800 -0.91132400
H  -3.10609800  7.93337300  1.25854100
H  -2.60588600  9.35882600  0.33977900
S  -4.33869300  4.20929900 -1.78834600
S   6.20693300  0.99433600 -1.94240000
F  -5.30020100 -3.58907700 -3.02000500
F  -3.88435300 -2.66120400 -4.39096000
F  -3.21850000 -3.32690200 -2.43704000
H   2.86536600 -3.29918000 -5.51285700
H   9.43196000 -2.50006400 -1.06670400
H   9.76624400 -4.14375400 -1.62491100
C   7.15917200 -3.33624800 -0.30776300
C   6.86583800 -4.40133900  0.55190300
C   7.08665100 -2.02627900  0.19466700
C   6.49272700 -4.17588500  1.87307400
H   6.90473100 -5.42220200  0.19318100
C   6.71953000 -1.78155000  1.51044800
H   7.27069300 -1.18373300 -0.46444800
C   6.41931200 -2.86565900  2.33653100
H   6.64890900 -0.77199800  1.89556300
C   7.34553500 -4.96690200 -2.27641900
H   7.69580600 -5.04344600 -3.30994100
H   7.86065000 -5.73643400 -1.69344200
H   6.27095500 -5.15789600 -2.25696200
H  -0.21912800  8.75761600  0.61124800
H  -0.89310700  8.39716900  2.21496400
C  -1.19955500  5.75732200  1.95594900
C  -0.46307200  5.56809900  3.13422800
C  -2.46335600  5.16560600  1.83636700
C  -0.98506500  4.83668400  4.19263700
H   0.52950100  6.00171500  3.21892100
C  -3.00706900  4.43975200  2.88994200
H  -3.02157200  5.25534100  0.91019000
C  -2.26361200  4.29517700  4.05863600
H  -0.43074000  4.68339500  5.10937200
H  -3.98827000  3.99020200  2.81571800
H   6.25113600 -4.99344000  2.53983000
N   5.99866800 -2.62520200  3.71250200
N  -2.83421900  3.54529600  5.17018500
O   5.70087500 -3.60089900  4.40724300
O   5.95007900 -1.45860900  4.10975900
O  -3.98435800  3.11649700  5.05176500
O  -2.13477600  3.36824800  6.17202000
S   0.41640600  0.88930200 -3.64864700
O   0.46841800  2.12108800 -2.80357500
O  -0.97579500  0.41792300 -3.88904800
O   1.34300400 -0.17303900 -3.14117600
C   1.06156800  1.35631900 -5.26483300
H   1.06325500  0.47356700 -5.90651600
H   2.07712300  1.73696600 -5.13652900
H   0.42010300  2.13219300 -5.68537100
Ru -1.05570300 -0.59574700  2.35356100
Ru  1.10451600 -2.41412000  2.12965100
C  -2.43521200 -1.73145300  1.69742400
S  -0.37159800 -2.21291400  3.93054700
S   0.25648700 -0.99173500  0.44830100
Cl -0.10023600 -4.36710800  1.24458700
C  -2.61711700  0.98184200  2.71733800
C  -1.67258200  1.48558200  1.76076800
C  -0.41509500  1.73155700  2.44421700
C  -0.55435700  1.28822300  3.77666800
C  -1.90577000  0.76847100  3.94185100
C  -4.08292200  0.79137000  2.49206900
H  -4.62622500  1.67236400  2.85305600
H  -4.46441300 -0.07930700  3.02999800
H  -4.30590100  0.65664400  1.43310900
C  -1.96389700  1.86393800  0.34581800
H  -1.05453300  1.89899000 -0.25764500
H  -2.43104300  2.85315900  0.29610600
H  -2.65171700  1.14803700 -0.10374500
C   0.75203500  2.38843000  1.78003400
H   1.54364700  2.63051000  2.48823100
H   0.43766100  3.30897600  1.27827200
H   1.17294100  1.74615400  0.99767800
C   0.43397100  1.39250600  4.89445600
H   0.66856000  0.40804100  5.31474500
H   0.01248300  2.00058900  5.70332500
H   1.36421100  1.85800600  4.56365500
C  -2.48829700  0.24895900  5.22215600
C   3.05678500 -3.35209300  1.52465900
C   2.77380500 -3.61272500  2.91978800
C   2.81647200 -2.35395900  3.62016200
C   3.05405500 -1.31789300  2.66319900
C   3.21586200 -1.93992200  1.37485200
C   3.23534700 -4.39914700  0.47091100
H   3.64145200 -3.97286000 -0.44694200
H   3.94139800 -5.15796900  0.82703700
H   2.28474900 -4.89662800  0.25566400
C   2.63971100 -4.97315500  3.52373300
H   2.09660100 -4.93428200  4.47172800
H   3.63239400 -5.39689100  3.72307400
H   2.09509000 -5.63806100  2.84898300
C   2.74877800 -2.16913600  5.10015600
H   2.28388200 -1.21684800  5.36552400
H   3.76917900 -2.17915300  5.50002700
H   2.18025200 -2.96850000  5.58043600
C   3.30418600  0.12320300  2.95451300
H   2.90826100  0.76152600  2.16524600
H   2.84926100  0.42523000  3.89755300
H   4.38077500  0.31109600  3.03797100
C   3.53608200 -1.20464100  0.12248200
H   3.33479500 -1.80194800 -0.76499500
H   4.59923700 -0.94679200  0.09986200
H   2.96434000 -0.27969600  0.05838200
C  -1.60895600 -3.55057500  4.09170100
H  -1.18123700 -4.31525200  4.74581300
H  -1.83847500 -3.97473800  3.11761200
H  -2.49964000 -3.12236600  4.55914200
C  -0.68918800 -1.78295500 -0.90044600
H  -1.09267800 -2.73803800 -0.57391200
H  -0.00375800 -1.89452400 -1.74264300
H  -1.48645600 -1.09438700 -1.18898000
C  -3.44505500 -2.35699000  1.30325300
C  -4.54836200 -3.00673400  0.86098800
C  -4.56331700 -4.29144700  0.24713000
H  -5.50827200 -2.50671200  0.95996600
C  -5.77667400 -4.81442400 -0.29926200
C  -3.38653700 -5.06002800  0.11480800
C  -3.38658100 -6.28963900 -0.51187800
C  -4.59558200 -6.78580500 -1.03807500
C  -5.78703600 -6.04918400 -0.93014200
H  -2.90913700  1.06087100  5.82362800
H  -1.72521100 -0.25672700  5.81925000
H  -3.28991300 -0.46638900  5.01783400
H  -6.68554100 -6.46826100 -1.36299300
H  -2.45949700 -4.66158500  0.51616900
H  -2.46196700 -6.84579100 -0.59529800
O  -6.86352700 -4.02143100 -0.17947400
O  -4.71456700 -7.96981200 -1.67472300
C  -3.54773100 -8.76827200 -1.85321000
H  -3.87911000 -9.65641100 -2.39217300
H  -3.11777200 -9.06189700 -0.88869200
H  -2.79307700 -8.23777900 -2.44487800
C  -8.06368600 -4.34262700 -0.89729900
H  -8.48976500 -5.27448000 -0.50139400
H  -7.81001300 -4.49565800 -1.95220200
C  -9.01554500 -3.17349400 -0.69942300
H  -9.09934600 -2.98291200  0.37715900
H  -8.57503500 -2.27184600 -1.13891000
C  -10.41318800 -3.39088200 -1.30054400
H  -10.84258200 -4.30110000 -0.85457100
C  -11.31647700 -2.20680600 -0.93206000
H  -10.90375100 -1.26939000 -1.32520400
H  -12.32326400 -2.33303500 -1.34587400
H  -11.40678100 -2.09898300  0.15484200
C  -10.36301100 -3.58138600 -2.82325400
H  -9.89333600 -2.71444400 -3.30533400
H  -9.79574000 -4.47298600 -3.11288500
H  -11.37265400 -3.68594300 -3.23590700
H   0.43645300  6.49326200  0.78245900
