78
aligned d3map frame 1
N   -0.0178300843  2.0632590397 -0.1921082319
N    2.0165749500  0.0133248197 -0.0610127952
C   -2.4375719662  2.4494999594 -0.1350662575
C   -1.1137830783  2.8747241113 -0.1075871397
C   -0.6937460782  4.2431297586  0.0205419358
H   -1.3507119331  5.0817808894  0.1472582485
C    0.6609698894  4.2460870372 -0.0182382517
H    1.3252055297  5.0848712423  0.0620706087
C    1.0789539441  2.8789238904 -0.1494148415
C    2.4036772742  2.4668865722 -0.1796500372
C    2.8212453073  1.1130084154 -0.1983581616
C    4.1608507260  0.7127580752 -0.3933354380
H    4.9897164397  1.3730734907 -0.5602239471
C    4.1729782813 -0.6627358353 -0.3589547605
H    5.0167822566 -1.3104726006 -0.4946715050
C    2.8392778530 -1.0753165481 -0.1414695499
C    3.4614817091  3.4925978168 -0.2035016323
C    4.3898479580  3.5759861759  0.8327717445
C    5.3893499662  4.5312037859  0.8031826807
C    5.4905184296  5.4009989078 -0.2704799375
H    6.2791525402  6.1389903089 -0.2996289754
C    4.5760118736  5.3213254981 -1.3089001703
C    3.5623152348  4.3814328269 -1.2724867680
N    0.0157018624 -2.0468436100 -0.1280777867
N   -2.0173773036 -0.0016688297 -0.0808911907
C    2.4364409977 -2.4353530181 -0.0743401456
C    1.1113762195 -2.8552682290 -0.0405611420
C    0.6936092866 -4.2219990329  0.1051956747
H    1.3477699317 -5.0530090083  0.2356275643
C   -0.6590377459 -4.2287813119  0.0735076929
H   -1.3203025699 -5.0682991182  0.1754832248
C   -1.0793240488 -2.8646637932 -0.0806485015
C   -2.4048180036 -2.4557469948 -0.1582488292
C   -2.8192728541 -1.1035388697 -0.2355856586
C   -4.1437710711 -0.7054768024 -0.5121143832
H   -4.9655767432 -1.3677736823 -0.7080327384
C   -4.1525195576  0.6711169097 -0.5021610245
H   -4.9821210423  1.3205952698 -0.7006392936
C   -2.8322279499  1.0857278608 -0.2192136032
C   -3.4514668325 -3.4900942778 -0.1945766167
C   -4.4413836566 -3.5404375527  0.7848231619
C   -5.4093006625 -4.5278313309  0.7526124839
C   -5.4165231571 -5.4643747107 -0.2678001160
H   -6.1745949850 -6.2343500491 -0.2947705386
C   -4.4461709779 -5.4116916364 -1.2566960969
C   -3.4661177205 -4.4385959422 -1.2167925586
Fe  -0.0021062469  0.0121789949  0.2392066053
C    3.4938043415 -3.4561179459 -0.0845451169
C    3.5200897948 -4.4347205041 -1.0794294551
C    4.4925117385 -3.4621042372  0.8887227497
C    4.5210302987 -5.3879539914 -1.1031950920
C    5.4833250415 -4.4260407504  0.8695743719
H    4.5341879626 -6.1312324817 -1.8880522692
C    5.5046297198 -5.3884677276 -0.1277256159
H    6.2435458954 -4.4266174975  1.6380577225
H    6.2857376743 -6.1346329959 -0.1437823936
C   -3.5102196317  3.4503375228 -0.1007065532
C   -3.5579896137  4.4908529671 -1.0288047425
C   -4.5186044948  3.3642236454  0.8614704308
C   -4.5841268952  5.4169073919 -0.9938238598
C   -5.5379963974  4.2956378499  0.8970530781
H   -4.6124943654  6.2122893548 -1.7251312685
C   -5.5769974228  5.3236146069 -0.0322618579
H   -6.3076985671  4.2200026460  1.6513959764
H   -6.3793687644  6.0465505783 -0.0084541102
H    6.0955367659  4.5926750740  1.6187867210
H    4.6570328731  5.9919449396 -2.1534826303
H   -6.1614349071 -4.5664295763  1.5277623523
H   -4.4543530304 -6.1331661207 -2.0610185505
H   -2.7995014723  4.5501767053 -1.7959987104
H   -4.4801567693  2.5689344995  1.5914098119
H    2.7593712223 -4.4237928601 -1.8478254219
H    4.4703986444 -2.7170356903  1.6704084561
H   -4.4316824696 -2.8133573309  1.5835710762
H   -2.7121829906 -4.3901274077 -1.9897964531
H    4.3089918638  2.8972507076  1.6698033059
H    2.8533507755  4.3137913950 -2.0857258562
Cl  -0.0003451120  0.0652613140  2.3779453059
78
aligned d3map frame 2
N   -0.0235981113  2.0687563798 -0.1589464257
N    2.0104997297  0.0025651566 -0.0944669351
C   -2.4417092543  2.4441243839 -0.1252278085
C   -1.1209423475  2.8670902219 -0.0047757640
C   -0.7036895092  4.2093290489  0.2896761286
H   -1.3638593212  5.0256017105  0.5072800184
C    0.6507965017  4.2137790231  0.2787285539
H    1.3087272085  5.0358201722  0.4762900850
C    1.0727796654  2.8719344567 -0.0157879207
C    2.3947920152  2.4580313170 -0.1184606027
C    2.7960217478  1.1037886598 -0.2866614645
C    4.1014340681  0.7106915603 -0.6492912149
H    4.9068815617  1.3721879583 -0.9025504980
C    4.1159131687 -0.6659280591 -0.6449710576
H    4.9361697959 -1.3094867808 -0.8941186699
C    2.8203842833 -1.0861918252 -0.2722805104
C    3.4592850572  3.4627076868 -0.0135858210
C    4.4713894391  3.3084242711  0.9355122473
C    5.4452115238  4.2759350160  1.0816455178
C    5.4409071947  5.4023117672  0.2724315515
H    6.2001891661  6.1590247910  0.3952966271
C    4.4565054606  5.5516375429 -0.6907644490
C    3.4698846906  4.5931641262 -0.8306053828
N    0.0195696825 -2.0514480026 -0.0962272518
N   -2.0114615629 -0.0026638667 -0.1148742150
C    2.4371041559 -2.4417732136 -0.0965754881
C    1.1138084725 -2.8502249591  0.0609216916
C    0.6948800189 -4.1852041915  0.3813247027
H    1.3461263836 -5.0025632757  0.6194953797
C   -0.6604031123 -4.1889169272  0.3630204241
H   -1.3195269684 -5.0059513536  0.5840505712
C   -1.0779720450 -2.8549205836  0.0365682251
C   -2.3964966115 -2.4538944408 -0.1395353157
C   -2.7957703068 -1.1032147016 -0.3172340822
C   -4.0908153070 -0.7084660969 -0.7164214379
H   -4.8913344715 -1.3702551096 -0.9784066431
C   -4.1026138438  0.6682533715 -0.7165005449
H   -4.9155004517  1.3111586887 -0.9930030460
C   -2.8148831382  1.0860180470 -0.3176830495
C   -3.4301727189 -3.4927969472 -0.1738272544
C   -4.5541409032 -3.4261037806  0.6499621707
C   -5.4961054642 -4.4414821564  0.6374957206
C   -5.3445216832 -5.5274211515 -0.2108292217
H   -6.0725260262 -6.3261640906 -0.2089531580
C   -4.2418314790 -5.5876599833 -1.0562861011
C   -3.2917704371 -4.5841907495 -1.0346025384
Fe  -0.0021062469  0.0121789949  0.2392066053
C    3.4803092343 -3.4708501071 -0.1148458308
C    3.3474272091 -4.5924925543 -0.9380825497
C    4.6200726379 -3.3638186687  0.6852118232
C    4.3176924748 -5.5768209999 -0.9573809313
C    5.5876759624 -4.3507613459  0.6644025834
H    4.1982478899 -6.4363705697 -1.6021863428
C    5.4414447551 -5.4601365187 -0.1554172035
H    6.4614400536 -4.2560478963  1.2935228531
H    6.2011085590 -6.2279353445 -0.1687638313
C   -3.5318156768  3.4201961096 -0.0332945847
C   -3.5402893364  4.5906750775 -0.7956753144
C   -4.6058766424  3.1778367309  0.8276110623
C   -4.5901762651  5.4856663501 -0.6990819155
C   -5.6532637156  4.0745804924  0.9210514924
H   -4.5851983286  6.3867757980 -1.2978689354
C   -5.6513267305  5.2318717456  0.1565691234
H   -6.4748008991  3.8680143277  1.5919202482
H   -6.4725194178  5.9305530756  0.2246632530
H    6.2105829928  4.1565796582  1.8342113927
H    4.4535564432  6.4206658978 -1.3327460385
H   -6.3503980631 -4.3888197121  1.2974944525
H   -4.1243759620 -6.4218755690 -1.7327942631
H   -2.7333393453  4.7785528289 -1.4899641012
H   -4.5989301971  2.2867555881  1.4386358716
H    2.4841383982 -4.6737392085 -1.5835224678
H    4.7269367199 -2.5125305811  1.3427848744
H   -4.6636268101 -2.5896694220  1.3242433463
H   -2.4417016827 -4.6227069459 -1.7012193709
H    4.4652836485  2.4375997663  1.5744600660
H    2.7100933239  4.7039287148 -1.5906745895
Cl  -0.0012259710  0.0614775497  2.3780707388
78
aligned d3map frame 3
N   -0.0140845281  2.0647787523 -0.1765205395
N    2.0127632329  0.0239618932 -0.0854650723
C   -2.4313622186  2.4516911524 -0.0990565680
C   -1.1089087500  2.8707312858 -0.0247892108
C   -0.6820259422  4.2288072749  0.1629639964
H   -1.3332848420  5.0553560493  0.3665081441
C    0.6706142458  4.2351347751  0.0712384582
H    1.3344619122  5.0708140080  0.1782164224
C    1.0802798161  2.8772992216 -0.1513304057
C    2.4039533904  2.4675411965 -0.2905951542
C    2.8136722338  1.1098833414 -0.3138578659
C    4.1383300037  0.6895150979 -0.5718262846
H    4.9609916435  1.3280800899 -0.8234321731
C    4.1472280627 -0.6808789156 -0.4635798538
H    4.9792876991 -1.3417920837 -0.6082997517
C    2.8272190524 -1.0745018863 -0.1519349810
C    3.4349711656  3.5058452232 -0.4167066491
C    4.5291527912  3.5463161746  0.4469047054
C    5.4862991798  4.5364929689  0.3248920898
C    5.3744928787  5.4988717811 -0.6652561535
H    6.1189290544  6.2728838581 -0.7593923405
C    4.2939524152  5.4655945858 -1.5324513708
C    3.3312737416  4.4818785238 -1.4093850706
N    0.0080333494 -2.0492203286 -0.1111051122
N   -2.0137536723 -0.0026666561 -0.1059447164
C    2.4272634146 -2.4261099504  0.0076040674
C    1.1051642771 -2.8479620790  0.0620769201
C    0.6844805204 -4.2003314631  0.2878427300
H    1.3361783418 -5.0258883438  0.4945870007
C   -0.6695869575 -4.2104995601  0.2164924808
H   -1.3227905293 -5.0464486585  0.3717305775
C   -1.0843228450 -2.8628998921 -0.0571440469
C   -2.4051122905 -2.4551683953 -0.2432073484
C   -2.7993349853 -1.0943344619 -0.3604432649
C   -4.0978282895 -0.6779236010 -0.7271438777
H   -4.8973016008 -1.3185210109 -1.0433415044
C   -4.1143394059  0.6940655030 -0.6449265004
H   -4.9347132588  1.3482968344 -0.8618917500
C   -2.8200260183  1.0931398924 -0.2487755321
C   -3.4468663731 -3.4815582833 -0.3242117642
C   -4.6174208743 -3.3820246249  0.4346441721
C   -5.5992413044 -4.3486242906  0.3489397917
C   -5.4325070635 -5.4422419771 -0.4894032608
H   -6.2017127964 -6.1958810968 -0.5579722482
C   -4.2768110436 -5.5558734511 -1.2420257223
C   -3.2958391836 -4.5849143364 -1.1657813072
Fe  -0.0021062469  0.0121789949  0.2392066053
C    3.4890809572 -3.4415420411  0.0418816459
C    3.4966783368 -4.4795686021 -0.8896858930
C    4.5143879816 -3.3752563267  0.9845850663
C    4.5082865970 -5.4211302592 -0.8857009047
C    5.5166583032 -4.3264577881  0.9936898432
H    4.5097638607 -6.2097358002 -1.6240871746
C    5.5212703861 -5.3478753177  0.0563103786
H    6.3044960682 -4.2701149023  1.7295528213
H    6.3222807615 -6.0757796337  0.0523471380
C   -3.4932911332  3.4643958952 -0.1222634963
C   -3.4401892918  4.5146801422 -1.0404973301
C   -4.5805686036  3.3887208939  0.7494108046
C   -4.4489217686  5.4587433879 -1.0892745318
C   -5.5794505990  4.3424690613  0.7068745821
H   -4.4003683715  6.2592680830 -1.8133506074
C   -5.5194385436  5.3778915415 -0.2137425924
H   -6.4124959118  4.2841013164  1.3900876211
H   -6.3072302631  6.1161485480 -0.2486779384
H    6.3221622762  4.5559993033  1.0073039890
H    4.2039438786  6.2087749142 -2.3115118451
H   -6.4977725923 -4.2528561903  0.9425937871
H   -4.1391135808 -6.4049692251 -1.8973506568
H   -2.6171194548  4.5630360848 -1.7379655950
H   -4.6196471028  2.5863011430  1.4712876020
H    2.7176662330 -4.5203976272 -1.6365518867
H    4.5073774029 -2.5812058342  1.7161747282
H   -4.7349384181 -2.5488205627  1.1120007958
H   -2.4118398515 -4.6644141814 -1.7823177707
H    4.6071156447  2.8117497701  1.2337593435
H    2.4982559580  4.4514163904 -2.0956161679
Cl  -0.0034085542  0.0507754132  2.3792571599
78
aligned d3map frame 4
N   -0.0098888726  2.0663733288 -0.1608589881
N    2.0064087989  0.0287239523 -0.1181349033
C   -2.4251279821  2.4411312854 -0.1881821753
C   -1.1112277202  2.8612369396 -0.0166054139
C   -0.7002362549  4.2016054493  0.2918560118
H   -1.3623777929  5.0145589917  0.5146032826
C    0.6551413859  4.2107922845  0.2806394565
H    1.3131968019  5.0302964701  0.4939771620
C    1.0799561489  2.8757173417 -0.0338021863
C    2.4006493864  2.4756358497 -0.2301854195
C    2.7869711209  1.1190535518 -0.3930358015
C    4.0633866134  0.7008012092 -0.8274252874
H    4.8509690529  1.3472099883 -1.1619915977
C    4.0725881786 -0.6748400802 -0.7679269418
H    4.8686262022 -1.3380954543 -1.0408175817
C    2.7973317279 -1.0675848834 -0.3105968357
C    3.4407188098  3.5043000046 -0.3124254249
C    4.6159077368  3.4082359322  0.4349376250
C    5.5854523485  4.3891989936  0.3482282692
C    5.4056065756  5.4794984454 -0.4884323683
H    6.1622169397  6.2488919104 -0.5537506537
C    4.2460353582  5.5823033933 -1.2403099373
C    3.2724666917  4.6064660556 -1.1549178580
N    0.0054711779 -2.0514105010 -0.0949946755
N   -2.0067368868 -0.0047645092 -0.1380507702
C    2.4209647051 -2.4178007532 -0.0720090960
C    1.1086470214 -2.8359431926  0.0891577703
C    0.7009607868 -4.1617428435  0.4626986799
H    1.3666797064 -4.9640183527  0.7158070646
C   -0.6546860768 -4.1688340577  0.4712223374
H   -1.3025749464 -4.9789974464  0.7447561277
C   -1.0842360871 -2.8527422718  0.0882584354
C   -2.4055367399 -2.4547129448 -0.1030585554
C   -2.7866597694 -1.1065503374 -0.3488343862
C   -4.0618624786 -0.7101371358 -0.8094018046
H   -4.8540538055 -1.3697908132 -1.1036920124
C   -4.0702774070  0.6660829914 -0.8239329874
H   -4.8689667436  1.3138022609 -1.1271718493
C   -2.7980013041  1.0838085072 -0.3815782144
C   -3.4696516697 -3.4569818887 -0.0609190719
C   -4.6396687185 -3.2130001068  0.6668516761
C   -5.6665402384 -4.1354175577  0.6876308362
C   -5.5429436982 -5.3290129159 -0.0072736412
H   -6.3460108014 -6.0509216356  0.0072667880
C   -4.3853304666 -5.5886768179 -0.7268049713
C   -3.3610471071 -4.6627008478 -0.7610049607
Fe  -0.0021062469  0.0121789949  0.2392066053
C    3.4940902569 -3.4171421281 -0.0356171763
C    3.4585657246 -4.5228760546 -0.8880784042
C    4.5748471693 -3.2710964081  0.8322515342
C    4.4826845276 -5.4499306229 -0.8795556012
C    5.5853609523 -4.2135288744  0.8547805873
H    4.4498260249 -6.2904205744 -1.5596174363
C    5.5473642286 -5.3013225761 -0.0051229928
H    6.4088647117 -4.1022240528  1.5451762072
H    6.3461475361 -6.0336929386  0.0079663537
C   -3.4891610936  3.4505666263 -0.1829624712
C   -3.4166232531  4.5749270505 -1.0049908967
C   -4.5896022191  3.3067207767  0.6642903116
C   -4.4123481356  5.5332131759 -0.9738644172
C   -5.5709180882  4.2769962455  0.7081732718
H   -4.3469486333  6.3930776935 -1.6244249280
C   -5.4864003623  5.3934087063 -0.1102429879
H   -6.4065056361  4.1692638630  1.3850921213
H   -6.2568641388  6.1496846440 -0.0732302517
H    6.4854699254  4.3045147200  0.9396647048
H    4.1031383578  6.4262745869 -1.8994160295
H   -6.5700485453 -3.9159978312  1.2385918132
H   -4.2876244962 -6.5156558898 -1.2756422245
H   -2.5831700602  4.6819976574 -1.6862077271
H   -4.6454612050  2.4385990505  1.3072282182
H    2.6335979735 -4.6279996903 -1.5788451852
H    4.6051721946 -2.4226428263  1.5026067860
H   -4.7252433421 -2.2954257351  1.2295692618
H   -2.4804163048 -4.8534467123 -1.3605299058
H    4.7440189160  2.5734014484  1.1090534822
H    2.3787973154  4.6755081837 -1.7587971652
Cl  -0.0510620039 -0.0185094343  2.3793070440
78
aligned d3map frame 5
N   -0.0235201873  2.0671739048 -0.1574253047
N    2.0114093660  0.0052822284 -0.0951425706
C   -2.4398056777  2.4391762569 -0.0684440860
C   -1.1193132904  2.8633525362  0.0315129125
C   -0.6938742827  4.2009869057  0.3249465619
H   -1.3435651014  5.0170302244  0.5708193424
C    0.6609881328  4.2072950565  0.2663023607
H    1.3233425034  5.0288240336  0.4593747664
C    1.0736454802  2.8692310185 -0.0504920766
C    2.3954481375  2.4589121128 -0.2118406776
C    2.7969325230  1.1008372584 -0.3330662775
C    4.1008672601  0.6910854786 -0.6902676001
H    4.9054339053  1.3389067011 -0.9773035628
C    4.1169297494 -0.6838647456 -0.6299133730
H    4.9361697084 -1.3431900091 -0.8439066240
C    2.8205116706 -1.0888469173 -0.2469037334
C    3.4418648144  3.4840440473 -0.2641771495
C    4.5707232632  3.4004062461  0.5531629412
C    5.5571556110  4.3663709214  0.4914555783
C    5.4430702063  5.4262765881 -0.3936979949
H    6.2200863097  6.1744039604 -0.4459366613
C    4.3257128441  5.5208109835 -1.2090547334
C    3.3313857269  4.5641669560 -1.1419323208
N    0.0138677893 -2.0494770595 -0.0947759488
N   -2.0120333765 -0.0058218700 -0.1165278476
C    2.4303006460 -2.4416904296 -0.0683210621
C    1.1064305584 -2.8450351333  0.0802757305
C    0.6847080064 -4.1802868471  0.4032942716
H    1.3408288247 -4.9901578567  0.6547671609
C   -0.6702120801 -4.1822519416  0.3717586062
H   -1.3349718522 -4.9918483832  0.5944882345
C   -1.0834870783 -2.8509322828  0.0314977011
C   -2.4009532125 -2.4513253225 -0.1660053846
C   -2.8015481699 -1.1020626592 -0.3314053204
C   -4.1036492092 -0.6969883573 -0.6982108902
H   -4.9069881281 -1.3545742023 -0.9656487579
C   -4.1151016731  0.6783196277 -0.6605825954
H   -4.9294210915  1.3336725144 -0.8994072378
C   -2.8178314686  1.0852347809 -0.2765468543
C   -3.4284685079 -3.4994876902 -0.1865149523
C   -4.5176347905 -3.4531183618  0.6830687217
C   -5.4408750445 -4.4813252316  0.6984052375
C   -5.3018395200 -5.5594467848 -0.1612719601
H   -6.0218451986 -6.3637008865 -0.1437639200
C   -4.2342659222 -5.6041570674 -1.0431495309
C   -3.3013214154 -4.5840537088 -1.0543384798
Fe  -0.0021062469  0.0121789949  0.2392066053
C    3.4480012408 -3.4980592091 -0.1070292893
C    3.2873288744 -4.5674741747 -0.9922357805
C    4.5533448948 -3.4934554561  0.7435026522
C    4.1943091282 -5.6097455940 -1.0133505780
C    5.4523568438 -4.5457166060  0.7286902720
H    4.0564551668 -6.4308812730 -1.7010476581
C    5.2754904890 -5.6068609660 -0.1457084177
H    6.2902943872 -4.5422874085  1.4110299295
H    5.9763224906 -6.4293120139 -0.1500162361
C   -3.5177685615  3.4267292562  0.0504887887
C   -3.5366020531  4.5773320833 -0.7375221789
C   -4.5490854363  3.2276436409  0.9704927903
C   -4.5515522657  5.5068438337 -0.6010122175
C   -5.5527429116  4.1650419899  1.1137015855
H   -4.5581698776  6.3882829863 -1.2259461322
C   -5.5570896413  5.3094734230  0.3298290541
H   -6.3357115686  4.0069260087  1.8400171312
H   -6.3430412476  6.0394552788  0.4421185679
H    6.4200963493  4.2921726458  1.1373318368
H    4.2316428927  6.3433409002 -1.9028141140
H   -6.2696253111 -4.4474722618  1.3903137104
H   -4.1250152558 -6.4387450056 -1.7200692629
H   -2.7619833665  4.7223129821 -1.4765492066
H   -4.5405689670  2.3412339450  1.5883257635
H    2.4475303561 -4.5685969494 -1.6731337204
H    4.6802052118 -2.6775514259  1.4403337481
H   -4.6082192900 -2.6220006875  1.3653203768
H   -2.4719999904 -4.6108743639 -1.7456717864
H    4.6519690047  2.5830456344  1.2546476136
H    2.4682854828  4.6358257432 -1.7909525433
Cl  -0.0292873559  0.0533648416  2.3781453340
78
aligned d3map frame 6
N   -0.0183948801  2.0670894363 -0.1566975844
N    2.0013362518  0.0194654414 -0.1360794206
C   -2.4310777064  2.4374329751 -0.2439884655
C   -1.1240237629  2.8538211558 -0.0026844052
C   -0.7214456900  4.1710818748  0.4034531837
H   -1.3924379960  4.9676040296  0.6590795792
C    0.6341076597  4.1783574616  0.4389385414
H    1.2781596719  4.9845537690  0.7312870978
C    1.0694031932  2.8650555227  0.0545440157
C    2.3909202571  2.4682290653 -0.1276372090
C    2.7755220134  1.1199809397 -0.3730319656
C    4.0433038453  0.7242405597 -0.8570025654
H    4.8294313735  1.3829041183 -1.1726433721
C    4.0521461084 -0.6532959330 -0.8671550681
H    4.8429226049 -1.2973180483 -1.1988996852
C    2.7885381032 -1.0706037311 -0.3884672265
C    3.4526248627  3.4749163605 -0.0911865194
C    4.6018013803  3.2660524658  0.6746273111
C    5.6131561601  4.2064892815  0.6970328330
C    5.5024208920  5.3713806946 -0.0460883434
H    6.2980073551  6.1014096621 -0.0356675704
C    4.3645682199  5.5926759445 -0.8060204738
C    3.3482148554  4.6569600378 -0.8286308350
N    0.0098731020 -2.0515533687 -0.0913492761
N   -2.0020716581 -0.0008559565 -0.1570587998
C    2.4265115197 -2.4230494348 -0.1394929840
C    1.1146607147 -2.8331194370  0.0877871568
C    0.7124634383 -4.1395859124  0.5311291671
H    1.3822878373 -4.9314009125  0.8045375956
C   -0.6424566346 -4.1411748597  0.5791618766
H   -1.2824208829 -4.9321464521  0.9139088462
C   -1.0801095567 -2.8416235603  0.1521691179
C   -2.4003054954 -2.4456843734 -0.0385541434
C   -2.7719529456 -1.1087333507 -0.3615775125
C   -4.0224468574 -0.7355021545 -0.9011718712
H   -4.8020883500 -1.4075799758 -1.2043477385
C   -4.0265969970  0.6400554098 -0.9765075397
H   -4.8053001576  1.2704222667 -1.3645511185
C   -2.7802437950  1.0782203004 -0.4762533248
C   -3.4791105484 -3.4231367451  0.1033242388
C   -4.6081334894 -3.1051382173  0.8659805886
C   -5.6351701399 -4.0144835884  1.0156980560
C   -5.5602278652 -5.2585562104  0.4062530753
H   -6.3654927797 -5.9682498352  0.5212727746
C   -4.4467973915 -5.5861120315 -0.3539243295
C   -3.4174405114 -4.6777603364 -0.5104777414
Fe  -0.0021062469  0.0121789949  0.2392066053
C    3.4972884629 -3.4203272081 -0.1144459795
C    3.3779966996 -4.6205068674 -0.8204267036
C    4.6647405188 -3.1908181530  0.6182038545
C    4.3926872060 -5.5576168874 -0.7898031993
C    5.6761573797 -4.1311555131  0.6450386657
H    4.2879768997 -6.4794350198 -1.3436713694
C    5.5456692351 -5.3180666901 -0.0598013912
H    6.5713886189 -3.9394288041  1.2188097263
H    6.3375350720 -6.0512618417 -0.0381407801
C   -3.5102952659  3.4253995319 -0.2527962091
C   -3.3856913186  4.6256280114 -0.9552797562
C   -4.6972899178  3.1837717734  0.4446901764
C   -4.4121386641  5.5510213222 -0.9583731448
C   -5.7213672338  4.1093281657  0.4363540032
H   -4.3007894322  6.4744728006 -1.5094434429
C   -5.5844011274  5.2962514770 -0.2668642552
H   -6.6302393912  3.9061051216  0.9840367098
H   -6.3868696596  6.0190074630 -0.2728187221
H    6.4933093261  4.0311822150  1.2982698831
H    4.2717717871  6.4978598189 -1.3886400610
H   -6.4992849563 -3.7526750963  1.6060738978
H   -4.3867282945 -6.5535881831 -0.8423896604
H   -2.4875271814  4.8115833270 -1.5260389588
H   -4.7966816924  2.2701635718  1.0124287928
H    2.4954554119 -4.7982925176 -1.4179778653
H    4.7572797920 -2.2769374410  1.1874807220
H   -4.6572627575 -2.1452394153  1.3572418315
H   -2.5672031519 -4.9229327932 -1.1302950570
H    4.6812566446  2.3671890653  1.2687135704
H    2.4761029369  4.8222378515 -1.4438089368
Cl  -0.0124992364  0.0450849654  2.3788900512
78
aligned d3map frame 7
N   -0.0265307001  2.0637724126 -0.1776049537
N    2.0147034486  0.0067667418 -0.0746211861
C   -2.4426985380  2.4566726120 -0.0840968984
C   -1.1162446026  2.8778591452 -0.0474546879
C   -0.6839011738  4.2388336675  0.1013671002
H   -1.3307375927  5.0768042793  0.2743473551
C    0.6695481726  4.2376130031  0.0063153939
H    1.3349461503  5.0755264791  0.0863253979
C    1.0733273182  2.8741147265 -0.1722559393
C    2.3932518149  2.4523355473 -0.3005310854
C    2.8082218884  1.0999038636 -0.3011386842
C    4.1375378233  0.6892792590 -0.5491588049
H    4.9577017462  1.3346631689 -0.7929259811
C    4.1554324457 -0.6811614006 -0.4455033745
H    4.9934589840 -1.3343542732 -0.5892915317
C    2.8357770214 -1.0845211436 -0.1454095265
C    3.4297912178  3.4817935941 -0.4727170223
C    4.4949073157  3.5908484702  0.4182820278
C    5.4699867142  4.5500406702  0.2274239025
C    5.4061722664  5.4007158194 -0.8638091891
H    6.1744922592  6.1391382289 -1.0198906577
C    4.3504801331  5.3013174028 -1.7541977131
C    3.3629865082  4.3589737069 -1.5541378185
N    0.0220609986 -2.0492357299 -0.1134535210
N   -2.0162072707  0.0070983640 -0.0953026758
C    2.4382605131 -2.4419976697 -0.0216029262
C    1.1111848547 -2.8596355722  0.0195337355
C    0.6846264685 -4.2260477238  0.1542796230
H    1.3341803754 -5.0612275192  0.3287812824
C   -0.6672871475 -4.2272480066  0.0545799584
H   -1.3364299416 -5.0675417422  0.1084600762
C   -1.0752346710 -2.8626851769 -0.1190276693
C   -2.3949902733 -2.4442118851 -0.2417967768
C   -2.8111499372 -1.0930943925 -0.2788711347
C   -4.1389617777 -0.6911217248 -0.5421873511
H   -4.9611743288 -1.3473512375 -0.7510256090
C   -4.1541212912  0.6833220757 -0.4922654762
H   -4.9895004139  1.3283120935 -0.6717824453
C   -2.8344578148  1.0966193865 -0.2019827990
C   -3.4341236788 -3.4801244622 -0.3690246416
C   -4.4519323115 -3.5983181378  0.5760676844
C   -5.4153678756 -4.5798123743  0.4451154732
C   -5.3906988468 -5.4449933788 -0.6383210286
H   -6.1492127656 -6.2060312473 -0.7433469299
C   -4.3869087663 -5.3286214416 -1.5855405159
C   -3.4087835781 -4.3605669608 -1.4482991397
Fe  -0.0021062469  0.0121789949  0.2392066053
C    3.4892080557 -3.4676213144 -0.0534584110
C    3.4481499634 -4.4737129127 -1.0197770015
C    4.5467346803 -3.4627305903  0.8563546162
C    4.4260161587 -5.4479751041 -1.0713770135
C    5.5224308816 -4.4402837722  0.8064057486
H    4.3788932198 -6.2158094324 -1.8292520260
C    5.4666677297 -5.4360006920 -0.1565377881
H    6.3299034543 -4.4291064507  1.5233023123
H    6.2307925440 -6.1981547379 -0.1960892357
C   -3.5078358311  3.4650549938 -0.0509136831
C   -3.5172133178  4.5297850801 -0.9539020943
C   -4.5422780434  3.3735372846  0.8814781810
C   -4.5247002397  5.4732873764 -0.9195575205
C   -5.5438788549  4.3236367310  0.9194011190
H   -4.5221628917  6.2878428076 -1.6279389208
C   -5.5404504080  5.3769570589  0.0186355006
H   -6.3315695317  4.2469062206  1.6542595304
H   -6.3256542862  6.1173116937  0.0452001378
H    6.2854420892  4.6324590561  0.9306608503
H    4.2997876041  5.9610669936 -2.6063445846
H   -6.1905275860 -4.6718974692  1.1918858313
H   -4.3667332586 -5.9945976820 -2.4367171825
H   -2.7396094942  4.5944565820 -1.7010262930
H   -4.5338496528  2.5597439302  1.5918009849
H    2.6502195277 -4.4692014995 -1.7483071246
H    4.5859231123 -2.6992072198  1.6188696893
H   -4.4663798892 -2.9256477372  1.4206893077
H   -2.6294045894 -4.2676688370 -2.1902663218
H    4.5380220303  2.9276012479  1.2680939095
H    2.5421978890  4.2748296032 -2.2492314475
Cl  -0.0209371604  0.0075351722  2.3769910497
78
aligned d3map frame 8
N   -0.0218377420  2.0626023156 -0.1851448261
N    2.0141811217  0.0123610028 -0.0774399527
C   -2.4346260692  2.4613454647 -0.1179556527
C   -1.1096441206  2.8776243056 -0.0642370618
C   -0.6745512655  4.2429497409  0.0785016516
H   -1.3224996276  5.0785868759  0.2582176213
C    0.6764594491  4.2379212805 -0.0119398201
H    1.3506171484  5.0693699293  0.0501337210
C    1.0786384786  2.8682484764 -0.1841779328
C    2.3956566015  2.4519075874 -0.3098128752
C    2.8135814438  1.1011432630 -0.3029927840
C    4.1457059454  0.6897468883 -0.5219902961
H    4.9679485588  1.3386055463 -0.7522139095
C    4.1617269409 -0.6804150207 -0.3963984105
H    5.0013880683 -1.3370969593 -0.5158140730
C    2.8366856023 -1.0772137246 -0.1131126232
C    3.4313092287  3.4852864595 -0.5017582741
C    4.4231545581  3.7093386388  0.4479190963
C    5.3920144980  4.6713645780  0.2264442068
C    5.3935641644  5.4041496449 -0.9498453585
H    6.1624393336  6.1405065405 -1.1256557986
C    4.4072608359  5.1875213469 -1.8983286422
C    3.4247358648  4.2423499853 -1.6718870062
N    0.0224764992 -2.0481006288 -0.1199829383
N   -2.0149235018  0.0083785441 -0.0969188572
C    2.4363640445 -2.4323938635  0.0457426631
C    1.1139752581 -2.8532473944  0.0494015418
C    0.6852829286 -4.2164721460  0.2172282979
H    1.3410514803 -5.0429563761  0.4101460989
C   -0.6641366984 -4.2213507016  0.1165926768
H   -1.3377635196 -5.0531304245  0.1992991287
C   -1.0744169621 -2.8590717931 -0.0968689883
C   -2.3960773946 -2.4467439563 -0.2186756978
C   -2.8057781294 -1.0913767337 -0.2989052191
C   -4.1239243245 -0.6904938818 -0.6055825380
H   -4.9367306077 -1.3483023130 -0.8455332646
C   -4.1390662319  0.6855461079 -0.5665929601
H   -4.9680484227  1.3338035030 -0.7731359402
C   -2.8296964930  1.0971442819 -0.2358518310
C   -3.4393090520 -3.4826183206 -0.2731939079
C   -4.4498134451 -3.5343570379  0.6852381564
C   -5.3991001741 -4.5389043023  0.6448818603
C   -5.3676392562 -5.4893018779 -0.3622928550
H   -6.1087154121 -6.2738197076 -0.3924937494
C   -4.3801871347 -5.4327439473 -1.3336783096
C   -3.4171114841 -4.4422197819 -1.2842311777
Fe  -0.0021062469  0.0121789949  0.2392066053
C    3.5053702401 -3.4322711253  0.1765132541
C    4.4495951287 -3.3199107206  1.1965338475
C    3.6026286745 -4.5022194685 -0.7130108281
C    5.4556431579 -4.2582586491  1.3266855079
C    4.6192087719 -5.4305711975 -0.5867956625
H    6.1723732612 -4.1653997073  2.1288211233
C    5.5477989100 -5.3143011159  0.4346294785
H    4.6880867454 -6.2479751958 -1.2903143466
H    6.3438933873 -6.0394688725  0.5304196566
C   -3.4898334825  3.4792386569 -0.1379404657
C   -4.5719221022  3.4140048970  0.7423656464
C   -3.4315220180  4.5378963427 -1.0478495671
C   -5.5558693271  4.3847735515  0.7178310079
C   -4.4167853771  5.5061821657 -1.0687994261
H   -6.3850581285  4.3265212435  1.4100291341
C   -5.4836544120  5.4337472948 -0.1854083341
H   -4.3511650013  6.3186707066 -1.7789405145
H   -6.2547179520  6.1911087342 -0.2029524802
H    6.1518766152  4.8473970649  0.9733632245
H    4.4032438923  5.7535545302 -2.8183442562
H   -6.1667600223 -4.5841020489  1.4047363455
H   -4.3594257437 -6.1618061111 -2.1305645046
H   -4.6195659763  2.6084979740  1.4608121000
H   -2.6170808025  4.5785256159 -1.7567376425
H    4.3757389043 -2.5012822434  1.8965186835
H    2.8912742092 -4.5845090870 -1.5219416665
H   -4.4683068453 -2.7944963973  1.4731601518
H   -2.6469454616 -4.3890684110 -2.0412525655
H    4.4174377268  3.1352413534  1.3635820873
H    2.6546428514  4.0648241748 -2.4078779386
Cl   0.0099422472  0.0468180058  2.3764358859
78
aligned d3map frame 9
N   -0.0233933239  2.0627931192 -0.1715370556
N    2.0117242630  0.0149155720 -0.0976487814
C   -2.4358816377  2.4687178935 -0.1287782917
C   -1.1116221802  2.8757800402 -0.0129243718
C   -0.6730335958  4.2187122458  0.2365758038
H   -1.3131299987  5.0475362706  0.4671660708
C    0.6810368818  4.2122726017  0.1648897072
H    1.3521695583  5.0322654284  0.3302613964
C    1.0767743913  2.8617707670 -0.1140876915
C    2.3933250214  2.4492430657 -0.3196379273
C    2.8034301698  1.0986304200 -0.3792556635
C    4.1126818006  0.6698378453 -0.6949925827
H    4.9231882128  1.3014624158 -1.0008982314
C    4.1241862154 -0.6990642285 -0.5565068613
H    4.9456251910 -1.3654355064 -0.7309206290
C    2.8196712282 -1.0815475589 -0.1755481030
C    3.3948369302  3.5070510126 -0.4980419633
C    4.5439151464  3.5767470344  0.2891192921
C    5.4405560696  4.6169394429  0.1284791593
C    5.2125975032  5.5944974011 -0.8284254235
H    5.9119747778  6.4101567087 -0.9489873898
C    4.0834821199  5.5261972963 -1.6277065281
C    3.1798032116  4.4939716570 -1.4619197946
N    0.0274972091 -2.0500224222 -0.1047960141
N   -2.0123585579  0.0176509194 -0.1165103555
C    2.4361328046 -2.4329471939  0.0585066903
C    1.1161799201 -2.8557611633  0.0971370644
C    0.6775274810 -4.2064322794  0.3108871236
H    1.3188554718 -5.0358968515  0.5385076036
C   -0.6723381798 -4.2090256045  0.1846356073
H   -1.3469795023 -5.0354779882  0.2921308060
C   -1.0702164867 -2.8542980859 -0.0771243529
C   -2.3867664191 -2.4356960189 -0.2560280111
C   -2.7974521581 -1.0841363079 -0.3375295646
C   -4.1086806846 -0.6825408390 -0.6745882184
H   -4.9185846416 -1.3347473392 -0.9351181580
C   -4.1236617667  0.6928606477 -0.6365952479
H   -4.9483297877  1.3393133940 -0.8587064296
C   -2.8243133867  1.1063305207 -0.2734594970
C   -3.4199985527 -3.4688128429 -0.4197452697
C   -4.5202276510 -3.5414023966  0.4312350487
C   -5.4855049799 -4.5152203583  0.2438672291
C   -5.3794948380 -5.4120112473 -0.8064507684
H   -6.1404456578 -6.1620595085 -0.9658132509
C   -4.2892657239 -5.3437663892 -1.6611673289
C   -3.3105043063 -4.3892678306 -1.4635129469
Fe  -0.0021062469  0.0121789949  0.2392066053
C    3.5181418710 -3.4134711121  0.2176813080
C    3.6077686711 -4.5316455009 -0.6111544475
C    4.4901832534 -3.2303898732  1.2023573374
C    4.6373809771 -5.4412295282 -0.4570819473
C    5.5046126493 -4.1528131164  1.3657973858
H    4.7024222531 -6.2927133893 -1.1144486067
C    5.5860120295 -5.2604827603  0.5364378592
H    6.2406001831 -4.0085120625  2.1431570346
H    6.3838210751 -5.9778670181  0.6624558092
C   -3.4792607729  3.4972788225 -0.1673960672
C   -3.3612999592  4.5928442773 -1.0267290645
C   -4.6109885311  3.4061103825  0.6460291476
C   -4.3419839652  5.5651955453 -1.0659308672
C   -5.5876475521  4.3823629850  0.6046223900
H   -4.2350879226  6.4043424686 -1.7389683212
C   -5.4583992266  5.4654742279 -0.2512349006
H   -6.4565833706  4.3022023448  1.2426267738
H   -6.2215452353  6.2278110330 -0.2840907987
H    6.3178529953  4.6715405878  0.7557426190
H    3.9057385624  6.2824071156 -2.3786111841
H   -6.3276288425 -4.5756155691  0.9192329595
H   -4.2038708574 -6.0361925930 -2.4859290855
H   -2.5059989106  4.6603680236 -1.6835635399
H   -4.7061697923  2.5767551240  1.3311865564
H    2.8772401633 -4.6648127870 -1.3948662760
H    4.4246088876 -2.3685879527  1.8489715028
H   -4.6003700069 -2.8451842934  1.2543747179
H   -2.4634281010 -4.3294974699 -2.1318629736
H    4.7091428775  2.8242129306  1.0471559198
H    2.3023641553  4.4323156408 -2.0897730726
Cl   0.0110062400  0.0280385837  2.3760354586
78
aligned d3map frame 10
N   -0.0221006597  2.0637578219 -0.1823140667
N    2.0126968173  0.0046300482 -0.0837010596
C   -2.4318885274  2.4518389336 -0.0532715565
C   -1.1084222520  2.8778214995 -0.0509643627
C   -0.6781685713  4.2465470017  0.0625288885
H   -1.3257499002  5.0877782655  0.2167199761
C    0.6716983409  4.2447179425 -0.0421611174
H    1.3459459117  5.0783618308 -0.0042385093
C    1.0783623567  2.8737624368 -0.1860719332
C    2.3959118094  2.4518861245 -0.2666360735
C    2.8090811449  1.0982025097 -0.2941374908
C    4.1379485307  0.6922415211 -0.5441466554
H    4.9550573121  1.3500208947 -0.7648660691
C    4.1515066759 -0.6818137983 -0.4699883521
H    4.9883277262 -1.3320471980 -0.6328596177
C    2.8321501398 -1.0859877887 -0.1638308294
C    3.4547740037  3.4786462934 -0.3205886050
C    4.3313454229  3.6472368864  0.7479041772
C    5.3159430055  4.6178061750  0.6929039547
C    5.4523873639  5.4132910705 -0.4354551740
H    6.2265614758  6.1673507369 -0.4756052330
C    4.5912304491  5.2436090837 -1.5067763933
C    3.5908979003  4.2902444690 -1.4466868047
N    0.0187291543 -2.0471803635 -0.1195963545
N   -2.0138462619 -0.0029192402 -0.1039984712
C    2.4340474595 -2.4406266999  0.0066530357
C    1.1060394905 -2.8503782765  0.0807309283
C    0.6708625918 -4.1972944874  0.3279231139
H    1.3157676770 -5.0162151690  0.5829480666
C   -0.6802706459 -4.2023525544  0.2149233628
H   -1.3488191467 -5.0290792314  0.3558342285
C   -1.0801467079 -2.8559202932 -0.0817283582
C   -2.3957690909 -2.4496095766 -0.2898250420
C   -2.8034144561 -1.0926682278 -0.3664479947
C   -4.1124555622 -0.6701313774 -0.6897977579
H   -4.9192305846 -1.3054299426 -1.0000719567
C   -4.1279312187  0.7007574758 -0.5722036822
H   -4.9518289951  1.3626167930 -0.7515686412
C   -2.8228250727  1.0921573533 -0.2046870744
C   -3.4203485383 -3.4843678826 -0.4704390268
C   -4.6045557626 -3.4801300131  0.2709092560
C   -5.5775362827 -4.4364600607  0.0489155429
C   -5.3886343601 -5.4127787539 -0.9180238488
H   -6.1576197837 -6.1479492803 -1.0997430514
C   -4.2090734321 -5.4387682867 -1.6482138769
C   -3.2320630635 -4.4884128174 -1.4246986034
Fe  -0.0021062469  0.0121789949  0.2392066053
C    3.4863396505 -3.4625059157  0.0377586719
C    3.4314170636 -4.5534670633 -0.8333803419
C    4.5627174400 -3.3641071030  0.9233264131
C    4.4203135850 -5.5184308758 -0.8169343341
C    5.5459620737 -4.3349573445  0.9403188327
H    4.3679383798 -6.3538594503 -1.5003703181
C    5.4799955895 -5.4153320379  0.0718937433
H    6.3692253956 -4.2553336402  1.6355376519
H    6.2535950702 -6.1679153182  0.0865034267
C   -3.5018041706  3.4498373032  0.0434934015
C   -3.5620506426  4.5289432459 -0.8403135957
C   -4.4798799083  3.3387433337  1.0337531193
C   -4.5645781163  5.4750669428 -0.7316763150
C   -5.4682188847  4.2964896440  1.1525316212
H   -4.6007112791  6.3034825761 -1.4290829538
C   -5.5171182464  5.3674008517  0.2688438070
H   -6.2045787224  4.2099459480  1.9387482203
H   -6.2943937609  6.1129934680  0.3581965968
H    5.9787167515  4.7560587869  1.5343297001
H    4.6958886906  5.8554635200 -2.3928254535
H   -6.4893470956 -4.4182453745  0.6295599750
H   -4.0594030709 -6.1977430899 -2.4023793751
H   -2.8270571470  4.6016788323 -1.6273948316
H   -4.4414536029  2.5098965074  1.7253801900
H    2.6165604999 -4.6235995275 -1.5361212322
H    4.6067432901 -2.5316135014  1.6117791464
H   -4.7420988292 -2.7298869103  1.0362172730
H   -2.3216571958 -4.4960608359 -2.0090480968
H    4.2214611689  3.0265109315  1.6261099415
H    2.9148122440  4.1527873157 -2.2803332415
Cl  -0.0121844037  0.0518012991  2.3768386444
78
aligned d3map frame 11
N   -0.0030124034  2.0594470153 -0.1805331386
N    2.0124584515  0.0184997494 -0.1031687975
C   -2.4389023837  2.4039646538 -0.3615667358
C   -1.0937712510  2.8346969944 -0.4468392854
C   -0.6775059711  4.1388286223 -0.8054624153
H   -1.3180143298  4.9456692048 -1.1002254840
C    0.6953813788  4.1531564251 -0.7242204433
H    1.3540347042  4.9683520834 -0.9527649420
C    1.0915512435  2.8575234579 -0.3193119812
C    2.4341190887  2.4452614939 -0.1044035479
C    2.8185296411  1.1163777025  0.0568910947
C    4.1556036364  0.6897092390  0.3500523257
H    4.9739935197  1.3402913242  0.5893057560
C    4.1603246145 -0.6658380882  0.2990694527
H    4.9818274576 -1.3286091341  0.4892752423
C    2.8250939644 -1.0790587316 -0.0195123402
C    3.4719478125  3.4821200598 -0.1227653254
C    4.5740891431  3.3641516832 -0.9733751837
C    5.5428157020  4.3498957939 -1.0131751152
C    5.4332645508  5.4700312182 -0.2023963120
H    6.1914580096  6.2395514058 -0.2363779225
C    4.3459571758  5.5972979042  0.6484061222
C    3.3706594772  4.6177959524  0.6850418369
N    0.0121564173 -2.0432695882 -0.1177980167
N   -2.0139487451 -0.0151013091 -0.1206614986
C    2.4453884102 -2.4033078846 -0.2467127281
C    1.0987437522 -2.8218057229 -0.3900330658
C    0.6749392391 -4.1160039065 -0.7739404580
H    1.3120341280 -4.9145860682 -1.1012344372
C   -0.6973130422 -4.1281642015 -0.6730518588
H   -1.3618739489 -4.9383866971 -0.9019000288
C   -1.0853498323 -2.8378178299 -0.2442478828
C   -2.4269751128 -2.4347011432  0.0005540329
C   -2.8258298085 -1.1035403185  0.0755336846
C   -4.1763421213 -0.6647151971  0.2800454812
H   -5.0077124772 -1.3022103655  0.5188930254
C   -4.1816051809  0.6834360168  0.1287419685
H   -5.0154099498  1.3527235311  0.2151731283
C   -2.8293410502  1.0833954010 -0.1352227091
C   -3.4089739189 -3.5147895161  0.1443781394
C   -3.1433416577 -4.5555598080  1.0406645342
C   -4.0215992803 -5.6138469064  1.1760236295
C   -5.1783105899 -5.6625250248  0.4121842536
H   -5.8569224358 -6.5018791494  0.5039838323
C   -5.4547979454 -4.6347651404 -0.4770363214
C   -4.5807337687 -3.5692878929 -0.6117844742
Fe  -0.0021062469  0.0121789949  0.2392066053
C    3.4933717805 -3.4226594103 -0.3661876488
C    3.4277593923 -4.6152615601  0.3561393128
C    4.5721600417 -3.2259812503 -1.2313336599
C    4.4061992722 -5.5810333019  0.2100353295
C    5.5442905100 -4.1986698813 -1.3807663828
H    4.3427527249 -6.4982115110  0.7765017983
C    5.4642567758 -5.3809890114 -0.6630699612
H    6.3651704066 -4.0355708485 -2.0629092912
H    6.2150794652 -6.1439199318 -0.7869438091
C   -3.4903136792  3.4149756351 -0.5378754207
C   -3.5308765738  4.5610615452  0.2544109067
C   -4.4647065602  3.2449159106 -1.5234935650
C   -4.5240954751  5.5071906819  0.0692331585
C   -5.4468589019  4.1997931874 -1.7153114760
H   -4.5526957133  6.3883076301  0.6946423207
C   -5.4812724368  5.3336440337 -0.9188217079
H   -6.1840701861  4.0623387792 -2.4919275050
H   -6.2459370508  6.0784405441 -1.0710000527
H    6.3842166090  4.2494404380 -1.6868162568
H    4.2581821514  6.4677933479  1.2848095463
H   -3.8025857757 -6.4095597662  1.8758971488
H   -6.3529758956 -4.6715321326 -1.0779325338
H   -2.7926144688  4.6897666517  1.0326829910
H   -4.4210704693  2.3682033593 -2.1575294831
H    2.6127828545 -4.7655317794  1.0488323956
H    4.6227913359 -2.3151710553 -1.8102854823
H   -2.2509345842 -4.5134538057  1.6434179345
H   -4.7825413710 -2.7919192984 -1.3352310328
H    4.6480704086  2.5031913440 -1.6240293340
H    2.5314697018  4.7112898763  1.3599240753
Cl  -0.0205693620  0.0073395361  2.3806619961
78
aligned d3map frame 12
N   -0.0185416046  2.0556862125 -0.1884489760
N    2.0123288835  0.0167517438 -0.1028719352
C   -2.4586939826  2.4244340625 -0.0662267722
C   -1.1215577510  2.8347772621 -0.3349508826
C   -0.7483560353  4.1109282812 -0.8147332699
H   -1.4214722027  4.9126095237 -1.0579859887
C    0.6239262903  4.1062753237 -0.9240940069
H    1.2487795473  4.8986549191 -1.2877820784
C    1.0610751246  2.8302103797 -0.4989945937
C    2.4110057045  2.4371323061 -0.3278685694
C    2.8101095104  1.1279921007 -0.0560777822
C    4.1461455058  0.7463635717  0.2988511001
H    4.9565199419  1.4287244865  0.4640514241
C    4.1553609618 -0.6041629320  0.4214313934
H    4.9739715302 -1.2336904654  0.7093654361
C    2.8281409970 -1.0629010763  0.1269648153
C    3.4321011269  3.4874088767 -0.4076827267
C    3.3008160988  4.6556458423  0.3450817506
C    4.2552840631  5.6511568065  0.2710388801
C    5.3535137259  5.5042753419 -0.5609850018
H    6.0968760731  6.2850508097 -0.6228450968
C    5.4932587136  4.3502434602 -1.3151534923
C    4.5448583279  3.3481918724 -1.2382317611
N    0.0230269074 -2.0416724957 -0.1225156416
N   -2.0135844121  0.0101053858 -0.1216479489
C    2.4583672468 -2.4002711482  0.0244662425
C    1.1241744698 -2.8328655337 -0.2161640042
C    0.7454569273 -4.1445196537 -0.5853754855
H    1.4153779035 -4.9605536663 -0.7735443678
C   -0.6269425298 -4.1472465267 -0.6835230945
H   -1.2649711776 -4.9657896028 -0.9525149022
C   -1.0576400459 -2.8363806412 -0.3730708276
C   -2.4045851101 -2.4185979915 -0.2836151213
C   -2.8127683625 -1.1021382254 -0.0971543206
C   -4.1701926440 -0.7141566771  0.1533504275
H   -4.9911638080 -1.3971832324  0.2542156743
C   -4.1840042637  0.6365692246  0.2694705295
H   -5.0200557888  1.2675116304  0.4958906509
C   -2.8405397792  1.0914019015  0.0467326732
C   -3.4408324816 -3.4613440829 -0.3905664728
C   -3.5384919411 -4.4682442610  0.5653156984
C   -4.5126903717 -5.4442149768  0.4563893009
C   -5.3849687499 -5.4406425245 -0.6197845374
H   -6.1382252685 -6.2088541903 -0.7110290802
C   -5.2887516287 -4.4466989620 -1.5804871753
C   -4.3315687690 -3.4567298280 -1.4622266964
Fe  -0.0021062469  0.0121789949  0.2392066053
C    3.4904939833 -3.4370881453  0.1295881275
C    3.3269086326 -4.5052513240  1.0137702735
C    4.6439321974 -3.3869022729 -0.6541512547
C    4.2977180994 -5.4815878947  1.1217649894
C    5.6088759174 -4.3709292680 -0.5489156351
H    4.1635827366 -6.2963576347  1.8181957346
C    5.4420842525 -5.4188084389  0.3417210870
H    6.4935907455 -4.3228373145 -1.1672963972
H    6.1981053444 -6.1848551772  0.4265977461
C   -3.4551421227  3.4927648437  0.0541249431
C   -3.2146778823  4.5571802623  0.9264587606
C   -4.6321321231  3.4967743714 -0.6938902638
C   -4.1306124836  5.5813329623  1.0598501086
C   -5.5446425099  4.5270220640 -0.5613453376
H   -3.9330427668  6.3927281108  1.7440170483
C   -5.3012790814  5.5699200567  0.3162576283
H   -6.4493834889  4.5205782570 -1.1518554332
H   -6.0154991494  6.3736626562  0.4162993076
H    4.1432379452  6.5461017654  0.8655508169
H    6.3453164483  4.2339797039 -1.9690160658
H   -4.5898064155 -6.2108111789  1.2133082248
H   -5.9619605921 -4.4440622465 -2.4255580461
H   -2.3086231848  4.5569005158  1.5140288970
H   -4.8112306406  2.7038679563 -1.4050185175
H    2.4413249704 -4.5442916051  1.6306425828
H    4.7646225729 -2.5843799453 -1.3670978002
H   -2.8569012505 -4.4698275300  1.4037220039
H   -4.2523684108 -2.6809635644 -2.2102805324
H    2.4533221983  4.7614658316  1.0058800677
H    4.6447357436  2.4583995916 -1.8425468896
Cl  -0.0110298935  0.0445298526  2.3790876031
78
aligned d3map frame 13
N   -0.0104291426  2.0615570335 -0.1682501614
N    2.0131186544  0.0286310714 -0.0989002919
C   -2.4502743917  2.4250351869 -0.0722174967
C   -1.1154847465  2.8361719693 -0.3323691077
C   -0.7381872341  4.1197677673 -0.7916500528
H   -1.4108283175  4.9141039301 -1.0502939042
C    0.6348790512  4.1226589367 -0.8729165693
H    1.2663660613  4.9193577246 -1.2146786920
C    1.0711148890  2.8442420751 -0.4472940420
C    2.4211761196  2.4516625790 -0.2731804649
C    2.8189519112  1.1337454373 -0.0337440981
C    4.1630852689  0.7323947220  0.2596939074
H    4.9827213143  1.4007097208  0.4335221831
C    4.1708579108 -0.6234644746  0.3087571490
H    4.9979220496 -1.2711091454  0.5191944154
C    2.8296923635 -1.0606641276  0.0586854647
C    3.4413596246  3.5031496826 -0.3220427254
C    3.2870738508  4.6679808190  0.4339792476
C    4.2465222922  5.6599147617  0.4046612794
C    5.3802287135  5.5104984793 -0.3728761904
H    6.1319099860  6.2852655061 -0.3902463470
C    5.5395461491  4.3677205252 -1.1424065116
C    4.5802570606  3.3739312080 -1.1223881410
N    0.0147265699 -2.0468987718 -0.1011586134
N   -2.0148514104  0.0051665224 -0.1174985372
C    2.4543100848 -2.3972291637 -0.0397297883
C    1.1175922653 -2.8409502561 -0.1896163034
C    0.7299017643 -4.1733828997 -0.4707263163
H    1.3972883101 -4.9987890068 -0.6200943626
C   -0.6429074623 -4.1813388839 -0.5312094292
H   -1.2825783237 -5.0141925564 -0.7450668079
C   -1.0697243689 -2.8535271540 -0.2804197386
C   -2.4154544263 -2.4306301420 -0.2034198877
C   -2.8170475766 -1.1012271277 -0.0557511656
C   -4.1668796624 -0.7046786427  0.2135990764
H   -4.9896541753 -1.3784263512  0.3508876324
C   -4.1757674900  0.6499219020  0.2991616207
H   -5.0058591135  1.2886428260  0.5291550561
C   -2.8361350256  1.0934834212  0.0500078591
C   -3.4641523161 -3.4565484193 -0.2747472732
C   -3.4996315726 -4.5117388549  0.6365939605
C   -4.5129565615 -5.4507010859  0.5792087401
C   -5.4928665017 -5.3637468985 -0.3961466280
H   -6.2834285524 -6.0981889825 -0.4396104561
C   -5.4532058103 -4.3307095231 -1.3199374545
C   -4.4527247450 -3.3799734295 -1.2553240056
Fe  -0.0021062469  0.0121789949  0.2392066053
C    3.5177156285 -3.4125984267 -0.0399871647
C    4.5304892591 -3.3633321995 -0.9977872267
C    3.5390569135 -4.4339149559  0.9082389050
C    5.5364868347 -4.3099683535 -1.0065930240
C    4.5577800375 -5.3680703935  0.9077184387
H    6.3094235721 -4.2676673456 -1.7617759327
C    5.5592915326 -5.3103918528 -0.0486444878
H    4.5730994997 -6.1442619257  1.6588992327
H    6.3525227289 -6.0432001936 -0.0476954114
C   -3.4447056312  3.4939085603  0.0573053616
C   -4.6261324060  3.5038212877 -0.6852881986
C   -3.2010182588  4.5501075613  0.9387640711
C   -5.5375885250  4.5307934925 -0.5402736374
C   -4.1204224594  5.5681463192  1.0903075627
H   -6.4424663346  4.5329999317 -1.1321813270
C   -5.2933544596  5.5631019622  0.3519405719
H   -3.9211212034  6.3730268986  1.7839647409
H   -6.0081451873  6.3721206886  0.4584796264
H    4.1133833860  6.5519250882  0.9983421452
H    6.4158121069  4.2545484126 -1.7643575761
H   -4.5392631234 -6.2528596462  1.3028410799
H   -6.2089641264 -4.2631294342 -2.0885625142
H   -4.8064494110  2.7181877883 -1.4034508500
H   -2.2891205625  4.5513362067  1.5195795213
H    4.5089585342 -2.5871464787 -1.7500989846
H    2.7616011589 -4.4732649311  1.6580113019
H   -2.7437593917 -4.5709607360  1.4073360865
H   -4.4129527452 -2.5735030707 -1.9780623522
H    2.4174133744  4.7747699882  1.0641083014
H    4.6930752870  2.4996845790 -1.7519623563
Cl  -0.0219096842  0.0133915835  2.3786540577
78
aligned d3map frame 14
N   -0.0049883255  2.0510712572 -0.2085928888
N    2.0118496717  0.0206758064 -0.1057595353
C   -2.4439687041  2.4164494496 -0.0784300111
C   -1.1127826694  2.8166942045 -0.3921169051
C   -0.7463055834  4.0723529227 -0.9249350241
H   -1.4229569696  4.8548820995 -1.2109531477
C    0.6267048428  4.0706245161 -1.0319924694
H    1.2473982564  4.8482604325 -1.4312870773
C    1.0718298748  2.8201699508 -0.5441299826
C    2.4216669544  2.4371334712 -0.3336037983
C    2.8038887388  1.1314234386 -0.0106901072
C    4.1189614668  0.7464642250  0.4152383115
H    4.9152538272  1.4243177409  0.6540434745
C    4.1289704009 -0.6072753773  0.5050747540
H    4.9370147912 -1.2397148540  0.8167806624
C    2.8212537721 -1.0623330968  0.1357294002
C    3.4643758268  3.4576071338 -0.4448718354
C    3.3222698769  4.7107434542  0.1588147396
C    4.3234410229  5.6572223643  0.0585780491
C    5.4872219234  5.3758734186 -0.6393960643
H    6.2710865519  6.1146276666 -0.7083092340
C    5.6386889947  4.1380075326 -1.2470297772
C    4.6380436785  3.1919020693 -1.1592821412
N    0.0218486848 -2.0383967549 -0.1441019867
N   -2.0123564113 -0.0008881538 -0.1217643685
C    2.4569617903 -2.3957437153 -0.0209574945
C    1.1277159935 -2.8187002894 -0.2871120500
C    0.7514727995 -4.1088225814 -0.7251025214
H    1.4222919133 -4.9117551022 -0.9585956620
C   -0.6224865678 -4.1107544663 -0.8133086615
H   -1.2552204808 -4.9125049566 -1.1427585449
C   -1.0573064490 -2.8241052915 -0.4171494099
C   -2.4090095222 -2.4265914606 -0.2489007366
C   -2.8095076298 -1.1086357459 -0.0326788382
C   -4.1432102829 -0.7101173637  0.3170918659
H   -4.9576477758 -1.3813587457  0.5060315497
C   -4.1477818105  0.6412355271  0.4050530212
H   -4.9647688621  1.2787963467  0.6788656153
C   -2.8221410717  1.0884828360  0.0825177940
C   -3.4238120424 -3.4848300570 -0.2624279459
C   -3.2647040045 -4.6177749740  0.5398076969
C   -4.2147347806 -5.6203833171  0.5429784840
C   -5.3382778584 -5.5189906886 -0.2667427372
H   -6.0801745473 -6.3038092634 -0.2681603619
C   -5.5017168483 -4.4058834431 -1.0761404440
C   -4.5588126512 -3.3952206190 -1.0719626632
Fe  -0.0021062469  0.0121789949  0.2392066053
C    3.4983443198 -3.4248500143  0.0458752336
C    3.3448561414 -4.5376642344  0.8754996538
C    4.6582411823 -3.3183774242 -0.7226788539
C    4.3313155966 -5.5026718437  0.9453834513
C    5.6365755618 -4.2927480875 -0.6606586200
H    4.2055959687 -6.3513694479  1.6005638697
C    5.4797434707 -5.3855854664  0.1769069075
H    6.5234230669 -4.2037689505 -1.2719874459
H    6.2489033796 -6.1406118763  0.2322450682
C   -3.4335072504  3.4891304353  0.0574234376
C   -3.1531770550  4.5777083895  0.8863736694
C   -4.6476611625  3.4686321928 -0.6310384397
C   -4.0694138608  5.6007422739  1.0378879333
C   -5.5549131581  4.5011454602 -0.4854620322
H   -3.8458274612  6.4290113753  1.6941126394
C   -5.2735591221  5.5681614096  0.3520101241
H   -6.4862569633  4.4768275864 -1.0331218283
H   -5.9872708165  6.3720130020  0.4680070942
H    4.1991780210  6.6206935844  0.5333148939
H    6.5417840208  3.9122552983 -1.7961788740
H   -4.0771340706 -6.4837019573  1.1773535360
H   -6.3698048003 -4.3252781314 -1.7151281079
H   -2.2206180037  4.5985635032  1.4300588670
H   -4.8603628707  2.6539745466 -1.3074181484
H    2.4548345125 -4.6199642082  1.4819626907
H    4.7742396125 -2.4751581248 -1.3910879383
H   -2.3960684021 -4.6931841068  1.1754459149
H   -4.6808631236 -2.5388935199 -1.7200640190
H    2.4335508683  4.9214965449  0.7346460050
H    4.7454120931  2.2418761539 -1.6631141131
Cl  -0.0202460918  0.0494543890  2.3798370158
78
aligned d3map frame 15
N   -0.0179245326  2.0659206876 -0.1581484891
N    2.0004462037  0.0177448117 -0.1403131455
C   -2.4283226624  2.4303272960 -0.3268613338
C   -1.1267338476  2.8502642672 -0.0443854917
C   -0.7401181484  4.1697513178  0.3687326686
H   -1.4189508994  4.9680613599  0.5970748513
C    0.6131939869  4.1761997671  0.4616851279
H    1.2449306653  4.9810678870  0.7806412330
C    1.0655306838  2.8652049082  0.0877628651
C    2.3860657428  2.4674416498 -0.0837798019
C    2.7592107160  1.1223656986 -0.3857711226
C    3.9968981714  0.7431116182 -0.9506651524
H    4.7637014139  1.4146678361 -1.2842127040
C    4.0038180144 -0.6338037900 -0.9994387042
H    4.7714188821 -1.2713302559 -1.3935667020
C    2.7730803508 -1.0681249234 -0.4579417561
C    3.4639321105  3.4503616938  0.0229294729
C    4.5975957331  3.1630128736  0.7873069472
C    5.6178152063  4.0864668977  0.9076748496
C    5.5351526200  5.3065531774  0.2597155749
H    6.3339685265  6.0282983875  0.3558198217
C    4.4236909699  5.5981425595 -0.5146284348
C    3.3972181888  4.6813172724 -0.6349250140
N    0.0121558111 -2.0513349392 -0.0932056983
N   -2.0005998254 -0.0007042672 -0.1606868947
C    2.4269362016 -2.4176504888 -0.1825711951
C    1.1197817528 -2.8199078498  0.1038735553
C    0.7310763202 -4.1033385219  0.6206881333
H    1.4073517422 -4.8756893895  0.9314650143
C   -0.6230544807 -4.1096206953  0.6897370156
H   -1.2604712625 -4.8916761525  1.0611634070
C   -1.0731351489 -2.8311953248  0.2088879226
C   -2.3924611612 -2.4405505469  0.0342453156
C   -2.7642867350 -1.1142505441 -0.3420231289
C   -4.0080435809 -0.7636995914 -0.9067821832
H   -4.7791897711 -1.4510697140 -1.1958352297
C   -4.0114226678  0.6085386111 -1.0311003615
H   -4.7842581568  1.2228553022 -1.4504272518
C   -2.7744827266  1.0678094873 -0.5253950495
C   -3.4773261217 -3.3979617136  0.2546704951
C   -4.5518911464 -3.0423106610  1.0738206555
C   -5.5711224135 -3.9398950359  1.3240476674
C   -5.5477730083 -5.2011690716  0.7482009548
H   -6.3471651706 -5.9006519572  0.9395506301
C   -4.4976552491 -5.5571390975 -0.0853352695
C   -3.4674379560 -4.6673080302 -0.3267012932
Fe  -0.0021062469  0.0121789949  0.2392066053
C    3.4940382075 -3.4174164516 -0.1778715242
C    3.3205866010 -4.6531718256 -0.8076182528
C    4.7110591388 -3.1606961068  0.4587351287
C    4.3276544433 -5.5985356899 -0.7955315658
C    5.7149086186 -4.1089885753  0.4681076828
H    4.1774063021 -6.5482452854 -1.2889373208
C    5.5290428840 -5.3315450374 -0.1582231886
H    6.6477137683 -3.8989922628  0.9715800171
H    6.3123060642 -6.0720990436 -0.1515135268
C   -3.5011604281  3.4227527549 -0.4057181817
C   -3.3421566412  4.5967527443 -1.1469049245
C   -4.7158039440  3.2087187112  0.2530458134
C   -4.3667826483  5.5201111446 -1.2303056916
C   -5.7341617429  4.1357614864  0.1722816743
H   -4.2310035003  6.4178067735 -1.8179248148
C   -5.5663840698  5.2932917476 -0.5728138358
H   -6.6655141324  3.9565810095  0.6911709960
H   -6.3675801370  6.0136133628 -0.6429165077
H    6.4815265195  3.8521496401  1.5150376309
H    4.3573212873  6.5459202321 -1.0298238085
H   -6.3869224357 -3.6580928397  1.9760816659
H   -4.4852965049 -6.5333874758 -0.5511916668
H   -2.4185443666  4.7640529280 -1.6831851705
H   -4.8411164648  2.3173396075  0.8497887183
H    2.3969841246 -4.8533348900 -1.3304547304
H    4.8502107692 -2.2222744688  0.9717152548
H   -4.5611816989 -2.0632507338  1.5359673871
H   -2.6630916208 -4.9368793730 -0.9981267921
H    4.6530028415  2.2198691523  1.3103460214
H    2.5467727414  4.8995723677 -1.2650640804
Cl  -0.0126371976 -0.0047864696  2.3806999151
78
aligned d3map frame 16
N   -0.0098544330  2.0638492738 -0.1833433459
N    2.0150079956  0.0263680064 -0.0746361259
C   -2.4321847984  2.4438933437 -0.1323302578
C   -1.1090148095  2.8665181266 -0.0586522907
C   -0.6933151232  4.2227613499  0.1650146976
H   -1.3542897520  5.0459513267  0.3528818515
C    0.6612360914  4.2289162741  0.1368494148
H    1.3219506379  5.0589402903  0.2933412907
C    1.0835225868  2.8760169116 -0.0926887278
C    2.4127156218  2.4725094284 -0.1830355335
C    2.8290268087  1.1161996013 -0.2283839761
C    4.1610849003  0.6991841364 -0.4491973118
H    4.9985414536  1.3425013099 -0.6397401129
C    4.1605197979 -0.6755828446 -0.3952018656
H    4.9925080141 -1.3410199176 -0.5230745973
C    2.8254834358 -1.0724583626 -0.1607747501
C    3.4516609089  3.5087163718 -0.2350622195
C    4.5084077743  3.5117282042  0.6758005046
C    5.4814464254  4.4920409478  0.6201412996
C    5.4251682480  5.4777394028 -0.3516934615
H    6.1901027882  6.2387326223 -0.3980171265
C    4.3817585269  5.4824950211 -1.2647658644
C    3.3998354871  4.5128908814 -1.2036057667
N    0.0068491663 -2.0491897942 -0.1182955026
N   -2.0157440730 -0.0057790533 -0.0943999701
C    2.4235283538 -2.4263988809 -0.0765236479
C    1.1059382326 -2.8556752300 -0.0555269196
C    0.6962189279 -4.2301190647  0.0206137591
H    1.3652357866 -5.0644060711  0.0909821561
C   -0.6580781952 -4.2393133579 -0.0094498276
H   -1.3151128817 -5.0854843087  0.0446615934
C   -1.0830401703 -2.8705285368 -0.1057374356
C   -2.4061327787 -2.4567752416 -0.1796745799
C   -2.8180952462 -1.1032958117 -0.2476731238
C   -4.1411272516 -0.7039336460 -0.5359811182
H   -4.9632186062 -1.3653198842 -0.7284681375
C   -4.1454711803  0.6717659740 -0.5410024096
H   -4.9683027585  1.3260297549 -0.7571434883
C   -2.8265028169  1.0838588813 -0.2471598691
C   -3.4544458295 -3.4907718422 -0.2614449065
C   -4.4034464255 -3.6337932395  0.7471863524
C   -5.3759959457 -4.6136703208  0.6564522558
C   -5.4299142675 -5.4436755852 -0.4518687474
H   -6.1973976317 -6.1993554766 -0.5270371300
C   -4.4967883931 -5.2983459587 -1.4669001562
C   -3.5087741115 -4.3372385055 -1.3681790465
Fe  -0.0021062469  0.0121789949  0.2392066053
C    3.4902438336 -3.4506136005 -0.0556631857
C    4.2450606655 -3.6589340343  1.0939533087
C    3.7458778569 -4.2192912244 -1.1878232364
C    5.2302237506 -4.6303787773  1.1130374199
C    4.7436881512 -5.1774572880 -1.1690626893
H    5.8013576621 -4.7962595498  2.0153164390
C    5.4842572050 -5.3895948962 -0.0184763414
H    4.9436603780 -5.7616963062 -2.0563489702
H    6.2572340025 -6.1440219585 -0.0009735871
C   -3.4959883738  3.4542796765 -0.0922675298
C   -4.5266480068  3.3605990585  0.8422278259
C   -3.4893562981  4.5330806330 -0.9801461004
C   -5.5106165115  4.3291599851  0.8977250526
C   -4.4800628262  5.4948867043 -0.9258760827
H   -6.2925524076  4.2581282112  1.6444576564
C   -5.4894902297  5.4011678552  0.0187522193
H   -4.4627483476  6.3217784949 -1.6209932045
H   -6.2539756855  6.1630470369  0.0764033042
H    6.2871583414  4.4886206657  1.3405964066
H    4.3355607807  6.2483328264 -2.0261269059
H   -6.0959979558 -4.7284831532  1.4542723144
H   -4.5416334665 -5.9343902197 -2.3404405268
H   -4.5334726458  2.5355434389  1.5397615647
H   -2.7108000631  4.5930831259 -1.7273881758
H    4.0432725983 -3.0648873405  1.9738153237
H    3.1657549039 -4.0508898661 -2.0837060206
H   -4.3604768360 -2.9855880474  1.6112078992
H   -2.7809352882 -4.2183203391 -2.1583134642
H    4.5422091731  2.7529971753  1.4430504708
H    2.5942821861  4.5088983414 -1.9240432616
Cl  -0.0146481702  0.0600167353  2.3793461993
78
aligned d3map frame 17
N    0.0002801049  2.0540562805 -0.1967751769
N    2.0111587423  0.0261183560 -0.1016755818
C   -2.4381143855  2.4141512924 -0.0173305965
C   -1.1110674214  2.8212882179 -0.3474042770
C   -0.7566668538  4.0927880966 -0.8460767007
H   -1.4392124709  4.8812426154 -1.0982257931
C    0.6167869192  4.1000654899 -0.9690516109
H    1.2325073005  4.8936665301 -1.3423689542
C    1.0711213913  2.8368565868 -0.5264116239
C    2.4213859356  2.4409578179 -0.3669160194
C    2.8099652826  1.1361080076 -0.0641340799
C    4.1536799626  0.7484303967  0.2574873745
H    4.9656731549  1.4276931416  0.4262963293
C    4.1677883627 -0.6043813930  0.3497990150
H    4.9931657305 -1.2424139247  0.5937216119
C    2.8331667148 -1.0567220422  0.0795898832
C    3.4605919140  3.4618598197 -0.5359437375
C    3.3899106880  4.6748476282  0.1514870361
C    4.3635566395  5.6402516630 -0.0202379694
C    5.4220803140  5.4190868778 -0.8870950384
H    6.1792394686  6.1780907077 -1.0254875175
C    5.5027043641  4.2185664587 -1.5759153878
C    4.5357593766  3.2480335462 -1.4004919086
N    0.0200492939 -2.0401888532 -0.1315386170
N   -2.0154891532 -0.0026971543 -0.1174555883
C    2.4597726740 -2.3879753715 -0.0609012297
C    1.1238420578 -2.8221304543 -0.2724914456
C    0.7428298299 -4.1276183903 -0.6608827078
H    1.4120833090 -4.9369263006 -0.8766011493
C   -0.6310074857 -4.1367855046 -0.7201395826
H   -1.2683320134 -4.9499806500 -1.0074214664
C   -1.0627449176 -2.8365560669 -0.3616827762
C   -2.4118019691 -2.4356608588 -0.1996223808
C   -2.8109652716 -1.1115657561 -0.0087241707
C   -4.1378031194 -0.7149596520  0.3665373615
H   -4.9482455315 -1.3882480179  0.5667010428
C   -4.1390983112  0.6364931141  0.4629300777
H   -4.9473489416  1.2724444901  0.7642760770
C   -2.8199205863  1.0855577564  0.1158804540
C   -3.4332806905 -3.4872564877 -0.1989131424
C   -3.3000673945 -4.6042691121  0.6269879514
C   -4.2619939590 -5.5961587715  0.6276883413
C   -5.3680880065 -5.4959370400 -0.2010452845
H   -6.1224293552 -6.2712129151 -0.1957698695
C   -5.5081531962 -4.3958496365 -1.0313581921
C   -4.5523572938 -3.3976769256 -1.0288921818
Fe  -0.0021062469  0.0121789949  0.2392066053
C    3.5062444732 -3.4178665765 -0.0611871591
C    3.4339516743 -4.5034246712  0.8126950548
C    4.5772294018 -3.3430010699 -0.9517743087
C    4.4094238436 -5.4810763567  0.7980087490
C    5.5413846038 -4.3334547721 -0.9755533568
H    4.3509568366 -6.3106652422  1.4880883446
C    5.4630278732 -5.4046351228 -0.1011949484
H    6.3551160034 -4.2693980696 -1.6840306816
H    6.2168630823 -6.1764312881 -0.1205912967
C   -3.4117459230  3.4835657594  0.2178366620
C   -3.0879095025  4.5150392018  1.1028419715
C   -4.6657179508  3.4977039632 -0.3962825475
C   -4.0090727066  5.5022952646  1.3965328571
C   -5.5797405587  4.4945507019 -0.1057056024
H   -3.7556442125  6.2806347678  2.1028682917
C   -5.2623620639  5.4943335352  0.8002751782
H   -6.5492229618  4.4951760009 -0.5837684310
H   -5.9843062403  6.2662397543  1.0331397475
H    4.2973392613  6.5694043151  0.5250746978
H    6.3235583077  4.0425749784 -2.2543217316
H   -4.1506671626 -6.4514446217  1.2772007453
H   -6.3638077803 -4.3143157617 -1.6864467074
H   -2.1188176241  4.5135649277  1.5818837825
H   -4.9080580246  2.7376558086 -1.1239435788
H    2.6178669977 -4.5584948694  1.5190076244
H    4.6296480576 -2.5141617900 -1.6430606013
H   -2.4491829704 -4.6725320689  1.2877919691
H   -4.6501574722 -2.5487029695 -1.6883940956
H    2.5740599975  4.8357135430  0.8411252837
H    4.5901194561  2.3213028134 -1.9526960924
Cl  -0.0922121391 -0.0112387827  2.3811322588
78
aligned d3map frame 18
N   -0.0158853414  2.0563662635 -0.2009191597
N    2.0123388795  0.0199091036 -0.0949413105
C   -2.4542663697  2.4084137597 -0.3044697653
C   -1.1097001109  2.8206446725 -0.4875384173
C   -0.6980138720  4.0898963077 -0.9567965875
H   -1.3425258314  4.8726677748 -1.3044304109
C    0.6770512998  4.1016769654 -0.9089679800
H    1.3307098894  4.8973665322 -1.2083503152
C    1.0790568206  2.8376887669 -0.4202225075
C    2.4226588855  2.4410547447 -0.1883642241
C    2.8117725531  1.1223596135  0.0376401881
C    4.1468263430  0.7103517514  0.3617183376
H    4.9595966110  1.3701873373  0.5915543970
C    4.1564072791 -0.6475211857  0.3522591999
H    4.9763281254 -1.3034417091  0.5692596199
C    2.8265331940 -1.0738165966  0.0296501872
C    3.4584612370  3.4753394241 -0.2701586345
C    3.3554190323  4.6566756571  0.4656250018
C    4.3253241610  5.6361798636  0.3634226384
C    5.4081095385  5.4602850195 -0.4827545827
H    6.1614408416  6.2299114840 -0.5705635385
C    5.5194336829  4.2929322687 -1.2216911567
C    4.5572381888  3.3073673131 -1.1151951212
N    0.0093811898 -2.0412494115 -0.1363916694
N   -2.0131566475 -0.0033759734 -0.1155782291
C    2.4495953412 -2.3983967111 -0.1882678485
C    1.1075943026 -2.8170248069 -0.3677812830
C    0.7036935929 -4.1049722837 -0.7897199724
H    1.3575431505 -4.9018805779 -1.0847025081
C   -0.6710877047 -4.1153672144 -0.7732861768
H   -1.3223544286 -4.9196246685 -1.0527687091
C   -1.0818759656 -2.8324174859 -0.3443669285
C   -2.4261320099 -2.4255834500 -0.1496501233
C   -2.8139274186 -1.1018928271  0.0423779167
C   -4.1467150178 -0.6800565409  0.3645667435
H   -4.9588889067 -1.3358511196  0.6136607030
C   -4.1535816962  0.6763637869  0.3184632745
H   -4.9695830449  1.3445072457  0.5340173778
C   -2.8253938387  1.0923323394 -0.0293688059
C   -3.4729239053 -3.4494136677 -0.2482525376
C   -3.4134805879 -4.6273375910  0.4966088554
C   -4.3975072925 -5.5905983363  0.3652467989
C   -5.4507876276 -5.3997426539 -0.5150764725
H   -6.2164231909 -6.1540674050 -0.6218013311
C   -5.5194632006 -4.2330111240 -1.2603079551
C   -4.5428204181 -3.2651067623 -1.1274519725
Fe  -0.0021062469  0.0121789949  0.2392066053
C    3.5002946284 -3.4165503519 -0.2915502303
C    3.4423175601 -4.5937431652  0.4558576902
C    4.5680479928 -3.2360440453 -1.1732152006
C    4.4242685818 -5.5576796473  0.3262624222
C    5.5435937606 -4.2056394056 -1.3071410070
H    4.3697154444 -6.4607221419  0.9181984576
C    5.4750040274 -5.3717466381 -0.5576931463
H    6.3541634982 -4.0598977751 -2.0046332824
H    6.2430202247 -6.1223553343 -0.6593990780
C   -3.5157068068  3.4051784767 -0.4793223010
C   -3.4776227152  4.6379820752  0.1704912218
C   -4.5851867325  3.1349595622 -1.3370102362
C   -4.4810550187  5.5676984685 -0.0302066078
C   -5.5825973678  4.0686396721 -1.5400594222
H   -4.4465093088  6.5183805952  0.4832043785
C   -5.5345673078  5.2895953286 -0.8868696134
H   -6.3974922469  3.8477744692 -2.2138667209
H   -6.3107111682  6.0234484711 -1.0458268368
H    4.2356830547  6.5423425712  0.9451160281
H    6.3572350909  4.1537947942 -1.8895640079
H   -4.3416595292 -6.4979158153  0.9511104180
H   -6.3349500714 -4.0801937104 -1.9535275671
H   -2.6710606893  4.8522930189  0.8564733335
H   -4.6082597145  2.1934781020 -1.8668597861
H    2.6329406048 -4.7357992985  1.1566969793
H    4.6092215786 -2.3382194676 -1.7735514247
H   -2.6012601319 -4.7724642569  1.1949555864
H   -4.5834032605 -2.3660958723 -1.7257436417
H    2.5181153665  4.7891515570  1.1345642103
H    4.6329770059  2.4081692442 -1.7099651019
Cl  -0.0043189944  0.0327290413  2.3782059593
78
aligned d3map frame 19
N   -0.0199949011  2.0621155945 -0.1606364510
N    2.0125148147  0.0162368011 -0.1047185042
C   -2.4600042295  2.4233675088 -0.0529321188
C   -1.1228204936  2.8508496502 -0.2760859124
C   -0.7414317361  4.1584587507 -0.6530266016
H   -1.4080757974  4.9730439083 -0.8609241878
C    0.6329125311  4.1628124303 -0.7321913204
H    1.2710637852  4.9777954178 -1.0128268385
C    1.0629084942  2.8570391849 -0.3981061749
C    2.4111817665  2.4437846828 -0.2885970135
C    2.8185093088  1.1230249187 -0.1067607938
C    4.1803697472  0.7274458761  0.1031741511
H    5.0111277183  1.4008940976  0.1883991246
C    4.1931251562 -0.6263013315  0.1996453796
H    5.0332369799 -1.2721331776  0.3684466527
C    2.8385566856 -1.0700723455  0.0489560934
C    3.4371824723  3.4938112319 -0.3671159011
C    3.4115527007  4.5708126112  0.5178794260
C    4.3697328607  5.5644126440  0.4397881403
C    5.3577929174  5.5076100729 -0.5301705468
H    6.1006126435  6.2896611049 -0.5921563219
C    5.3885444682  4.4442713034 -1.4178365117
C    4.4414212404  3.4405797305 -1.3330840346
N    0.0169973013 -2.0465721696 -0.0952146430
N   -2.0136063302  0.0048144659 -0.1248591193
C    2.4535639721 -2.4041481855  0.0349722281
C    1.1161706289 -2.8478373666 -0.1192435275
C    0.7327774335 -4.1882138556 -0.3565441784
H    1.3998683060 -5.0224065434 -0.4462917387
C   -0.6375437285 -4.1939933410 -0.4671518504
H   -1.2758682999 -5.0313201169 -0.6661598635
C   -1.0639156827 -2.8560742537 -0.2830519117
C   -2.4102818168 -2.4278679209 -0.2527840461
C   -2.8155613385 -1.1039487421 -0.1024171250
C   -4.1744189473 -0.7142503084  0.1371732525
H   -4.9972456617 -1.3950821453  0.2409385978
C   -4.1844439384  0.6367264225  0.2523616953
H   -5.0141173979  1.2719795713  0.4839521592
C   -2.8388773680  1.0880884228  0.0404002965
C   -3.4505008378 -3.4622954843 -0.3874688362
C   -3.5936504873 -4.4678520224  0.5652631072
C   -4.5645956698 -5.4407783801  0.4129234843
C   -5.3890937404 -5.4352466161 -0.7014742632
H   -6.1459135846 -6.1992388566 -0.8220285886
C   -5.2480152059 -4.4424200762 -1.6573550949
C   -4.2935919409 -3.4545678153 -1.4981119555
Fe  -0.0021062469  0.0121789949  0.2392066053
C    3.4856028113 -3.4480265793  0.1684621122
C    3.4719348366 -4.2891654633  1.2804972149
C    4.4698504409 -3.6239696378 -0.8017269196
C    4.4330834821 -5.2714372068  1.4271244985
C    5.4160161831 -4.6233769533 -0.6617181146
H    4.4249779565 -5.9077635415  2.3014001852
C    5.4053008279 -5.4445003287  0.4544424175
H    6.1642782953 -4.7644972656 -1.4296371743
H    6.1525320167 -6.2178497659  0.5618755330
C   -3.4731836100  3.4775056205  0.0756553023
C   -3.2772639884  4.5031777326  1.0029385289
C   -4.6269155389  3.4944421040 -0.7093937697
C   -4.2188140364  5.5020059466  1.1552244300
C   -5.5620898971  4.5019071238 -0.5603463988
H   -4.0593515262  6.2821716025  1.8852308704
C   -5.3646148964  5.5056139095  0.3750183079
H   -6.4487606140  4.5109562981 -1.1800552636
H   -6.0966744026  6.2914400288  0.4924935654
H    4.3442903244  6.3880416796  1.1389071202
H    6.1513938657  4.3976540757 -2.1820810219
H   -4.6792938151 -6.2082624604  1.1650662537
H   -5.8816898240 -4.4348681141 -2.5346973842
H   -2.3890540154  4.4950679729  1.6182515403
H   -4.7705803500  2.7275606903 -1.4577339213
H    2.7101528487 -4.1483280787  2.0340926603
H    4.4769096652 -2.9882017112 -1.6764695344
H   -2.9480171995 -4.4667282815  1.4324428184
H   -4.1765724430 -2.6817381907 -2.2458405659
H    2.6475018655  4.6107047377  1.2809307647
H    4.4566247120  2.6163118224 -2.0321712899
Cl  -0.0270642698  0.0506809836  2.3781631429
78
aligned d3map frame 20
N   -0.0073705576  2.0653762576 -0.1661858445
N    2.0022977930  0.0268100351 -0.1259722147
C   -2.4200165348  2.4121181593 -0.4039068701
C   -1.1251060341  2.8401584440 -0.1015864005
C   -0.7718367161  4.1571174946  0.3512708186
H   -1.4678811915  4.9507299619  0.5500231161
C    0.5704562516  4.1647291346  0.5398880714
H    1.1727425702  4.9630254653  0.9276452820
C    1.0555396410  2.8638403809  0.1639354232
C    2.3863611297  2.4726352448  0.0744895495
C    2.7765201840  1.1391007373 -0.2669050771
C    4.0401422820  0.7845125859 -0.7824256873
H    4.8280391299  1.4666741966 -1.0376945599
C    4.0423626921 -0.5863858677 -0.9218399948
H    4.8292312101 -1.2029789304 -1.3086081085
C    2.7819008288 -1.0434486829 -0.4715925283
C    3.4562990853  3.4364532104  0.3229463148
C    4.5408028483  3.0704125774  1.1304029441
C    5.5438893214  3.9740276985  1.4150712662
C    5.4927455649  5.2609937196  0.8969519637
H    6.2759537912  5.9686667521  1.1256685107
C    4.4374996049  5.6303840272  0.0754856938
C    3.4316547139  4.7284883771 -0.2143143810
N    0.0027081071 -2.0495044018 -0.1015276587
N   -2.0027478200 -0.0120134136 -0.1458609220
C    2.4194678094 -2.4042916686 -0.3057684118
C    1.1182757842 -2.8268917081 -0.0237724149
C    0.7566929688 -4.1422747195  0.4245501999
H    1.4507343277 -4.9366144868  0.6189241418
C   -0.5869825514 -4.1457880487  0.6038271981
H   -1.1971093470 -4.9433273414  0.9785985998
C   -1.0643402777 -2.8437427848  0.2269181713
C   -2.3923873556 -2.4487728215  0.1300808865
C   -2.7764371357 -1.1255250475 -0.2551082302
C   -4.0342230118 -0.7890270567 -0.7986013106
H   -4.8181297500 -1.4820934829 -1.0331148147
C   -4.0314841103  0.5752263836 -0.9892816011
H   -4.8122259550  1.1747943220 -1.4146152161
C   -2.7786368609  1.0473648949 -0.5397461158
C   -3.4794663606 -3.3837687637  0.4199411492
C   -4.5404467520 -2.9598389354  1.2309806280
C   -5.5774317062 -3.8142233895  1.5435632541
C   -5.5823296946 -5.1137540646  1.0528525284
H   -6.3918317118 -5.7854601361  1.3006876209
C   -4.5494797148 -5.5405846367  0.2357688178
C   -3.5089768727 -4.6856551189 -0.0858413510
Fe  -0.0021062469  0.0121789949  0.2392066053
C    3.4803652671 -3.4113568236 -0.3926307420
C    3.3179591217 -4.5559283074 -1.1802394310
C    4.6800177928 -3.2475408766  0.3074717556
C    4.3251766969 -5.4987025132 -1.2696142546
C    5.6838816712 -4.1921979960  0.2181003236
H    4.1875300021 -6.3739081532 -1.8888141105
C    5.5142186960 -5.3186064567 -0.5743456316
H    6.6050020438 -4.0483701817  0.7650728221
H    6.3019950976 -6.0563308654 -0.6497514807
C   -3.4728858623  3.4202757375 -0.5352342126
C   -3.2707275107  4.5544298237 -1.3276973656
C   -4.6970927346  3.2745832378  0.1242193748
C   -4.2630483402  5.5066017171 -1.4615098770
C   -5.6867686494  4.2277896486 -0.0129121088
H   -4.0941136167  6.3724479755 -2.0873429111
C   -5.4764437126  5.3458159203 -0.8091397670
H   -6.6283233554  4.1020367158  0.5089234301
H   -6.2504839983  6.0909490895 -0.9148560122
H    6.3698294236  3.6738221028  2.0445234135
H    4.4001511371  6.6267946642 -0.3410926115
H   -6.3842371309 -3.4697123840  2.1746106650
H   -4.5552426374 -6.5469999291 -0.1619797779
H   -2.3360682882  4.6684302917 -1.8595209445
H   -4.8552196513  2.4188520282  0.7655247901
H    2.4034859705 -4.6856065411 -1.7423813767
H    4.8022033892 -2.3841963879  0.9491845405
H   -4.5229428215 -1.9565959559  1.6319705571
H   -2.7317022001 -5.0157206180 -0.7598900832
H    4.5701415253  2.0773919270  1.5559748187
H    2.6314611269  5.0093563618 -0.8793391565
Cl  -0.0125442229  0.0553038843  2.3785217027
78
aligned d3map frame 21
N   -0.0044621635  2.0628070322 -0.1852626992
N    2.0150716148  0.0234242601 -0.0736740027
C   -2.4238406239  2.4435453672 -0.1386129230
C   -1.1066840859  2.8695750368 -0.0968480711
C   -0.6957141742  4.2373860696  0.0421763854
H   -1.3572698591  5.0723708037  0.1596975294
C    0.6598252757  4.2423856145  0.0263802557
H    1.3141543849  5.0824732705  0.1485092357
C    1.0836206784  2.8800520363 -0.1444152512
C    2.4118645920  2.4697204351 -0.2604749053
C    2.8156138497  1.1109510307 -0.3028886496
C    4.1323672701  0.6878973777 -0.5903711285
H    4.9494752197  1.3259261067 -0.8603466150
C    4.1392643159 -0.6842742583 -0.4983834454
H    4.9662620294 -1.3456319991 -0.6655340983
C    2.8246525121 -1.0753159724 -0.1666436674
C    3.4376320968  3.5138931476 -0.3641001342
C    4.5415855704  3.5302620383  0.4904177801
C    5.4672022197  4.5536407693  0.4161443678
C    5.3109191902  5.5779354564 -0.5063770089
H    6.0351113304  6.3798887841 -0.5624146882
C    4.2296718087  5.5601365528 -1.3724605268
C    3.3001939512  4.5396273687 -1.3027262228
N    0.0113999036 -2.0472142385 -0.1211066833
N   -2.0171986410 -0.0095507729 -0.0916841994
C    2.4278349384 -2.4320803055 -0.0157436119
C    1.1065314778 -2.8549004645  0.0242078483
C    0.6813251785 -4.2122445159  0.2130616445
H    1.3284223485 -5.0461150834  0.3986708147
C   -0.6722265570 -4.2157042401  0.1354917999
H   -1.3336582558 -5.0486413463  0.2595449966
C   -1.0828785877 -2.8578028788 -0.0796363388
C   -2.4116290274 -2.4529241290 -0.2014387035
C   -2.8326916796 -1.1024437954 -0.2281973200
C   -4.1689782901 -0.6900970520 -0.4345936289
H   -5.0068164076 -1.3398135833 -0.5887447871
C   -4.1668655130  0.6842288519 -0.4054141030
H   -4.9987854175  1.3466634515 -0.5394664805
C   -2.8295062620  1.0862340495 -0.1932968174
C   -3.4153240784 -3.5219238301 -0.3054195596
C   -4.4388208860 -3.6526651109  0.6313588327
C   -5.3178827518 -4.7202328589  0.5673156344
C   -5.2079944558 -5.6554395690 -0.4491596289
H   -5.8928452869 -6.4906387577 -0.4982604000
C   -4.2091598187 -5.5212377835 -1.4013821418
C   -3.3169290763 -4.4687927508 -1.3260714335
Fe  -0.0021062469  0.0121789949  0.2392066053
C    3.4946103470 -3.4390198658  0.0437090139
C    3.5326396759 -4.5033035991 -0.8557989570
C    4.5058587683 -3.3364090745  1.0011188631
C    4.5546429778 -5.4341882001 -0.8012630583
C    5.5173147582 -4.2746195747  1.0587299315
H    4.5768045886 -6.2443258618 -1.5142157193
C    5.5489934088 -5.3270942442  0.1562241103
H    6.2882158221 -4.1844503969  1.8086961338
H    6.3457783955 -6.0545967706  0.1973735986
C   -3.4793589395  3.4731033854 -0.2130096527
C   -3.5872695091  4.2565374128 -1.3614892686
C   -4.3772421728  3.6722674140  0.8299991061
C   -4.5833209237  5.2078530489 -1.4693377709
C   -5.3583521817  4.6433840873  0.7265364443
H   -4.6694687468  5.7945615603 -2.3726817159
C   -5.4700140791  5.4076562120 -0.4226782463
H   -6.0416604383  4.8041399734  1.5481093323
H   -6.2433006866  6.1571127831 -0.5067453809
H    6.3098344005  4.5660022072  1.0929575252
H    4.1038542128  6.3482036878 -2.1025789181
H   -6.0864001357 -4.8247339136  1.3179998226
H   -4.1227199581 -6.2445920388 -2.1976841718
H   -2.8933821687  4.0969283666 -2.1728429067
H   -4.2891920134  3.0781751267  1.7273582018
H    2.7753750510 -4.5780534953 -1.6199254753
H    4.4743615792 -2.5222128519  1.7092641295
H   -4.5122917833 -2.9320743336  1.4323005392
H   -2.5367798327 -4.3676813262 -2.0657753628
H    4.6481852239  2.7519904206  1.2315005244
H    2.4658605595  4.5166767084 -1.9886399048
Cl  -0.0172914482  0.0523446338  2.3784031596
78
aligned d3map frame 22
N   -0.0163006193  2.0581995477 -0.1840088141
N    2.0142692583  0.0186880515 -0.1019342850
C   -2.4541799431  2.4122734769 -0.2781506261
C   -1.1086340061  2.8394319153 -0.4161214853
C   -0.6995207785  4.1387976660 -0.7934737610
H   -1.3469048535  4.9468028200 -1.0739215099
C    0.6765382934  4.1469502340 -0.7499873764
H    1.3323055648  4.9596211652 -0.9921947731
C    1.0794740588  2.8517883253 -0.3529898067
C    2.4230564911  2.4437616789 -0.1516485825
C    2.8228153257  1.1182021881 -0.0012848866
C    4.1787528927  0.7011052320  0.2310843939
H    5.0033211215  1.3673725546  0.3919342342
C    4.1838097840 -0.6542639470  0.2255916364
H    5.0135197906 -1.3236629866  0.3664613996
C    2.8301001935 -1.0779307700  0.0027186237
C    3.4446023285  3.5019367499 -0.1339121935
C    3.3589704730  4.5484172172  0.7838488993
C    4.3193652215  5.5416180837  0.8017563441
C    5.3685548189  5.5169247816 -0.1034938558
H    6.1141565528  6.2977522903 -0.0892173832
C    5.4552009174  4.4881333544 -1.0272002813
C    4.5055003344  3.4838941024 -1.0404019175
N    0.0039086182 -2.0425743151 -0.1205262596
N   -2.0131431574 -0.0097948324 -0.1233713243
C    2.4440051612 -2.4041992304 -0.1213335844
C    1.1010997258 -2.8251183265 -0.3001964011
C    0.7094176331 -4.1379171971 -0.6495215683
H    1.3694721463 -4.9493489674 -0.8948882894
C   -0.6674855706 -4.1506526343 -0.6439813235
H   -1.3073537851 -4.9769025493 -0.8840010710
C   -1.0826936648 -2.8476152395 -0.2891108933
C   -2.4265462994 -2.4373377296 -0.1141434957
C   -2.8205253161 -1.1090311383  0.0161456378
C   -4.1708687273 -0.6872011610  0.2536619169
H   -4.9917231376 -1.3466674251  0.4576836720
C   -4.1790018259  0.6674955714  0.1948933043
H   -5.0077645402  1.3308193704  0.3441271648
C   -2.8318796172  1.0860954510 -0.0708532570
C   -3.4419973138 -3.4981537590 -0.1043534985
C   -3.3255926609 -4.5704221817  0.7800706856
C   -4.2575489877 -5.5901006578  0.7742688358
C   -5.3132040137 -5.5663403944 -0.1230281094
H   -6.0347072145 -6.3693473164 -0.1378507018
C   -5.4367394215 -4.5058693437 -1.0061082552
C   -4.5149647893 -3.4765428471 -0.9957132064
Fe  -0.0021062469  0.0121789949  0.2392066053
C    3.4392762972 -3.4870783677 -0.0687852822
C    3.3789833475 -4.4264575370  0.9583194639
C    4.3933031435 -3.6383520760 -1.0727288282
C    4.2402725005 -5.5085518065  0.9644245053
C    5.2383241601 -4.7356703472 -1.0740029226
H    4.1881431122 -6.2286496179  1.7678185974
C    5.1603115843 -5.6759854077 -0.0602080972
H    5.9546472569 -4.8627480378 -1.8744158650
H    5.8128630953 -6.5384302714 -0.0646293903
C   -3.5141493994  3.4220930902 -0.3835530416
C   -3.5232191781  4.5505293696  0.4374240529
C   -4.5419566258  3.2623056332 -1.3137877854
C   -4.5469914818  5.4737116976  0.3460175333
C   -5.5580690071  4.1950242628 -1.4083193862
H   -4.5515080860  6.3369857313  0.9974666208
C   -5.5714502762  5.2984324964 -0.5727871550
H   -6.3447623710  4.0568735254 -2.1366447232
H   -6.3728236318  6.0201664887 -0.6371177439
H    4.2533444386  6.3426908012  1.5252712994
H    6.2619912561  4.4657291537 -1.7448531119
H   -4.1587001205 -6.4120903675  1.4686559131
H   -6.2541659748 -4.4833695612 -1.7102719936
H   -2.7377952639  4.6788311896  1.1670022629
H   -4.5203290078  2.4084021340 -1.9739691046
H    2.6548535258 -4.2937319196  1.7507680269
H    4.4391363464 -2.9123765895 -1.8708848202
H   -2.5066399914 -4.5869869782  1.4834398906
H   -4.5985710275 -2.6616832678 -1.7003515716
H    2.5451201142  4.5573929054  1.4923918751
H    4.5538038852  2.6862867468 -1.7670261866
Cl   0.0029586066  0.0471793363  2.3791005874
78
aligned d3map frame 23
N    0.0001540569  2.0522605937 -0.2019188840
N    2.0121092226  0.0193413699 -0.0950836950
C   -2.4332730096  2.4029407995 -0.3515586085
C   -1.0876475840  2.8157945638 -0.5063554717
C   -0.6636662500  4.0985978458 -0.9304520773
H   -1.3041822286  4.8871334648 -1.2807386842
C    0.7089955188  4.1146640814 -0.8327063788
H    1.3731934364  4.9175252754 -1.0887939475
C    1.0962176946  2.8411693540 -0.3541541342
C    2.4306094896  2.4409343832 -0.0550339000
C    2.8068564854  1.1152487299  0.1402978533
C    4.1211726889  0.6744835006  0.5059927313
H    4.9205848158  1.3106621707  0.8292777498
C    4.1307975314 -0.6792402243  0.4102720956
H    4.9406894740 -1.3433371134  0.6318925491
C    2.8171876168 -1.0825009721  0.0050819397
C    3.4597216243  3.4821343383  0.0066951077
C    3.2642732795  4.6395329682  0.7606548559
C    4.2506146140  5.6045338212  0.8355637811
C    5.4476679314  5.4401589775  0.1562171695
H    6.2208689891  6.1925373624  0.2244858405
C    5.6469117278  4.3047264950 -0.6111638522
C    4.6629560465  3.3382269262 -0.6893671595
N    0.0157490584 -2.0370351025 -0.1392122618
N   -2.0143142446 -0.0137015021 -0.1113627075
C    2.4412190786 -2.3995677412 -0.2750741118
C    1.0967242763 -2.8088894034 -0.4517508994
C    0.6628103193 -4.0948266453 -0.8563272570
H    1.2959854907 -4.8839782882 -1.2131113044
C   -0.7072269306 -4.1093303420 -0.7213670870
H   -1.3835250846 -4.9126843269 -0.9391013556
C   -1.0808528078 -2.8281802722 -0.2573671973
C   -2.4129382907 -2.4298461317  0.0554082882
C   -2.8150275714 -1.1020300065  0.1402389084
C   -4.1498301335 -0.6560306068  0.4098935970
H   -4.9683136986 -1.2839701829  0.7045760730
C   -4.1593935864  0.6909398815  0.2493449685
H   -4.9867773525  1.3592030259  0.3863927905
C   -2.8240418148  1.0892663663 -0.0869383156
C   -3.3718277659 -3.5076303295  0.3240928322
C   -3.0373283270 -4.4802875967  1.2687632113
C   -3.9327083076 -5.4784736431  1.5988072485
C   -5.1700151736 -5.5384650636  0.9771456895
H   -5.8738926454 -6.3146057764  1.2415158309
C   -5.4973742883 -4.6011820524  0.0103687656
C   -4.6080639360 -3.5935194672 -0.3154178686
Fe  -0.0021062469  0.0121789949  0.2392066053
C    3.4906234144 -3.4187045645 -0.3366003116
C    3.3784380048 -4.6073770024  0.3875680781
C    4.6417801708 -3.2096215755 -1.0986572988
C    4.3905776563 -5.5463463025  0.3596872476
C    5.6505672956 -4.1536616915 -1.1260808569
H    4.2946445988 -6.4541669180  0.9368193750
C    5.5323168708 -5.3211858568 -0.3911688486
H    6.5347524308 -3.9756764798 -1.7205711739
H    6.3258464440 -6.0541874286 -0.4054980600
C   -3.4731995171  3.4359498352 -0.4291034510
C   -3.3779968431  4.5882470737  0.3513140561
C   -4.5760324535  3.2857619450 -1.2712169144
C   -4.3670367064  5.5513717377  0.3064232250
C   -5.5593940784  4.2567291922 -1.3187801067
H   -4.2854449219  6.4332748521  0.9256539774
C   -5.4628264114  5.3888895391 -0.5268247778
H   -6.4062432398  4.1338052603 -1.9839884979
H   -6.2380587692  6.1440347765 -0.5617280277
H    4.0890599351  6.4907461730  1.4303467265
H    6.5724466481  4.1731153964 -1.1525456419
H   -3.6668244539 -6.2103255855  2.3484431210
H   -6.4537446047 -4.6550424116 -0.4901294968
H   -2.5324148559  4.7058960611  1.0130348054
H   -4.6454829001  2.4133358748 -1.9029992451
H    2.5019675872 -4.7702393219  0.9975463137
H    4.7278836304 -2.3076893439 -1.6878528209
H   -2.0803118602 -4.4212556592  1.7649287146
H   -4.8575426948 -2.8803272385 -1.0867533552
H    2.3437601810  4.7600511730  1.3123125278
H    4.8080248836  2.4665005995 -1.3104484808
Cl   0.0002006057  0.0081722199  2.3789232274
78
aligned d3map frame 24
N   -0.0072309514  2.0601749414 -0.1976316842
N    2.0095775960  0.0276859777 -0.0810123620
C   -2.4213623396  2.4026992696 -0.4415888424
C   -1.1133733935  2.8498723215 -0.2826269522
C   -0.7451107555  4.2242004069 -0.0785976964
H   -1.4308376636  5.0491573853 -0.0899213628
C    0.5868829697  4.2438090427  0.1640680102
H    1.2014524231  5.0898224572  0.4001623647
C    1.0543600817  2.8869326580  0.0599227782
C    2.3743062553  2.4750338475  0.1665244220
C    2.8014433233  1.1326770356 -0.0700839188
C    4.1268370509  0.7825688148 -0.4036390786
H    4.9468160684  1.4671265599 -0.4987293287
C    4.1361879402 -0.5781988502 -0.6140266129
H    4.9678430975 -1.1833698497 -0.9160707310
C    2.8202352426 -1.0375402615 -0.3752690399
C    3.4155248723  3.4416358351  0.5355671023
C    4.2036812029  3.1777840244  1.6565703762
C    5.1534239874  4.0884649399  2.0779342180
C    5.3464875511  5.2671840756  1.3757087710
H    6.0863733437  5.9809458331  1.7067440429
C    4.5909219820  5.5245465434  0.2432621213
C    3.6312784525  4.6216995609 -0.1750298886
N   -0.0045924902 -2.0448452053 -0.1342922612
N   -2.0091563727 -0.0187035902 -0.1021032468
C    2.4217852946 -2.3937734138 -0.3624003714
C    1.1101788421 -2.8248381044 -0.1464993525
C    0.7582515259 -4.1751693043  0.1946665482
H    1.4560262029 -4.9842117930  0.2886791122
C   -0.5759888258 -4.1902514895  0.4307110851
H   -1.1748873248 -5.0146827594  0.7650880429
C   -1.0624394071 -2.8611446736  0.1795101672
C   -2.3899807407 -2.4582478918  0.1985559963
C   -2.8010637014 -1.1248213254 -0.1220694916
C   -4.1058070291 -0.7783505854 -0.5291923484
H   -4.9211935808 -1.4600891159 -0.6760164781
C   -4.1104065472  0.5838233393 -0.7303567517
H   -4.9296956994  1.1913597317 -1.0615949552
C   -2.8072100723  1.0423303403 -0.4372570504
C   -3.4627534346 -3.3943852106  0.5367649953
C   -4.4334097611 -3.0003609976  1.4639590558
C   -5.4601331650 -3.8507341185  1.8191981634
C   -5.5440351686 -5.1156516542  1.2566873391
H   -6.3475335241 -5.7809907043  1.5364499377
C   -4.5974818449 -5.5141700876  0.3281799318
C   -3.5695111695 -4.6630559394 -0.0355658866
Fe  -0.0021062469  0.0121789949  0.2392066053
C    3.4596014071 -3.4212714099 -0.5217686778
C    4.5805390775 -3.4507624416  0.3071509351
C    3.3302340812 -4.3964513863 -1.5115456747
C    5.5444375633 -4.4283988807  0.1480944961
C    4.3028069582 -5.3640694654 -1.6756602191
H    6.4016577357 -4.4452379774  0.8049117756
C    5.4123046912 -5.3843687247 -0.8458095860
H    4.1969547913 -6.1062743452 -2.4530604525
H    6.1688751564 -6.1445452354 -0.9725905140
C   -3.5103494837  3.3895076498 -0.5274689487
C   -4.4995096567  3.4013964600  0.4549907340
C   -3.5879417445  4.3032072014 -1.5751707101
C   -5.5404414753  4.3074164383  0.3907322924
C   -4.6452094224  5.1923610777 -1.6489868227
H   -6.2919219987  4.3141830624  1.1670915805
C   -5.6223412547  5.1987634278 -0.6671780719
H   -4.7109017111  5.8830836413 -2.4771451065
H   -6.4464171929  5.8947787359 -0.7238155297
H    5.7417221681  3.8797840082  2.9593917152
H    4.7512809774  6.4353329994 -0.3154336943
H   -6.1991657609 -3.5282702733  2.5376426771
H   -4.6632158775 -6.4931489912 -0.1236043619
H   -4.4332735139  2.7037359046  1.2765949954
H   -2.8289628869  4.2946709280 -2.3441213524
H    4.6737499227 -2.7162518842  1.0931701864
H    2.4682991502 -4.3728808133 -2.1622978879
H   -4.3569476267 -2.0238668977  1.9184274603
H   -2.8661621928 -4.9671426989 -0.7967895225
H    4.0413028086  2.2644485417  2.2093859815
H    3.0597912377  4.8105504527 -1.0725280380
Cl  -0.0046810439  0.0454387280  2.3799851300
78
aligned d3map frame 25
N   -0.0025205016  2.0654152222 -0.1730250024
N    2.0111540311  0.0267959087 -0.0823028657
C   -2.4269653355  2.4267062908 -0.2916322697
C   -1.1098576469  2.8613244304 -0.1845248673
C   -0.7260383254  4.2302991037  0.0170548716
H   -1.4062400074  5.0578804836  0.0745331550
C    0.6209399000  4.2444685709  0.1625110712
H    1.2504315498  5.0872552995  0.3712121445
C    1.0740928480  2.8881813792  0.0226036238
C    2.3996083666  2.4802879389  0.0800870788
C    2.8206268716  1.1264490878 -0.0581683351
C    4.1673879667  0.7399472512 -0.2333776061
H    5.0078351603  1.4035913836 -0.2870639729
C    4.1752878051 -0.6303801312 -0.3487362187
H    5.0284695772 -1.2685664959 -0.4592789409
C    2.8300117054 -1.0567857896 -0.2579875163
C    3.4554644090  3.4820526146  0.2787426052
C    4.3594851185  3.3301751947  1.3312500212
C    5.3681262314  4.2536693753  1.5326665987
C    5.4977461450  5.3403555995  0.6827257497
H    6.2909265248  6.0581206154  0.8344756039
C    4.6056022337  5.5000238618 -0.3664866777
C    3.5905617436  4.5822524547 -0.5678410038
N    0.0083390144 -2.0497221772 -0.1085420979
N   -2.0134261986 -0.0112912850 -0.1004388177
C    2.4279609654 -2.4151926956 -0.2875474570
C    1.1119296572 -2.8513929610 -0.1611550110
C    0.7089571199 -4.2277942100 -0.0791710590
H    1.3743408349 -5.0679806977 -0.1283962267
C   -0.6362810778 -4.2395416459  0.0753387959
H   -1.2772879047 -5.0865685790  0.2127154623
C   -1.0767171695 -2.8727867431  0.0226400988
C   -2.4012295710 -2.4596403016  0.0479367423
C   -2.8199797189 -1.1105981756 -0.1242742774
C   -4.1516111144 -0.7318891992 -0.4019112330
H   -4.9826197306 -1.3998536120 -0.5166232267
C   -4.1544431592  0.6383523160 -0.5252770795
H   -4.9839231656  1.2769268754 -0.7539225473
C   -2.8248444928  1.0696689230 -0.3125994408
C   -3.4758881683 -3.4462069310  0.2368047338
C   -4.3584335496 -3.2965672310  1.3079749536
C   -5.3883655380 -4.1967203183  1.5013704639
C   -5.5686183973 -5.2509610444  0.6190675454
H   -6.3852784335 -5.9445565523  0.7616763101
C   -4.7043994264 -5.4037996994 -0.4524301350
C   -3.6620291593 -4.5126167570 -0.6398937885
Fe  -0.0021062469  0.0121789949  0.2392066053
C    3.4927823735 -3.4218816206 -0.4528936392
C    3.7550918784 -4.3664713532  0.5371441308
C    4.2658556191 -3.4303201444 -1.6134373848
C    4.7643375776 -5.2978574527  0.3674077927
C    5.2699166603 -4.3654018021 -1.7814322216
H    4.9626930853 -6.0206692486  1.1459410153
C    5.5219352900 -5.3032492543 -0.7917116633
H    5.8586540345 -4.3611006601 -2.6873863539
H    6.3082498014 -6.0319808684 -0.9246479795
C   -3.4972790174  3.4376297628 -0.3044531272
C   -4.4364339777  3.4637910244  0.7250767558
C   -3.5886821789  4.3798283800 -1.3269108682
C   -5.4373986367  4.4172680427  0.7375793716
C   -4.6048720440  5.3169758091 -1.3233425593
H   -6.1486556255  4.4378609494  1.5507689555
C   -5.5277657636  5.3430022877 -0.2882158934
H   -4.6772384355  6.0324828690 -2.1288542807
H   -6.3140027587  6.0821187796 -0.2842130067
H    6.0573388643  4.1249263049  2.3541123982
H    4.7038285836  6.3417545153 -1.0368285514
H   -6.0579511234 -4.0738186944  2.3403333658
H   -4.8458515424 -6.2158319541 -1.1496534216
H   -4.3549375279  2.7422613986  1.5256849644
H   -2.8679348978  4.3581851366 -2.1327855216
H    3.1783171190 -4.3521033762  1.4506709434
H    4.0634342461 -2.7027401624 -2.3870048323
H   -4.2154654785 -2.4746399895  1.9945767460
H   -3.0061836654 -4.6244417273 -1.4917879641
H    4.2506728445  2.4882273695  1.9987856194
H    2.9102571931  4.6973931383 -1.4005623027
Cl  -0.0447800320  0.0392095710  2.3767010237
78
aligned d3map frame 26
N   -0.0061942552  2.0601855735 -0.1781574730
N    2.0049566463  0.0270315195 -0.1239571478
C   -2.4145585603  2.4618581993 -0.0781056572
C   -1.0906298684  2.8645287932  0.0501476328
C   -0.6425248125  4.2001017305  0.3167113113
H   -1.2685257932  5.0201953071  0.6125042489
C    0.7072164160  4.2002323183  0.1715945647
H    1.3807343635  5.0216337776  0.3162584117
C    1.0918767637  2.8609454738 -0.1697415042
C    2.3935540356  2.4485926181 -0.4743767927
C    2.7739732472  1.0850174514 -0.5379068059
C    4.0418330129  0.6170117295 -0.9521663148
H    4.8180547152  1.2108997376 -1.3936560064
C    4.0630926541 -0.7380550293 -0.7137923928
H    4.8628637853 -1.4258567031 -0.9033753284
C    2.7976199678 -1.0780540199 -0.1910126096
C    3.3935463126  3.4802207073 -0.7473726884
C    4.6693836274  3.4492734450 -0.1777884633
C    5.5966530840  4.4275144192 -0.4767935006
C    5.2698152067  5.4654363747 -1.3373267635
H    6.0014072245  6.2294879275 -1.5774619512
C    4.0064008913  5.5133329640 -1.9030400670
C    3.0793551074  4.5318236530 -1.6150102300
N    0.0279599163 -2.0483084197 -0.1104756816
N   -2.0073049173  0.0128295102 -0.1393019310
C    2.4243288945 -2.4102947652  0.1637206375
C    1.1034758781 -2.8357247385  0.1997971238
C    0.6501704060 -4.1676629318  0.4945906201
H    1.2780066616 -4.9727556150  0.8227471242
C   -0.6896979521 -4.1814058804  0.2966754027
H   -1.3647471470 -5.0031309998  0.4280310690
C   -1.0741271502 -2.8476246495 -0.0766730512
C   -2.3848457635 -2.4342755035 -0.3097160826
C   -2.7810087969 -1.0769272791 -0.4292759034
C   -4.0744216433 -0.6563669658 -0.8175443250
H   -4.8675440700 -1.2978505117 -1.1473626059
C   -4.0905805409  0.7153464568 -0.7229059218
H   -4.9100256155  1.3685743907 -0.9534988254
C   -2.8078513350  1.1107468146 -0.2870520100
C   -3.4279456676 -3.4610608611 -0.4074903043
C   -4.5780428119 -3.3915521592  0.3791434995
C   -5.5568447955 -4.3621122600  0.2814984717
C   -5.4096343930 -5.4158836014 -0.6059904276
H   -6.1779265754 -6.1706782005 -0.6841212332
C   -4.2708919440 -5.4956542578 -1.3921958729
C   -3.2870999274 -4.5306808648 -1.2933948473
Fe  -0.0021062469  0.0121789949  0.2392066053
C    3.5197616555 -3.3346743781  0.4621539035
C    3.6289678275 -4.5898071577 -0.1378899802
C    4.5006280586 -2.9437399195  1.3770918888
C    4.6750171394 -5.4326750852  0.1867413080
C    5.5372441355 -3.7934786487  1.7073810755
H    4.7532098712 -6.3984696147 -0.2913362174
C    5.6266271678 -5.0436026418  1.1165130216
H    6.2794416301 -3.4824648246  2.4276166081
H    6.4381780691 -5.7087206114  1.3725357914
C   -3.4453416974  3.5040321003 -0.1327227216
C   -3.2771036194  4.5925016925 -0.9922334218
C   -4.6038122623  3.4391883519  0.6432765723
C   -4.2307512102  5.5891144836 -1.0664183721
C   -5.5554517232  4.4403075248  0.5679860382
H   -4.0886021552  6.4236116185 -1.7384558495
C   -5.3737307039  5.5180034873 -0.2850077084
H   -6.4434765748  4.3791487647  1.1806774119
H   -6.1222641425  6.2944544903 -0.3427038168
H    6.5816215091  4.3851789920 -0.0364311640
H    3.7438459425  6.3164411718 -2.5806056110
H   -6.4375106266 -4.2970423825  0.9028936774
H   -4.1519964769 -6.3131950655 -2.0884307668
H   -2.4000161971  4.6393709616 -1.6222695444
H   -4.7393895485  2.6094628068  1.3222285566
H    2.9083680972 -4.8846080050 -0.8866520618
H    4.4194850068 -1.9715689370  1.8422747539
H   -4.6835060638 -2.5804837362  1.0834701466
H   -2.4110546123 -4.5846615539 -1.9223114514
H    4.9252748034  2.6631161491  0.5115261781
H    2.1068947535  4.5485105686 -2.0857505226
Cl  -0.0284407920 -0.0165136889  2.3771998229
78
aligned d3map frame 27
N   -0.0238675985  2.0613576092 -0.1919465351
N    2.0147205883  0.0049677563 -0.0700762195
C   -2.4384368105  2.4583214267 -0.1433862713
C   -1.1133468474  2.8794300580 -0.1478808134
C   -0.6878896249  4.2513515279 -0.1225801028
H   -1.3426996161  5.0984998468 -0.0553607886
C    0.6654278322  4.2457182582 -0.1811178508
H    1.3355149600  5.0825694235 -0.1772659320
C    1.0755894441  2.8721384544 -0.2287398892
C    2.3921099916  2.4476534462 -0.3077201468
C    2.8096530343  1.0992939240 -0.2831101605
C    4.1486730221  0.6959949023 -0.4826528949
H    4.9720270897  1.3467307783 -0.6981442040
C    4.1691247871 -0.6738595698 -0.3721610207
H    5.0107397953 -1.3260563295 -0.4918970182
C    2.8417313375 -1.0815302447 -0.1070387103
C    3.4471874291  3.4671713008 -0.4875813670
C    4.3177897706  3.8004435618  0.5432257125
C    5.3177500023  4.7348021840  0.3344464871
C    5.4691276347  5.3322980132 -0.9064706633
H    6.2594760895  6.0499734407 -1.0693774311
C    4.6041945981  5.0037489412 -1.9376104526
C    3.5940361944  4.0836385540 -1.7281535914
N    0.0287292857 -2.0470891206 -0.1278015014
N   -2.0169184900  0.0094318812 -0.0890900565
C    2.4442611211 -2.4401890658  0.0220421844
C    1.1167064760 -2.8587121545  0.0216564036
C    0.6860442410 -4.2215504614  0.1581994398
H    1.3306490849 -5.0594056483  0.3355200968
C   -0.6648764505 -4.2223578837  0.0473821894
H   -1.3345775123 -5.0572782032  0.1120296873
C   -1.0708044753 -2.8578342111 -0.1316343077
C   -2.3905034093 -2.4408554556 -0.2500840811
C   -2.8146751750 -1.0907780778 -0.2630526899
C   -4.1528877955 -0.6888881325 -0.4785465104
H   -4.9776482930 -1.3432213555 -0.6774253352
C   -4.1700789670  0.6842277090 -0.4171774523
H   -5.0126851613  1.3350737554 -0.5502727944
C   -2.8403527365  1.0979762326 -0.1749719661
C   -3.4278378369 -3.4760390677 -0.3948008354
C   -4.4567075759 -3.6021537473  0.5348378958
C   -5.4304103012 -4.5698082461  0.3720487255
C   -5.4000526498 -5.4133053321 -0.7270633856
H   -6.1705649062 -6.1591385306 -0.8574523801
C   -4.3807163422 -5.2933830513 -1.6568563776
C   -3.3946543537 -4.3400461619 -1.4883191501
Fe  -0.0021062469  0.0121789949  0.2392066053
C    3.5135737162 -3.4426432909  0.0918020856
C    4.5231652741 -3.3308567633  1.0510543943
C    3.5660488955 -4.5031713795 -0.8137257241
C    5.5472963828 -4.2557282956  1.1060358409
C    4.5980684157 -5.4206889116 -0.7606736473
H    6.3183148838 -4.1570347288  1.8580876739
C    5.5932424911 -5.3016240657  0.1972194258
H    4.6330253278 -6.2299287083 -1.4762762857
H    6.3990641915 -6.0203226824  0.2352575942
C   -3.4991637151  3.4732187536 -0.2252379611
C   -4.4893635961  3.5615150695  0.7514321661
C   -3.5452953423  4.3468704767 -1.3119074264
C   -5.4956963771  4.5040329486  0.6446934430
C   -4.5633577272  5.2746233048 -1.4237828226
H   -6.2521387922  4.5671161287  1.4146768732
C   -5.5404684167  5.3590109382 -0.4448512409
H   -4.5997552276  5.9313485010 -2.2832422832
H   -6.3342307878  6.0868126119 -0.5358686428
H    5.9859544629  4.9932785487  1.1430512408
H    4.7181223184  5.4588198294 -2.9123394563
H   -6.2187939648 -4.6676710001  1.1039213966
H   -4.3523631569 -5.9434395003 -2.5199513295
H   -4.4519729909  2.8947774790  1.6005671264
H   -2.7898507065  4.2678770450 -2.0808748564
H    4.4802286619 -2.5215039028  1.7647487303
H    2.8075494583 -4.5823888442 -1.5795968244
H   -4.4744977500 -2.9444948347  1.3915669537
H   -2.6028658602 -4.2392513226 -2.2164934710
H    4.2027499833  3.3299148878  1.5085366906
H    2.9192668335  3.8199689093 -2.5301344108
Cl  -0.0085217080  0.0453499454  2.3786887712
78
aligned d3map frame 28
N   -0.0045286939  2.0614304950 -0.1663315668
N    2.0138464136  0.0255701876 -0.0989776298
C   -2.4413257168  2.4055909655 -0.2834135742
C   -1.0993016167  2.8417192850 -0.4022374962
C   -0.6897404410  4.1511553150 -0.7397252551
H   -1.3351022472  4.9615836468 -1.0146401317
C    0.6846158913  4.1644308517 -0.6731299850
H    1.3380623275  4.9875891604 -0.8845084807
C    1.0872993708  2.8617755913 -0.2987372982
C    2.4355708443  2.4505250263 -0.1147979485
C    2.8287207543  1.1199773148  0.0077655583
C    4.1810657364  0.6930928506  0.2387066643
H    5.0117591157  1.3473512812  0.4118934035
C    4.1802345236 -0.6624046693  0.2190696970
H    5.0071702500 -1.3313950633  0.3573465575
C    2.8267935534 -1.0761196122 -0.0050442025
C    3.4605326696  3.5001180122 -0.0894535175
C    3.3477701636  4.5784614406  0.7887664773
C    4.3204171040  5.5598463849  0.8258018609
C    5.4155032256  5.4890231369 -0.0211674230
H    6.1779186894  6.2536189789  0.0089497790
C    5.5310236007  4.4291296819 -0.9073918283
C    4.5643332620  3.4437826541 -0.9432598746
N   -0.0017275858 -2.0455769295 -0.1034946243
N   -2.0142201953 -0.0206996175 -0.1191388891
C    2.4345442259 -2.4012067103 -0.1262244060
C    1.0973579437 -2.8318318836 -0.2779032089
C    0.7013253020 -4.1547894243 -0.5768304644
H    1.3622651354 -4.9696785109 -0.7949418438
C   -0.6736393907 -4.1677821479 -0.5497122961
H   -1.3227434137 -4.9947148881 -0.7560265435
C   -1.0869783682 -2.8552209444 -0.2210384412
C   -2.4326745468 -2.4454367919 -0.0075850144
C   -2.8259750636 -1.1121599569  0.0642239753
C   -4.1713546972 -0.6729252620  0.2992353038
H   -4.9964805919 -1.3133082661  0.5387382078
C   -4.1742015361  0.6780839579  0.1865969294
H   -5.0021346923  1.3476132880  0.3109452296
C   -2.8263909222  1.0815122407 -0.0893248946
C   -3.4231437711 -3.5166278095  0.1306912078
C   -3.1771996785 -4.5690176030  1.0181929915
C   -4.0627162240 -5.6248394044  1.1269628307
C   -5.2202861146 -5.6469736209  0.3624450999
H   -5.9058691387 -6.4797547979  0.4301693661
C   -5.4847302821 -4.6009081118 -0.5074394884
C   -4.5979118931 -3.5451951201 -0.6237311779
Fe  -0.0021062469  0.0121789949  0.2392066053
C    3.4533408750 -3.4669203294 -0.0389984054
C    3.4798751935 -4.2893765692  1.0840839087
C    4.3688467771 -3.6816578983 -1.0650413018
C    4.4139186094 -5.3016325189  1.1822751565
C    5.2880717625 -4.7113221127 -0.9719076302
H    4.4342789829 -5.9288741867  2.0617573208
C    5.3150903516 -5.5185429453  0.1526463314
H    5.9810960834 -4.8824362174 -1.7810291812
H    6.0318565371 -6.3184372110  0.2262121473
C   -3.4921088632  3.4318067737 -0.3626052824
C   -3.4988149823  4.5098351441  0.5213827918
C   -4.5008716158  3.3404015737 -1.3209436503
C   -4.4972477789  5.4635543792  0.4553026682
C   -5.4886807422  4.3048604404 -1.3937941890
H   -4.5018845044  6.2852451595  1.1559890090
C   -5.4931393061  5.3660900812 -0.5026327118
H   -6.2608507194  4.2274269726 -2.1452448525
H   -6.2707031684  6.1137345083 -0.5542829080
H    4.2325894177  6.3774506532  1.5288590496
H    6.3791315521  4.3746172254 -1.5747197760
H   -3.8480972480 -6.4322898914  1.8128666183
H   -6.3834602611 -4.6077582486 -1.1071698978
H   -2.7298124899  4.5772576697  1.2759176654
H   -4.4905185101  2.5143627053 -2.0198793372
H    2.7708801470 -4.1161989482  1.8800157998
H    4.3406193642 -3.0492723067 -1.9412085435
H   -2.2837468707 -4.5458109893  1.6259049193
H   -4.7914168452 -2.7572493042 -1.3385289696
H    2.5037520257  4.6250787573  1.4618094860
H    4.6441343339  2.6326284469 -1.6529606408
Cl   0.0022861684  0.0005743279  2.3806896952
78
aligned d3map frame 29
N   -0.0160196617  2.0563399460 -0.2005188582
N    2.0112462641  0.0238047029 -0.0957694847
C   -2.4540191618  2.4113165523 -0.2825022219
C   -1.1110949537  2.8153374276 -0.4886301786
C   -0.7022266264  4.0819664676 -0.9766764585
H   -1.3562977683  4.8549423940 -1.3308012019
C    0.6695289818  4.0985725256 -0.9312583549
H    1.3250402929  4.8909529363 -1.2373729752
C    1.0775408191  2.8379183806 -0.4277571335
C    2.4177632211  2.4460930066 -0.1919495254
C    2.8079347487  1.1265882436  0.0494951981
C    4.1318994883  0.7159836010  0.4012270381
H    4.9393749808  1.3766193441  0.6461250897
C    4.1422197916 -0.6431591158  0.3972870382
H    4.9632882442 -1.2912097470  0.6352011483
C    2.8222813943 -1.0697284855  0.0493377111
C    3.4603525038  3.4731466817 -0.2635403111
C    3.3520324928  4.6641407072  0.4555470281
C    4.3550235680  5.6118836566  0.3965373026
C    5.4789248203  5.3944222153 -0.3848168706
H    6.2650988757  6.1323507193 -0.4223813155
C    5.5891211592  4.2246358972 -1.1196975728
C    4.5894096211  3.2760112661 -1.0623144899
N    0.0072825585 -2.0418038332 -0.1352264666
N   -2.0118582191 -0.0014764183 -0.1167683882
C    2.4469706313 -2.3977604717 -0.1629626734
C    1.1073455848 -2.8150446004 -0.3513057721
C    0.7129714451 -4.1010815907 -0.7968729272
H    1.3736817837 -4.8943058833 -1.0849323985
C   -0.6603508822 -4.1081362428 -0.8205565209
H   -1.3063158659 -4.9044800157 -1.1374386823
C   -1.0820323547 -2.8266565268 -0.3824371746
C   -2.4256746071 -2.4237266033 -0.2039718899
C   -2.8113586896 -1.1002856026  0.0362974523
C   -4.1372229876 -0.6862697489  0.3833910245
H   -4.9445866791 -1.3460110930  0.6375455360
C   -4.1438240297  0.6742192980  0.3655700485
H   -4.9604100318  1.3284885651  0.6024927726
C   -2.8257283790  1.0942743117  0.0031080989
C   -3.4848610326 -3.4261475300 -0.3626043966
C   -3.4562405690 -4.6413809564  0.3239747104
C   -4.4588761742 -5.5742096588  0.1429375575
C   -5.5042779365 -5.3173874281 -0.7319746901
H   -6.2839475025 -6.0493629816 -0.8776511072
C   -5.5402223510 -4.1171388869 -1.4223645741
C   -4.5428007324 -3.1782384094 -1.2388222760
Fe  -0.0021062469  0.0121789949  0.2392066053
C    3.5058620351 -3.4079617940 -0.2353936694
C    3.4656550620 -4.5555313811  0.5552555236
C    4.5828773923 -3.2322688292 -1.1085742720
C    4.4896795248 -5.4838786730  0.4997735370
C    5.5930303619 -4.1732143617 -1.1756984556
H    4.4560602016 -6.3561468344  1.1334012569
C    5.5566790121 -5.2970994333 -0.3650929645
H    6.4142342067 -4.0312609702 -1.8640431793
H    6.3557551407 -6.0202001356 -0.4111203877
C   -3.5120718924  3.4122357399 -0.4410815962
C   -3.4473285634  4.6538641416  0.1926304575
C   -4.6095220598  3.1367528521 -1.2646466877
C   -4.4438694776  5.5938333714  0.0036300705
C   -5.6032988591  4.0782288017 -1.4482760219
H   -4.3801175611  6.5489502958  0.5056559778
C   -5.5223754138  5.3120490618 -0.8200556430
H   -6.4419966529  3.8537322923 -2.0922003508
H   -6.2994844860  6.0477469736 -0.9705288969
H    4.2647460163  6.5254390684  0.9670764357
H    6.4558111846  4.0513245819 -1.7383497301
H   -4.4266737604 -6.5034437265  0.6899275430
H   -6.3461960361 -3.9099723897 -2.1096712945
H   -2.6196301910  4.8660593368  0.8541870812
H   -4.6568565500  2.1872660516 -1.7783586361
H    2.6407622459 -4.6994771731  1.2390050133
H    4.6042746159 -2.3611856122 -1.7454103908
H   -2.6551096774 -4.8308880526  1.0206185776
H   -4.5632296607 -2.2534194306 -1.7957732117
H    2.4902244066  4.8261210362  1.0844544266
H    4.6610171802  2.3752475657 -1.6538777943
Cl   0.0014838905  0.0458423702  2.3786740291
78
aligned d3map frame 30
N    0.0047308452  2.0517249713 -0.2091323083
N    2.0093610938  0.0318563673 -0.1051116142
C   -2.4233930701  2.3968872744 -0.3942559584
C   -1.0782194452  2.7979011775 -0.5773902835
C   -0.6414867849  4.0452382100 -1.0817447955
H   -1.2692633104  4.8087862465 -1.4976924193
C    0.7300207691  4.0619169692 -0.9641727617
H    1.4027405098  4.8404215462 -1.2665344837
C    1.1065598609  2.8231638783 -0.3971655332
C    2.4357730189  2.4423032305 -0.0518646355
C    2.8082852105  1.1171330595  0.1537205887
C    4.1124663197  0.6632595653  0.5477019361
H    4.9073949258  1.2950578867  0.8922440995
C    4.1161050148 -0.6883864507  0.4244283843
H    4.9154228584 -1.3697621439  0.6415827490
C    2.8058534334 -1.0731569721 -0.0161376670
C    3.4409342721  3.5000332996  0.0507849847
C    3.1665844909  4.6598729943  0.7824590901
C    4.1186766538  5.6526447270  0.9137843355
C    5.3613571240  5.5158553656  0.3084714082
H    6.1041670092  6.2912188120  0.4139761960
C    5.6391786756  4.3808081712 -0.4358070425
C    4.6909642342  3.3836595780 -0.5654164021
N    0.0069833230 -2.0372312410 -0.1448183962
N   -2.0112186149 -0.0147541996 -0.1219365716
C    2.4309276261 -2.3800324713 -0.3487971173
C    1.0876605157 -2.7920875043 -0.5080239958
C    0.6472645317 -4.0594965688 -0.9553984135
H    1.2679667346 -4.8336977906 -1.3615287744
C   -0.7211650368 -4.0812531140 -0.7987353057
H   -1.3970457092 -4.8822556302 -1.0393504357
C   -1.0926938556 -2.8216381934 -0.2795660586
C   -2.4235244324 -2.4249420736  0.0443159014
C   -2.8115851985 -1.0928578656  0.1536521867
C   -4.1257216499 -0.6323804349  0.5046886198
H   -4.9286935192 -1.2593574718  0.8359033158
C   -4.1268574791  0.7162345909  0.3577533627
H   -4.9307839375  1.3985611223  0.5519103608
C   -2.8083466400  1.0950193651 -0.0616702435
C   -3.4091927748 -3.4876395533  0.2570421115
C   -3.1113993897 -4.5352035499  1.1318238139
C   -4.0458400259 -5.5157929844  1.3999866472
C   -5.2896361158 -5.4836636328  0.7876018658
H   -6.0216254700 -6.2475042188  1.0039186975
C   -5.5859076588 -4.4690651827 -0.1073100748
C   -4.6557594019 -3.4807519372 -0.3723051590
Fe  -0.0021062469  0.0121789949  0.2392066053
C    3.5007544538 -3.3644222857 -0.5279564280
C    3.4632104982 -4.6100400154  0.1000384064
C    4.5972964670 -3.0553548139 -1.3381391801
C    4.4961483265 -5.5123111346 -0.0713366345
C    5.6246550619 -3.9620908639 -1.5106673578
H    4.4604969264 -6.4689924999  0.4295812020
C    5.5803352570 -5.1925277862 -0.8749118491
H    6.4654160960 -3.7079100227 -2.1411526293
H    6.3883348745 -5.8965774566 -1.0038165782
C   -3.4719052251  3.4085878335 -0.5418211190
C   -3.3837989169  4.6371638289  0.1120211513
C   -4.5882492952  3.1537679750 -1.3420203977
C   -4.3917929564  5.5744499693 -0.0141189735
C   -5.5901236675  4.0973540289 -1.4714385018
H   -4.3157665697  6.5163375029  0.5068613303
C   -5.4988337719  5.3095026442 -0.8046829400
H   -6.4464609345  3.8890602961 -2.0960742903
H   -6.2863449181  6.0438113814 -0.9032112548
H    3.8965704549  6.5347848803  1.4952258696
H    6.6009581158  4.2719117513 -0.9169893260
H   -3.8083994563 -6.3053740323  2.0974476908
H   -6.5483642679 -4.4491059474 -0.5995579141
H   -2.5323933313  4.8370185110  0.7466872974
H   -4.6509104730  2.2133558893 -1.8738122563
H    2.6334101645 -4.8508166399  0.7489562544
H    4.6204270443 -2.1032987886 -1.8478483030
H   -2.1497456114 -4.5471318067  1.6265681641
H   -4.8824244510 -2.7071014139 -1.0904525901
H    2.2061961674  4.7584623363  1.2715547623
H    4.9026714917  2.5167835960 -1.1745219950
Cl  -0.0179707368  0.0502930153  2.3789049378
78
aligned d3map frame 31
N   -0.0139042522  2.0545399071 -0.1964861384
N    2.0127178669  0.0176363818 -0.0953799613
C   -2.4562328825  2.4186561077 -0.1232512554
C   -1.1177067245  2.8250652685 -0.3887866509
C   -0.7387832815  4.0861532202 -0.9024159589
H   -1.4081166835  4.8733049710 -1.1871643061
C    0.6348142084  4.0820760413 -0.9884328777
H    1.2641135316  4.8626498062 -1.3692884062
C    1.0692352042  2.8233919927 -0.5100292016
C    2.4174693992  2.4379036513 -0.2935135901
C    2.8054570005  1.1294795333  0.0048170690
C    4.1209821104  0.7418849744  0.4259891066
H    4.9152540959  1.4201389501  0.6696933574
C    4.1293266512 -0.6114552943  0.5158798191
H    4.9355535721 -1.2442158739  0.8312256888
C    2.8181493986 -1.0663095309  0.1488023318
C    3.4469628027  3.4776071970 -0.3571909681
C    3.2730268021  4.6957518165  0.3043493368
C    4.2525449217  5.6690369425  0.2584412682
C    5.4288824971  5.4445807161 -0.4362376501
H    6.1978417058  6.2016734028 -0.4617399105
C    5.6114156835  4.2431370149 -1.1038495774
C    4.6303956108  3.2719184612 -1.0707510895
N    0.0215142741 -2.0407352179 -0.1313507536
N   -2.0140516360  0.0047400901 -0.1134581024
C    2.4527472741 -2.4026350076  0.0166616160
C    1.1209474113 -2.8339403094 -0.2379251580
C    0.7364887564 -4.1451768435 -0.5984933131
H    1.4006501097 -4.9633127907 -0.7987820471
C   -0.6379790769 -4.1475523193 -0.6746318763
H   -1.2773292067 -4.9712055502 -0.9206011128
C   -1.0618895016 -2.8355688739 -0.3653323068
C   -2.4077621529 -2.4199525783 -0.2567783165
C   -2.8141068923 -1.1056578746 -0.0581068728
C   -4.1660446023 -0.7120873927  0.2119354038
H   -4.9855652788 -1.3917980511  0.3448521703
C   -4.1762428431  0.6411272242  0.3014987642
H   -5.0067472477  1.2771255645  0.5349134585
C   -2.8359496892  1.0899021493  0.0425610596
C   -3.4425167481 -3.4681204807 -0.3573383768
C   -3.5750017365 -4.4292240364  0.6418388093
C   -4.5420742595 -5.4122302321  0.5383565366
C   -5.3679188687 -5.4637783286 -0.5747337019
H   -6.1162196320 -6.2367605016 -0.6602445738
C   -5.2334466226 -4.5170311251 -1.5787582952
C   -4.2848924246 -3.5170900962 -1.4662375098
Fe  -0.0021062469  0.0121789949  0.2392066053
C    3.4828463582 -3.4402899711  0.1205236485
C    3.2881644344 -4.5441233829  0.9539496617
C    4.6619828845 -3.3611010249 -0.6231460393
C    4.2456121742 -5.5357530555  1.0418512349
C    5.6178283950 -4.3544776936 -0.5318099720
H    4.0822827203 -6.3845796275  1.6932555832
C    5.4133472632 -5.4454308338  0.2990185690
H    6.5257345131 -4.2828035287 -1.1142006598
H    6.1603891634 -6.2230388923  0.3662378171
C   -3.4758529861  3.4717042209 -0.0929915514
C   -3.3012956594  4.5964791313  0.7188431503
C   -4.6219282177  3.3900441715 -0.8863199294
C   -4.2535203264  5.5975712202  0.7479952440
C   -5.5663966748  4.3981169917 -0.8614395411
H   -4.1068838505  6.4554839182  1.3877790522
C   -5.3889790811  5.5041739897 -0.0431937878
H   -6.4449037106  4.3235442355 -1.4897146965
H   -6.1288247530  6.2904092886 -0.0251402663
H    4.1036356688  6.6046572614  0.7771461737
H    6.5239370444  4.0644628354 -1.6502647904
H   -4.6511917810 -6.1454586237  1.3250460267
H   -5.8703127419 -4.5596684853 -2.4515155639
H   -2.4225734495  4.6670458590  1.3427585545
H   -4.7543697849  2.5401337079 -1.5384760304
H    2.3861800048 -4.6055745653  1.5461828639
H    4.8070346607 -2.5269407381 -1.2949711264
H   -2.9273709150 -4.3899079938  1.5066571693
H   -4.1758401814 -2.7771055798 -2.2471159474
H    2.3738362928  4.8582182623  0.8788863347
H    4.7624523359  2.3501104751 -1.6186776083
Cl   0.0140384312  0.0530441552  2.3819618592
78
aligned d3map frame 32
N   -0.0178534092  2.0633050612 -0.1881684775
N    2.0138651981  0.0096810170 -0.0805711847
C   -2.4309967557  2.4360550934  0.0226559099
C   -1.1110101709  2.8648676124 -0.0051259645
C   -0.6852955725  4.2250512989  0.1731450280
H   -1.3318583831  5.0553728998  0.3794733822
C    0.6655067204  4.2330883003  0.0675201707
H    1.3262443708  5.0712316134  0.1749598630
C    1.0778530423  2.8752351845 -0.1577871660
C    2.4032471934  2.4618251132 -0.2449963028
C    2.8121633825  1.1020519907 -0.2838104430
C    4.1393315073  0.6888908883 -0.5396432416
H    4.9606453397  1.3351136753 -0.7817062488
C    4.1527448701 -0.6850754387 -0.4564095372
H    4.9870197544 -1.3423338110 -0.6059672425
C    2.8307265733 -1.0841551317 -0.1626017890
C    3.4548940602  3.4847638658 -0.2803391323
C    4.5037670097  3.4511488260  0.6395531991
C    5.4940458800  4.4137768938  0.6091965449
C    5.4611211294  5.4182094017 -0.3448412944
H    6.2389615376  6.1671596259 -0.3706530295
C    4.4263708946  5.4589019547 -1.2660858566
C    3.4274269198  4.5052358648 -1.2320386332
N    0.0115946686 -2.0461337429 -0.1256344833
N   -2.0149074271 -0.0094669938 -0.1012567277
C    2.4244481784 -2.4383668621 -0.0462973315
C    1.1010220369 -2.8603486245 -0.0110414228
C    0.6744079392 -4.2296801296  0.0704978111
H    1.3226413512 -5.0708583169  0.2211543276
C   -0.6746077432 -4.2302952655 -0.0583633442
H   -1.3424681029 -5.0698022723 -0.0474737547
C   -1.0820527680 -2.8599351564 -0.1844228310
C   -2.3952813156 -2.4433684630 -0.3475915963
C   -2.8158568986 -1.0956077853 -0.3349482213
C   -4.1515450929 -0.6820521665 -0.5359675138
H   -4.9775130183 -1.3301513844 -0.7594055139
C   -4.1641578397  0.6865184768 -0.4000384245
H   -4.9998334687  1.3510991357 -0.5066621920
C   -2.8349219175  1.0803447689 -0.1259936910
C   -3.4088267933 -3.4925955489 -0.5990115019
C   -4.2806565713 -3.9261075849  0.3940124716
C   -5.1836162283 -4.9431026965  0.1341778151
C   -5.2361290511 -5.5285793992 -1.1199219002
H   -5.9381097972 -6.3255740624 -1.3210285981
C   -4.3816689477 -5.0887232049 -2.1187291800
C   -3.4691418350 -4.0827684400 -1.8583703320
Fe  -0.0021062469  0.0121789949  0.2392066053
C    3.4695515275 -3.4742864611 -0.0665087171
C    3.4877600700 -4.4250348687 -1.0862596640
C    4.4402092095 -3.5372144327  0.9318732551
C    4.4531744123 -5.4137359622 -1.1077926595
C    5.3887126293 -4.5433210157  0.9212557493
H    4.4636765054 -6.1350335149 -1.9125399352
C    5.4011013623 -5.4818188593 -0.0994837305
H    6.1161898429 -4.6050926643  1.7202889475
H    6.1469046890 -6.2607930526 -0.1099901127
C   -3.4955391898  3.4350900485  0.1723424322
C   -3.5957338468  4.5146209713 -0.7065198230
C   -4.4306984812  3.3164173281  1.2003792550
C   -4.5988710990  5.4520801472 -0.5559755136
C   -5.4245290101  4.2631275400  1.3553680721
H   -4.6706070831  6.2778657062 -1.2489893166
C   -5.5129982439  5.3331661177  0.4788518410
H   -6.1344571889  4.1701422141  2.1637993762
H   -6.2931456797  6.0701428937  0.5991506106
H    6.2955696162  4.3828205532  1.3325081017
H    4.4037182978  6.2396976345 -2.0141162852
H   -5.8466665166 -5.2831628679  0.9173187912
H   -4.4227549990 -5.5347680574 -3.1019933547
H   -2.8919541037  4.5927757094 -1.5218334504
H   -4.3529440590  2.4868890564  1.8875308750
H    2.7471021813 -4.3698751030 -1.8722300131
H    4.4257155739 -2.8078951227  1.7283094377
H   -4.2360715345 -3.4732076658  1.3743216447
H   -2.7997971996 -3.7378310142 -2.6358676739
H    4.5164410453  2.6739658442  1.3898986874
H    2.6284415350  4.5248438190 -1.9592457547
Cl  -0.0128017146  0.1508213943  2.3702871414
78
aligned d3map frame 33
N   -0.0115317025  2.0617036057 -0.1733929684
N    1.9987719651  0.0263879771 -0.1514649489
C   -2.4112032713  2.4111721735 -0.4817899031
C   -1.1270143753  2.8369434367 -0.1229881186
C   -0.7768894423  4.1517771930  0.3333014293
H   -1.4733306203  4.9439474798  0.5280523685
C    0.5672998210  4.1621349328  0.5211255723
H    1.1695986732  4.9618743759  0.9048938611
C    1.0516630402  2.8619092330  0.1490739964
C    2.3802925573  2.4763840022  0.0222249857
C    2.7652421744  1.1408026071 -0.3152373008
C    4.0081679098  0.7924643835 -0.8840914374
H    4.7835916443  1.4784320499 -1.1639529754
C    4.0045484062 -0.5754259227 -1.0402431105
H    4.7738000314 -1.1810956692 -1.4771174186
C    2.7647982038 -1.0409188143 -0.5451203431
C    3.4420024311  3.4721094929  0.1530924212
C    4.5912769678  3.1916746389  0.8968687307
C    5.5937849879  4.1325214023  1.0263049776
C    5.4763132281  5.3702629601  0.4132086112
H    6.2609951157  6.1047953268  0.5159439055
C    4.3485033177  5.6563921776 -0.3387859671
C    3.3433374213  4.7184352171 -0.4714197494
N    0.0022242694 -2.0469052803 -0.1083823752
N   -1.9987478120 -0.0086143309 -0.1722697996
C    2.4054094965 -2.4031977253 -0.3964510278
C    1.1160018009 -2.8244796408 -0.0553469011
C    0.7607047795 -4.1417179636  0.3916798380
H    1.4549702240 -4.9383677340  0.5764048010
C   -0.5825121922 -4.1475451951  0.5849798947
H   -1.1866124386 -4.9491504504  0.9636250241
C   -1.0637312797 -2.8453198032  0.2145958256
C   -2.3885912762 -2.4525865769  0.0795073254
C   -2.7571287770 -1.1288405432 -0.3224964030
C   -3.9794937268 -0.8053007235 -0.9467794845
H   -4.7415765607 -1.5054419668 -1.2283022735
C   -3.9733294694  0.5571237418 -1.1491242047
H   -4.7255960577  1.1452726532 -1.6364466908
C   -2.7552135426  1.0431974231 -0.6227831196
C   -3.4775691283 -3.4063929857  0.2808197954
C   -4.5973110244 -3.0274683748  1.0274818290
C   -5.6380980848 -3.9086166974  1.2376683572
C   -5.5892037653 -5.1867661349  0.7035889845
H   -6.4044502735 -5.8751572359  0.8687707660
C   -4.4938044833 -5.5702081814 -0.0527715426
C   -3.4492662524 -4.6903941163 -0.2662944219
Fe  -0.0021062469  0.0121789949  0.2392066053
C    3.4289121285 -3.4263987748 -0.6185324830
C    3.1474949198 -4.5272455520 -1.4318636011
C    4.6997366474 -3.3280293869 -0.0479614824
C    4.1085920590 -5.4887402392 -1.6757612759
C    5.6577351735 -4.2922203133 -0.2942538430
H    3.8758053833 -6.3290513866 -2.3136514753
C    5.3688766973 -5.3739005050 -1.1115968246
H    6.6364347898 -4.2022325112  0.1539773111
H    6.1217928803 -6.1225800280 -1.3072311778
C   -3.4367618058  3.4244177967 -0.7206671085
C   -3.1367666604  4.5540683698 -1.4879985101
C   -4.7302720687  3.2955162508 -0.2099914431
C   -4.0972464581  5.5132137925 -1.7404470738
C   -5.6889236077  4.2553757741 -0.4685595179
H   -3.8474004983  6.3774402442 -2.3378950061
C   -5.3791858161  5.3667231272 -1.2359030740
H   -6.6851930343  4.1394766833 -0.0671287410
H   -6.1314720096  6.1140793676 -1.4385019204
H    6.4729417305  3.9017538255  1.6097640015
H    4.2546721112  6.6141428863 -0.8296573081
H   -6.4928610451 -3.6004830825  1.8234845751
H   -4.4556331279 -6.5595588975 -0.4834194606
H   -2.1473518852  4.6558450990 -1.9084171666
H   -4.9679821736  2.4482498240  0.4151619455
H    2.1744112587 -4.6057148295 -1.8947038546
H    4.9194944779 -2.5005244985  0.6097921097
H   -4.6283448369 -2.0387330241  1.4584639987
H   -2.6192962073 -4.9814667218 -0.8925280158
H    4.6771221521  2.2364660888  1.3929129056
H    2.4849880899  4.9319092844 -1.0910011687
Cl  -0.0110950814  0.0579983967  2.3787077980
78
aligned d3map frame 34
N   -0.0185171856  2.0664687457 -0.1681108328
N    2.0150591750  0.0195651077 -0.0681662991
C   -2.4343090395  2.4501904608 -0.0603661414
C   -1.1143106773  2.8805732361 -0.0880737980
C   -0.6909396360  4.2524883450 -0.0462754779
H   -1.3446877229  5.0961928341  0.0422869126
C    0.6619360268  4.2527386579 -0.1317166789
H    1.3208977408  5.1002120344 -0.1534262039
C    1.0787929128  2.8781492776 -0.1756961099
C    2.4048533706  2.4622543197 -0.2245078700
C    2.8301261290  1.1107841192 -0.2018660482
C    4.1834352179  0.7019496585 -0.2333967886
H    5.0345889370  1.3488542476 -0.3110636703
C    4.1871751129 -0.6680427323 -0.1220373886
H    5.0356157838 -1.3237754879 -0.1285764937
C    2.8377474079 -1.0705647654 -0.0103336814
C    3.4566456271  3.4943616345 -0.2537616537
C    3.6147946593  4.3689589429  0.8205090064
C    4.6160086791  5.3214733061  0.8053605243
C    5.4719576969  5.4172213203 -0.2808609321
H    6.2571597306  6.1583997088 -0.2904834498
C    5.3154599433  4.5600779055 -1.3584853999
C    4.3184678766  3.6018323552 -1.3451387391
N    0.0077586624 -2.0510188549 -0.1034699287
N   -2.0149977149 -0.0028790440 -0.0894691385
C    2.4237361414 -2.4205363994  0.1173288555
C    1.1033552991 -2.8460702937  0.0873362210
C    0.6846947103 -4.2052180299  0.2879486846
H    1.3408655541 -5.0279039917  0.4923209738
C   -0.6667611062 -4.2170794233  0.2061319405
H   -1.3238806758 -5.0537626583  0.3363618413
C   -1.0856356804 -2.8664755729 -0.0472560633
C   -2.4113998722 -2.4558943248 -0.1623765293
C   -2.8135894061 -1.0979276259 -0.2718040758
C   -4.1348338001 -0.6886250868 -0.5563402222
H   -4.9543721025 -1.3374089882 -0.7996388684
C   -4.1457832735  0.6879350529 -0.4962862936
H   -4.9746693327  1.3458516438 -0.6706572171
C   -2.8277725119  1.0900706619 -0.1910540345
C   -3.4644337760 -3.4754366869 -0.0968365046
C   -4.4805248713 -3.3673438136  0.8532707627
C   -5.4409674530 -4.3512754119  0.9679862840
C   -5.4127811309 -5.4531233063  0.1300728699
H   -6.1583437417 -6.2259224562  0.2247192724
C   -4.4241416310 -5.5608980188 -0.8321597352
C   -3.4559566562 -4.5832754424 -0.9444404065
Fe  -0.0021062469  0.0121789949  0.2392066053
C    3.4758858492 -3.4357901881  0.2962522764
C    4.3064839022 -3.3958207867  1.4132865782
C    3.6515503937 -4.4536131412 -0.6399573511
C    5.2814318214 -4.3592254013  1.5975341734
C    4.6399807034 -5.4035658011 -0.4613829770
H    5.9074385971 -4.3243238474  2.4764086474
C    5.4536611962 -5.3627861321  0.6593208832
H    4.7764624201 -6.1795976112 -1.1971361527
H    6.2179930650 -6.1132133482  0.7979199373
C   -3.5085202313  3.4262414305  0.1710580114
C   -4.3338557779  3.2448591758  1.2819333687
C   -3.7260218004  4.5309093280 -0.6500976313
C   -5.3197290112  4.1616753864  1.5832429976
C   -4.7280669341  5.4371776803 -0.3545198646
H   -5.9353968227  4.0177290908  2.4589180290
C   -5.5187902500  5.2639223997  0.7678880851
H   -4.8960197031  6.2853005794 -1.0031757662
H   -6.2882584435  5.9831390386  1.0007454522
H    4.7343859266  5.9867359798  1.6457913088
H    5.9776624179  4.6324432778 -2.2108776206
H   -6.2098352129 -4.2618143020  1.7201911285
H   -4.4041369749 -6.4132305820 -1.4944202815
H   -4.1722576332  2.3892891498  1.9202786552
H   -3.1220349224  4.6636158843 -1.5365017778
H    4.1650759161 -2.6138116974  2.1443663931
H    3.0254645561 -4.4761637190 -1.5265964647
H   -4.4866622119 -2.5183161574  1.5204102748
H   -2.6919616678 -4.6585441352 -1.7043324099
H    2.9552467868  4.2808100993  1.6694298684
H    4.1940897555  2.9325169733 -2.1828562829
Cl  -0.0066738749  0.0379059609  2.3790028780
78
aligned d3map frame 35
N    0.0070546758  2.0596707090 -0.1860612151
N    2.0125117732  0.0349993185 -0.0990757260
C   -2.4340076397  2.3965964479 -0.3020246024
C   -1.0950611822  2.8290169717 -0.4360829282
C   -0.6978782855  4.1243844420 -0.8339531961
H   -1.3572666578  4.9179673649 -1.1261897162
C    0.6783944252  4.1424267939 -0.8002899488
H    1.3232471148  4.9583242292 -1.0638915408
C    1.0901814938  2.8599298767 -0.3751171347
C    2.4447565786  2.4570480925 -0.1923866031
C    2.8289460844  1.1308299860 -0.0085843419
C    4.1815650332  0.7033821580  0.2101413694
H    5.0140666036  1.3548237326  0.3890339848
C    4.1811468061 -0.6511273805  0.1631786511
H    5.0134877280 -1.3162440345  0.2819851407
C    2.8261379468 -1.0624935142 -0.0514726136
C    3.4849310766  3.4851041712 -0.2821184024
C    3.4042669926  4.6594743678  0.4685559315
C    4.3943712940  5.6189649837  0.3812438756
C    5.4821892791  5.4295879518 -0.4569054246
H    6.2564000699  6.1795954371 -0.5200785151
C    5.5675636388  4.2745438304 -1.2167342407
C    4.5780268085  3.3137549424 -1.1354436797
N   -0.0036151489 -2.0441749337 -0.1225642524
N   -2.0142167406 -0.0249453638 -0.1173148990
C    2.4358600548 -2.3883998988 -0.2087928652
C    1.0994266138 -2.8238701213 -0.3246551667
C    0.7033583674 -4.1376213020 -0.6672892742
H    1.3692805024 -4.9419348096 -0.9113583915
C   -0.6712508507 -4.1518617160 -0.6469319400
H   -1.3184563410 -4.9723073310 -0.8903132433
C   -1.0868298267 -2.8501495400 -0.2779941822
C   -2.4406020728 -2.4463873381 -0.0889351488
C   -2.8287179022 -1.1128272398  0.0343654411
C   -4.1746070989 -0.6718256651  0.2725394818
H   -5.0048582918 -1.3068979071  0.5060980467
C   -4.1730850079  0.6806217046  0.1796090718
H   -4.9993063688  1.3543889113  0.3003336895
C   -2.8237506262  1.0804554950 -0.0838247092
C   -3.4613757413 -3.4948211154 -0.0602367218
C   -3.2968095215 -4.6283592871  0.7407077352
C   -4.2569727893 -5.6208757184  0.7681814584
C   -5.4061390578 -5.5070162902  0.0035214593
H   -6.1578532658 -6.2820057288  0.0299724373
C   -5.5814259003 -4.3892881386 -0.7989756638
C   -4.6193318971 -3.3998889699 -0.8381221188
Fe  -0.0021062469  0.0121789949  0.2392066053
C    3.4990130680 -3.4053623171 -0.2891850017
C    3.6110086282 -4.4008111576  0.6792022572
C    4.4204521155 -3.3656142709 -1.3331309088
C    4.6418141573 -5.3202872251  0.6153529863
C    5.4369546259 -4.3003926036 -1.4052006068
H    4.7371633176 -6.0767860709  1.3813283852
C    5.5561667925 -5.2727829607 -0.4250710938
H    6.1392781322 -4.2662839596 -2.2259473019
H    6.3610381878 -5.9927530201 -0.4689926287
C   -3.4879683128  3.4123549724 -0.4701879582
C   -3.5836985941  4.5139148912  0.3758372260
C   -4.3936140738  3.2838543785 -1.5227805338
C   -4.5650096092  5.4667248846  0.1674934293
C   -5.3624046388  4.2463600896 -1.7373398282
H   -4.6401319675  6.3152370652  0.8322719558
C   -5.4493314583  5.3410174793 -0.8924981066
H   -6.0473181289  4.1426483607 -2.5670887795
H   -6.2049997833  6.0943683570 -1.0597106241
H    4.3209828084  6.5204306737  0.9713878393
H    6.4074633981  4.1219685731 -1.8791725735
H   -4.1105984989 -6.4894025930  1.3931172423
H   -6.4713101080 -4.2915688030 -1.4028956640
H   -2.8986109145  4.6051379631  1.2083769432
H   -4.3120107311  2.4333577974 -2.1855461401
H    2.8987773973 -4.4290593181  1.4904768881
H    4.3215327188 -2.6039372636 -2.0930284899
H   -2.4176551681 -4.7110123480  1.3631978436
H   -4.7431174199 -2.5526899335 -1.4974832513
H    2.5711116666  4.7995187046  1.1406055740
H    4.6315859570  2.4304777757 -1.7550351623
Cl  -0.0049605037  0.0189934644  2.3783674228
78
aligned d3map frame 36
N   -0.0342100661  2.0631853197 -0.1796336483
N    2.0135719908  0.0142554959 -0.0840893532
C   -2.4403702426  2.4632920465 -0.0698050079
C   -1.1155843923  2.8832645492 -0.0188856132
C   -0.6688786901  4.2406205746  0.1297125603
H   -1.3017396836  5.0802066507  0.3401072216
C    0.6775067030  4.2332386655 -0.0265043029
H    1.3581434898  5.0605971615  0.0186576577
C    1.0679891518  2.8645237951 -0.2156686464
C    2.3846426073  2.4472276744 -0.3788900883
C    2.8101581997  1.1002288016 -0.3365456565
C    4.1428057107  0.6818940569 -0.5548329371
H    4.9627930568  1.3284108210 -0.7966481281
C    4.1575546247 -0.6854016677 -0.4169928757
H    4.9954896792 -1.3444437346 -0.5293114004
C    2.8312481262 -1.0797639792 -0.1286980720
C    3.3806654092  3.4862966937 -0.7014863209
C    4.4610918266  3.7827504609  0.1242765120
C    5.3642826717  4.7675765620 -0.2398535760
C    5.2131945649  5.4530371187 -1.4347284968
H    5.9238058497  6.2153208254 -1.7184189470
C    4.1424800743  5.1585871744 -2.2672557107
C    3.2282250011  4.1916764526 -1.8974723791
N    0.0079273173 -2.0484983120 -0.1141478380
N   -2.0121656921  0.0080145975 -0.1085232133
C    2.4265862374 -2.4320698816  0.0110843877
C    1.1017698458 -2.8496451205  0.0527931381
C    0.6805194597 -4.2081908663  0.2438184268
H    1.3367149166 -5.0333300493  0.4402115202
C   -0.6714825915 -4.2166290609  0.1624776497
H   -1.3304790467 -5.0538047778  0.2781254494
C   -1.0867586951 -2.8640537733 -0.0789146693
C   -2.4055764945 -2.4455076797 -0.2358338189
C   -2.7958464808 -1.0863820587 -0.3598580612
C   -4.0901280244 -0.6745960724 -0.7410534187
H   -4.8882350724 -1.3203373675 -1.0496286482
C   -4.1039195022  0.7014638810 -0.6763122445
H   -4.9160725981  1.3578386815 -0.9210282343
C   -2.8171026304  1.1012424362 -0.2600222606
C   -3.4726512943 -3.4516758165 -0.2312063041
C   -4.5486032811 -3.3157371895  0.6480242026
C   -5.5491371695 -4.2655470600  0.6896235812
C   -5.5034741750 -5.3644349848 -0.1535791186
H   -6.2906844349 -6.1042300341 -0.1182252344
C   -4.4483147813 -5.5034713934 -1.0407424627
C   -3.4418067209 -4.5583935811 -1.0811537984
Fe  -0.0021062469  0.0121789949  0.2392066053
C    3.4694939284 -3.4711719354 -0.0212095408
C    3.4499879861 -4.4186104922 -1.0469254145
C    4.4833781605 -3.5317765392  0.9314556097
C    4.4229811617 -5.3946878916 -1.1209870603
C    5.4419818083 -4.5268494993  0.8666998561
H    4.4035099854 -6.1106384720 -1.9299852935
C    5.4201217570 -5.4562767388 -0.1598379249
H    6.2148928313 -4.5798419630  1.6204260111
H    6.1776195497 -6.2235695144 -0.2126959572
C   -3.5236621364  3.4452877218  0.0133186093
C   -3.5314526137  4.6005328744 -0.7737445976
C   -4.5921405650  3.2287462419  0.8895987987
C   -4.5630850061  5.5139820312 -0.6724877602
C   -5.6224958394  4.1419696103  0.9854370215
H   -4.5578814653  6.4057406646 -1.2853095367
C   -5.6095931919  5.2926104856  0.2080946836
H   -6.4392229300  3.9613442533  1.6699306209
H   -6.4180129200  6.0048842571  0.2871231376
H    6.1954839472  5.0068356142  0.4106734390
H    4.0240847961  5.6864332866 -3.2037903982
H   -6.3692353077 -4.1511775922  1.3823052678
H   -4.4150720824 -6.3529047194 -1.7074809365
H   -2.7376112652  4.7617059816 -1.4889317872
H   -4.5915109217  2.3431400067  1.5093275492
H    2.6737345658 -4.3592012865 -1.7957501264
H    4.4989380560 -2.8116637615  1.7355211987
H   -4.5759843792 -2.4672885855  1.3166111592
H   -2.6342790210 -4.6569377628 -1.7931607600
H    4.5770521971  3.2553895229  1.0614637289
H    2.3905929734  3.9587513409 -2.5410427309
Cl  -0.0196378302  0.0340817069  2.3787028130
78
aligned d3map frame 37
N   -0.0139883569  2.0671805190 -0.1638283063
N    2.0144010328  0.0198042658 -0.0764158788
C   -2.4392542402  2.4408797679 -0.1831128609
C   -1.1180071718  2.8734210233 -0.1787096751
C   -0.7088101244  4.2477924126 -0.2101133561
H   -1.3708184758  5.0903446931 -0.2471248424
C    0.6463125819  4.2583402183 -0.1733845971
H    1.2929986933  5.1127545868 -0.1458187180
C    1.0764931642  2.8885172972 -0.1685335418
C    2.4061385190  2.4739948647 -0.1678856998
C    2.8214081540  1.1180595054 -0.1876869441
C    4.1603788340  0.7158374761 -0.3910649225
H    4.9951658308  1.3684094661 -0.5528564662
C    4.1673389666 -0.6587748665 -0.3796101835
H    5.0095515315 -1.3043335077 -0.5294855173
C    2.8324521110 -1.0720641386 -0.1700458354
C    3.4610946778  3.4970235840 -0.1474071662
C    4.4118181771  3.4940290932  0.8740383083
C    5.3943517508  4.4642492928  0.9232128757
C    5.4496473318  5.4501284420 -0.0486126786
H    6.2174625070  6.2063563383 -0.0083742689
C    4.5195624285  5.4544908211 -1.0757056099
C    3.5338389038  4.4868616985 -1.1269642006
N    0.0090978635 -2.0515162451 -0.0995332993
N   -2.0160469661 -0.0058972910 -0.0967826641
C    2.4328112096 -2.4322436163 -0.1351165558
C    1.1097218077 -2.8619794644 -0.1292973604
C    0.6946782610 -4.2351942829 -0.1328114638
H    1.3539105531 -5.0810581459 -0.1353211372
C   -0.6609861270 -4.2399868479 -0.1295994174
H   -1.3142588781 -5.0894016822 -0.1573240810
C   -1.0836671703 -2.8687766725 -0.0826834377
C   -2.4125768725 -2.4554589198 -0.0538906335
C   -2.8318683768 -1.1027977480 -0.0409288055
C   -4.1851423431 -0.6982254233  0.0355885629
H   -5.0291857850 -1.3521736388  0.1305385635
C   -4.1913042599  0.6752252910 -0.0081950556
H   -5.0419576171  1.3249635733  0.0475805793
C   -2.8416223793  1.0852008503 -0.1064578741
C   -3.4614063299 -3.4887075776 -0.0758083912
C   -3.5537409582 -4.4388739829  0.9396338266
C   -4.5300106866 -5.4177053470  0.8958981777
C   -5.4225318674 -5.4696670154 -0.1622039347
H   -6.1773395246 -6.2417792341 -0.1977831441
C   -5.3411158881 -4.5261897223 -1.1737620868
C   -4.3735590591 -3.5398638308 -1.1288750806
Fe  -0.0021062469  0.0121789949  0.2392066053
C    3.5087438708 -3.4342467037 -0.1001927516
C    3.6309272663 -4.4145523597 -1.0841172390
C    4.4430354585 -3.4038692352  0.9364246809
C    4.6586319374 -5.3378463254 -1.0310922277
C    5.4632996810 -4.3330163751  0.9901794088
H    4.7480680428 -6.0852375876 -1.8069328319
C    5.5757027455 -5.3026711275  0.0062449845
H    6.1775035093 -4.2975414180  1.8001623040
H    6.3850653153 -6.0192626460  0.0413294137
C   -3.5065901404  3.4468869866 -0.3206691688
C   -4.3455981428  3.4060513820 -1.4335654976
C   -3.6926786826  4.4547632828  0.6223588135
C   -5.3380431141  4.3542875202 -1.6019533347
C   -4.6944189955  5.3948546254  0.4554394655
H   -5.9738365847  4.3137145889 -2.4749208347
C   -5.5166736034  5.3517329724 -0.6589165925
H   -4.8353231852  6.1621236739  1.1986058611
H   -6.2890430255  6.0912797715 -0.7945259589
H    6.1173324501  4.4521731285  1.7248361325
H    4.5625316901  6.2139284240 -1.8414690084
H   -4.5909237290 -6.1492982934  1.6873171592
H   -6.0320010916 -4.5596884459 -2.0036269786
H   -4.1982015069  2.6350894832 -2.1718056013
H   -3.0659818601  4.4774177566  1.5024727184
H    2.9315359748 -4.4279699860 -1.9076727271
H    4.3490160675 -2.6515874703  1.7055077920
H   -2.8647110245 -4.3923830955  1.7707626467
H   -4.3037135312 -2.8121588526 -1.9236537885
H    4.3573948714  2.7339957623  1.6396014812
H    2.8277601079  4.4788338587 -1.9443568035
Cl  -0.0064160432  0.0537645946  2.3790138220
78
aligned d3map frame 38
N   -0.0177686531  2.0661433346 -0.1718269459
N    2.0153432862  0.0206664772 -0.0633319241
C   -2.4322002514  2.4516934079 -0.0656402138
C   -1.1119310585  2.8829827906 -0.1177052322
C   -0.6885748597  4.2553921751 -0.1318222622
H   -1.3386496666  5.1063313253 -0.0852073817
C    0.6626939885  4.2512736708 -0.2235813677
H    1.3218351408  5.0939324560 -0.2905729609
C    1.0809374118  2.8763085164 -0.2121074172
C    2.4066352509  2.4624176254 -0.2440291955
C    2.8307531570  1.1097381393 -0.1972495185
C    4.1844506671  0.7021533785 -0.2075317202
H    5.0344514458  1.3506754275 -0.2829218349
C    4.1872468914 -0.6667393518 -0.0809401366
H    5.0366519947 -1.3211098007 -0.0712912794
C    2.8368049631 -1.0690589725  0.0176176019
C    3.4555928008  3.4977482840 -0.2697203090
C    3.5821004280  4.3907235043  0.7933414652
C    4.5703434211  5.3572083494  0.7831077753
C    5.4396423468  5.4533048818 -0.2914431480
H    6.2094958905  6.2106107455 -0.2992778567
C    5.3182025469  4.5737140588 -1.3548667044
C    4.3373386655  3.5989737536 -1.3435878816
N    0.0072031135 -2.0510953952 -0.1071583761
N   -2.0154271813 -0.0031065035 -0.0845971178
C    2.4219687401 -2.4180791915  0.1485308028
C    1.1016809147 -2.8473549989  0.0878159208
C    0.6826297017 -4.2052247920  0.2883798254
H    1.3363825666 -5.0307886255  0.4903176433
C   -0.6692020682 -4.2169958642  0.2105481102
H   -1.3264871448 -5.0527913045  0.3458696074
C   -1.0885646171 -2.8656522070 -0.0423379957
C   -2.4145352367 -2.4552575066 -0.1350183510
C   -2.8191226013 -1.0963649803 -0.2474651944
C   -4.1442428068 -0.6865889499 -0.5070911981
H   -4.9698428606 -1.3338216991 -0.7288095306
C   -4.1518720291  0.6894770705 -0.4513778584
H   -4.9837479622  1.3473849075 -0.6095193190
C   -2.8277689328  1.0910560503 -0.1736895298
C   -3.4744858397 -3.4640836378 -0.0248752018
C   -4.4715029261 -3.3148424922  0.9420626795
C   -5.4515412357 -4.2753593529  1.0967052380
C   -5.4626121159 -5.3991128798  0.2857488149
H   -6.2268696581 -6.1517230261  0.4105807953
C   -4.4881318806 -5.5506818755 -0.6872893408
C   -3.5020574238 -4.5941039809 -0.8430522099
Fe  -0.0021062469  0.0121789949  0.2392066053
C    3.4710569693 -3.4205580808  0.3914309251
C    4.2711419958 -3.3205332242  1.5292307922
C    3.6763461997 -4.4836958730 -0.4853727555
C    5.2392337088 -4.2706270536  1.7908644096
C    4.6578794780 -5.4233989989 -0.2287034780
H    5.8412073841 -4.1920263109  2.6842179000
C    5.4372772838 -5.3239903462  0.9120505558
H    4.8150165302 -6.2374669762 -0.9213082140
H    6.1969098333 -6.0640553071  1.1151391273
C   -3.5098746166  3.4252327501  0.1635350006
C   -4.3267453157  3.2473572685  1.2826774105
C   -3.7447715388  4.5185936577 -0.6687381555
C   -5.3270669606  4.1529514521  1.5779555647
C   -4.7542061889  5.4180980211 -0.3747581421
H   -5.9395069456  4.0069544137  2.4563143743
C   -5.5419539960  5.2451194119  0.7518686171
H   -4.9291372898  6.2599637349 -1.0298469982
H   -6.3236930672  5.9541390394  0.9837956849
H    4.6631888516  6.0371176964  1.6175766666
H    5.9913798075  4.6474452027 -2.1969591266
H   -6.2085880374 -4.1485917524  1.8573823054
H   -4.4961874091 -6.4209509942 -1.3280671100
H   -4.1482281291  2.4007428848  1.9300509500
H   -3.1516963476  4.6442306112 -1.5637345451
H    4.1070510950 -2.5032231686  2.2162218439
H    3.0739450346 -4.5557451187 -1.3794218082
H   -4.4502098821 -2.4503557876  1.5888006262
H   -2.7568660128 -4.7064437894 -1.6175271050
H    2.9108121168  4.3045223793  1.6357477235
H    4.2366866856  2.9187697783 -2.1772672249
Cl  -0.0090026758  0.0325348677  2.3791808743
78
aligned d3map frame 39
N   -0.0077305957  2.0641089303 -0.1740629646
N    2.0072348508  0.0216789806 -0.1143035772
C   -2.4248904049  2.4497263053 -0.0717238460
C   -1.1025552440  2.8617657611  0.0192030179
C   -0.6720936811  4.2071383254  0.2859700343
H   -1.3226092465  5.0218920355  0.5365212939
C    0.6797518160  4.2148006482  0.1989071034
H    1.3484210005  5.0368650960  0.3702781616
C    1.0875614938  2.8735830943 -0.1154497126
C    2.3991577788  2.4632507448 -0.3492997916
C    2.7797272875  1.0988170439 -0.4644842517
C    4.0496036529  0.6565267844 -0.8910610161
H    4.8322255782  1.2709403235 -1.2886071707
C    4.0679490356 -0.7126095830 -0.7340685103
H    4.8709974612 -1.3833213326 -0.9669412929
C    2.8014435891 -1.0795301886 -0.2397268141
C    3.4492408204  3.4690897811 -0.5172003699
C    4.6803376519  3.3430848966  0.1353919444
C    5.7002759661  4.2453526216 -0.0944673318
C    5.5118133621  5.3002612303 -0.9742302103
H    6.3168074761  5.9947418674 -1.1719051981
C    4.2860471183  5.4562918583 -1.6022270559
C    3.2645058066  4.5533698848 -1.3779337545
N    0.0234441896 -2.0493596841 -0.1079113142
N   -2.0084483203  0.0043687372 -0.1306353426
C    2.4263376420 -2.4285972662  0.0409013638
C    1.1086384395 -2.8533704488  0.1006831012
C    0.6698340544 -4.2086224319  0.3075875046
H    1.3136993955 -5.0304372469  0.5487296066
C   -0.6754932413 -4.2147445180  0.1548921564
H   -1.3481329258 -5.0461031439  0.2284508939
C   -1.0762158156 -2.8574124830 -0.0974617713
C   -2.3871010004 -2.4416833817 -0.2761109174
C   -2.7995523434 -1.0913872481 -0.3538456761
C   -4.1179599962 -0.6858288777 -0.6525450802
H   -4.9323859801 -1.3418366864 -0.8902801461
C   -4.1312582060  0.6894202032 -0.5870905251
H   -4.9586108017  1.3433430657 -0.7773545597
C   -2.8222681768  1.0933442995 -0.2474138981
C   -3.4239832598 -3.4884062771 -0.4019662432
C   -4.3026290526 -3.7614808750  0.6403973406
C   -5.2342637034 -4.7764260789  0.5156435917
C   -5.3092050333 -5.5188403084 -0.6505190709
H   -6.0313160972 -6.3159107547 -0.7381090229
C   -4.4534456912 -5.2352487894 -1.7022530271
C   -3.5132683456 -4.2300526545 -1.5761813808
Fe  -0.0021062469  0.0121789949  0.2392066053
C    3.5321044811 -3.3806850408  0.1806030587
C    4.5590657699 -3.1159982500  1.0894438701
C    3.6166679642 -4.5263399802 -0.6090946300
C    5.6344451376 -3.9734294323  1.2052344634
C    4.7040237176 -5.3744773257 -0.5014113170
H    6.4152410027 -3.7566181915  1.9202213448
C    5.7165754921 -5.1018879193  0.4021835630
H    4.7629558732 -6.2483330677 -1.1345847091
H    6.5687996721 -5.7596157272  0.4795311413
C   -3.4769313099  3.4745459853 -0.0540565388
C   -4.5347198826  3.4105778619  0.8519863714
C   -3.4310874391  4.5348590366 -0.9602115149
C   -5.5073340303  4.3926590012  0.8615434259
C   -4.4140500202  5.5056715305 -0.9564688430
H   -6.3157459571  4.3399454817  1.5768271264
C   -5.4508281863  5.4429297161 -0.0401410920
H   -4.3693003817  6.3123790607 -1.6748165892
H   -6.2116457352  6.2103937720 -0.0330937369
H    6.6476365269  4.1235206822  0.4099228241
H    4.1311583925  6.2808124046 -2.2822628094
H   -5.9039148604 -4.9905826871  1.3350299720
H   -4.5169842542 -5.8006539362 -2.6207858683
H   -4.5709806778  2.5972019670  1.5611707187
H   -2.6305274764  4.5745191217 -1.6835452125
H    4.4942879420 -2.2374499183  1.7147134632
H    2.8426022602 -4.7249812942 -1.3351314454
H   -4.2423630288 -3.1873003752  1.5528238502
H   -2.8451271733 -4.0005296507 -2.3884430144
H    4.8183675650  2.5341146782  0.8377781072
H    2.3245968339  4.6621516475 -1.9007004544
Cl  -0.0283516575  0.0677432151  2.3756806871
78
aligned d3map frame 40
N   -0.0293178753  2.0630880222 -0.1691296682
N    2.0125955294  0.0117221127 -0.0916179596
C   -2.4596560657  2.4305680524 -0.1283331543
C   -1.1325764693  2.8533726581 -0.3004219830
C   -0.7338963318  4.1734334033 -0.6705859165
H   -1.3979417100  4.9871764248 -0.8861652139
C    0.6273295565  4.1752747845 -0.7280880126
H    1.2723790813  4.9894090809 -0.9945623217
C    1.0599192768  2.8554309189 -0.3936645415
C    2.3957577442  2.4482202959 -0.3150665170
C    2.8152950104  1.1162932191 -0.1019431071
C    4.1636965277  0.7350275814  0.1338088908
H    4.9964040845  1.4056949169  0.2139900253
C    4.1749442990 -0.6271869476  0.2647709668
H    5.0205935556 -1.2516557033  0.4750348698
C    2.8357056662 -1.0683520996  0.0916222810
C    3.4435301605  3.4673256235 -0.4683221576
C    3.4827172397  4.5855651482  0.3636311890
C    4.4815517063  5.5302097818  0.2190346724
C    5.4480121714  5.3816721996 -0.7624251329
H    6.2256872343  6.1226646173 -0.8728789510
C    5.4128155778  4.2780605787 -1.5995320642
C    4.4232183544  3.3255257667 -1.4515680755
N    0.0085293087 -2.0475449032 -0.1049357794
N   -2.0117756920  0.0011252879 -0.1149918755
C    2.4395040708 -2.4172542474  0.0367522726
C    1.1154990854 -2.8392586035 -0.1584179473
C    0.7389833759 -4.1672951374 -0.5211018157
H    1.4165090935 -4.9851718655 -0.6708709000
C   -0.6141788610 -4.1661067910 -0.6809244666
H   -1.2355052590 -4.9819198086 -0.9941025497
C   -1.0671814221 -2.8444574315 -0.3787945134
C   -2.4037058484 -2.4346321627 -0.3335493025
C   -2.8099102002 -1.1042930747 -0.0683174130
C   -4.1433821078 -0.7259010196  0.2336886548
H   -4.9626533670 -1.3995555088  0.3915903204
C   -4.1576007723  0.6420322400  0.3183690007
H   -4.9914433306  1.2716099640  0.5590984322
C   -2.8352455894  1.0835969684  0.0523293456
C   -3.4619988405 -3.4055698353 -0.6257526563
C   -3.5405240367 -4.6433201622  0.0134307803
C   -4.5347553211 -5.5435716390 -0.3201539019
C   -5.4664000493 -5.2306573677 -1.2967257934
H   -6.2360657268 -5.9402923263 -1.5617574627
C   -5.4061339642 -3.9996967451 -1.9302041726
C   -4.4191060634 -3.0942924647 -1.5955044316
Fe  -0.0021062469  0.0121789949  0.2392066053
C    3.4728217451 -3.4574252305  0.1287827639
C    3.3682351045 -4.4578875499  1.0954600701
C    4.5621631193 -3.4779515111 -0.7413313483
C    4.3364195125 -5.4381715642  1.1996324593
C    5.5240080664 -4.4655321680 -0.6388880422
H    4.2494400872 -6.2002241223  1.9599688291
C    5.4186112934 -5.4453821898  0.3342857247
H    6.3591028221 -4.4710521717 -1.3253717605
H    6.1739395377 -6.2126533598  0.4165316015
C   -3.5350233732  3.4210790025 -0.2476311707
C   -3.5430307666  4.5954530949  0.5056844010
C   -4.5787510953  3.2022187735 -1.1495260712
C   -4.5650352517  5.5150621887  0.3621063314
C   -5.5955325133  4.1254914987 -1.2942152547
H   -4.5623489043  6.4167326850  0.9568572971
C   -5.5937339043  5.2860599194 -0.5376833777
H   -6.3897893033  3.9391993528 -2.0020865527
H   -6.3889706812  6.0081139277 -0.6488505944
H    4.5093921631  6.3862333520  0.8777457357
H    6.1604227881  4.1589047062 -2.3699981572
H   -4.5817425663 -6.5002258179  0.1848419581
H   -6.1305479280 -3.7467481172 -2.6899293003
H   -2.7563099983  4.7694291048  1.2250506073
H   -4.5707211871  2.3086405130 -1.7562045424
H    2.5323329631 -4.4439546561  1.7790184177
H    4.6358380313 -2.7289360320 -1.5160451845
H   -2.8334230737 -4.8819687198  0.7950078571
H   -4.3639953351 -2.1410814809 -2.1018900836
H    2.7394835029  4.6913851890  1.1398294789
H    4.3864000254  2.4702889910 -2.1105004305
Cl  -0.0056498021  0.0475893411  2.3791929204
78
aligned d3map frame 41
N    0.0016241452  2.0559938189 -0.1729239290
N    2.0072389892  0.0335583834 -0.1265132072
C   -2.4122943613  2.3989446504 -0.4925099021
C   -1.0639733305  2.8271987370 -0.5323718461
C   -0.6146872242  4.1340897582 -0.8394789720
H   -1.2247760303  4.9375836287 -1.2027430888
C    0.7414050958  4.1522825407 -0.6027092196
H    1.4166341348  4.9735216719 -0.7355686003
C    1.0970195332  2.8529402783 -0.1746449929
C    2.4199948501  2.4338224276  0.1715985358
C    2.8163729677  1.1017502976  0.1807090396
C    4.1551986675  0.6288989578  0.4048059177
H    4.9759833591  1.2283140217  0.7445364735
C    4.1601978666 -0.6982262639  0.1285009808
H    4.9865347109 -1.3802716347  0.1778764792
C    2.8107748062 -1.0686542528 -0.1921876543
C    3.3697755858  3.5027056057  0.4876065572
C    2.9966437143  4.4849446951  1.4092204842
C    3.8608999934  5.5098891551  1.7400218258
C    5.1142514817  5.5799140234  1.1535033061
H    5.7906013843  6.3818990456  1.4091046544
C    5.4917178281  4.6201427641  0.2285454700
C    4.6288876034  3.5932090070 -0.1068862307
N    0.0028300665 -2.0413944718 -0.1081200555
N   -2.0084159345 -0.0141804555 -0.1446254090
C    2.4136899415 -2.3825533016 -0.4384936123
C    1.0718517877 -2.8221917547 -0.4392867594
C    0.6322527525 -4.1429010975 -0.6935830975
H    1.2531867388 -4.9586590132 -1.0090049109
C   -0.7258430718 -4.1567660523 -0.4684637251
H   -1.3983362054 -4.9855528193 -0.5749514391
C   -1.0902852864 -2.8433892961 -0.0964029874
C   -2.4189813098 -2.4110196514  0.2038486624
C   -2.8189410520 -1.0815908640  0.1610785701
C   -4.1622474199 -0.6131347266  0.3561794701
H   -4.9899069717 -1.2165131256  0.6718297245
C   -4.1639051970  0.7155196456  0.0861725621
H   -4.9939315105  1.3936467212  0.1300233035
C   -2.8131925935  1.0878333833 -0.2241249998
C   -3.3766535390 -3.4719541636  0.5314898480
C   -3.0385768252 -4.3932488271  1.5279055125
C   -3.9091843517 -5.4066738819  1.8737236242
C   -5.1283776164 -5.5299152997  1.2252025835
H   -5.8059162989 -6.3265629744  1.4931074443
C   -5.4684494153 -4.6321585927  0.2264583268
C   -4.6014326009 -3.6117496487 -0.1191543775
Fe  -0.0021062469  0.0121789949  0.2392066053
C    3.4627027586 -3.3922220823 -0.6606871738
C    4.3104121922 -3.2847818481 -1.7613293117
C    3.6207983700 -4.4669986838  0.2114721357
C    5.2833578046 -4.2392447672 -1.9935147128
C    4.6110516358 -5.4056764883 -0.0114023000
H    5.9203362358 -4.1541573563 -2.8619364639
C    5.4402848955 -5.3001225099 -1.1163679800
H    4.7366344694 -6.2261525998  0.6808460134
H    6.2054394802 -6.0416829131 -1.2914280483
C   -3.4488575228  3.4244225151 -0.6705661244
C   -4.4371290916  3.2777002742 -1.6439981318
C   -3.4577038139  4.5686004371  0.1264788694
C   -5.3965781973  4.2562335737 -1.8232679851
C   -4.4268948454  5.5385544319 -0.0475619062
H   -6.1484159436  4.1359303604 -2.5900002994
C   -5.3958558979  5.3898726323 -1.0259053287
H   -4.4239037261  6.4149005340  0.5843362178
H   -6.1481629513  6.1517480327 -1.1664612062
H    3.5530147401  6.2567914554  2.4572152699
H    6.4636405927  4.6759898739 -0.2403088965
H   -3.6364260526 -6.1050976782  2.6519256899
H   -6.4123631192 -4.7317624071 -0.2894533157
H   -4.4320460015  2.4003792439 -2.2745052858
H   -2.7115373873  4.6789691764  0.8991939631
H    4.1840385804 -2.4572371400 -2.4446067995
H    2.9773373373 -4.5484011805  1.0748363202
H   -2.0937316872 -4.2863744271  2.0395892089
H   -4.8563370884 -2.9382042178 -0.9246312466
H    2.0276105461  4.4200114487  1.8807870810
H    4.9156864255  2.8750497318 -0.8618003186
Cl  -0.0099223582  0.0643722847  2.3792650764
78
aligned d3map frame 42
N   -0.0225236142  2.0606146880 -0.1628513951
N    2.0133743986  0.0085605043 -0.1068382472
C   -2.4567140887  2.4181557633 -0.0090724249
C   -1.1213895237  2.8548118556 -0.2259735801
C   -0.7398643864  4.1780050431 -0.5468614738
H   -1.4116380197  5.0000063225 -0.6938969833
C    0.6321100494  4.1777823874 -0.6514208627
H    1.2709507056  5.0036327139 -0.8956623113
C    1.0603695478  2.8568934566 -0.3863270083
C    2.4073713205  2.4357260271 -0.3009931998
C    2.8175678174  1.1140923057 -0.1320800447
C    4.1746463537  0.7323961803  0.1281889492
H    5.0040581911  1.4098266203  0.1796974960
C    4.1791528409 -0.6091312677  0.3249970208
H    5.0126116901 -1.2352204985  0.5726632948
C    2.8323693721 -1.0657846319  0.1461003986
C    3.4335553106  3.4926908941 -0.2850639143
C    3.4264475480  4.4278423267  0.7497782318
C    4.3946968415  5.4103300445  0.8147079875
C    5.3707996356  5.4917839273 -0.1674158528
H    6.1247687983  6.2638682020 -0.1187371853
C    5.3761199783  4.5778069245 -1.2075146420
C    4.4204979310  3.5778192920 -1.2640688520
N    0.0135914818 -2.0435311569 -0.0996223806
N   -2.0142803519 -0.0037474725 -0.1281450377
C    2.4380166957 -2.3962774234  0.1787524132
C    1.1151092671 -2.8360102625 -0.1000345716
C    0.7549844747 -4.1654576342 -0.4171836075
H    1.4351350541 -4.9873071858 -0.5255420884
C   -0.6101008059 -4.1713780684 -0.5878893976
H   -1.2321684222 -5.0007228559 -0.8622934531
C   -1.0585439351 -2.8497272127 -0.3459022470
C   -2.4087452518 -2.4371783525 -0.2744946252
C   -2.8170448548 -1.1108195603 -0.1116156573
C   -4.1735593454 -0.7167941350  0.1314639603
H   -4.9993452879 -1.3885919208  0.2479807422
C   -4.1845595177  0.6348311117  0.2395209177
H   -5.0228715543  1.2672857332  0.4535507103
C   -2.8384401483  1.0830017450  0.0436966747
C   -3.4335643290 -3.4902490307 -0.2767104492
C   -3.3587725057 -4.5335594706  0.6470125343
C   -4.3297647626 -5.5157732570  0.6774547836
C   -5.3852631744 -5.4808619423 -0.2192086533
H   -6.1456891963 -6.2467299960 -0.1942965270
C   -5.4619713593 -4.4564023978 -1.1492236854
C   -4.4982983061 -3.4662205085 -1.1772221519
Fe  -0.0021062469  0.0121789949  0.2392066053
C    3.3957775415 -3.4440808930  0.5658381115
C    3.0909098210 -4.2206149843  1.6856534594
C    4.5784918473 -3.6961309380 -0.1250756140
C    3.9601560773 -5.2020865189  2.1212309233
C    5.4361793583 -4.6947739729  0.3024861069
H    3.7198372789 -5.7805853258  3.0021921085
C    5.1356441447 -5.4443024770  1.4287505324
H    6.3453398204 -4.8907026770 -0.2476314135
H    5.8116172483 -6.2169450166  1.7642522576
C   -3.4735848888  3.4684821862  0.1456551974
C   -3.3222276837  4.4273266701  1.1483870882
C   -4.5822875989  3.5485163582 -0.6966400698
C   -4.2620926922  5.4263642204  1.3138484178
C   -5.5121656672  4.5601523409 -0.5392090902
H   -4.1408600026  6.1537390590  2.1029552323
C   -5.3578325767  5.4992445495  0.4670956191
H   -6.3592163909  4.6193486677 -1.2081449130
H   -6.0856341791  6.2877824178  0.5914615501
H    4.3892539038  6.1145846964  1.6347433142
H    6.1295341397  4.6437479766 -1.9803016879
H   -4.2646707802 -6.3098291195  1.4070107737
H   -6.2793143788 -4.4281683114 -1.8544128319
H   -2.4709069485  4.3653372691  1.8105800722
H   -4.6943997195  2.8268526218 -1.4926943556
H    2.1752463947 -4.0245511504  2.2250623684
H    4.8096169547 -3.1266325196 -1.0144710075
H   -2.5456273365 -4.5509865483  1.3564658507
H   -4.5501085494 -2.6772512703 -1.9125694113
H    2.6670714377  4.3539357836  1.5155918438
H    4.4236072330  2.8702217662 -2.0794228047
Cl   0.0103247819  0.0308518319  2.3797365380
78
aligned d3map frame 43
N   -0.0196481064  2.0514077968 -0.2099948073
N    2.0071564124  0.0088250887 -0.1238821055
C   -2.4551514526  2.4157293904  0.0218305755
C   -1.1252680951  2.8346747728 -0.2814238591
C   -0.7785704930  4.1160072371 -0.7669595937
H   -1.4622964204  4.9178964635 -0.9602929065
C    0.5814319214  4.1054805515 -0.9766203566
H    1.1888399628  4.8966593410 -1.3666707245
C    1.0405022915  2.8211638944 -0.5957403833
C    2.3902785205  2.4077094283 -0.5487934686
C    2.7997482330  1.1171921700 -0.2037068377
C    4.1470922289  0.7680378849  0.1326778081
H    4.9625994113  1.4615252185  0.1990031816
C    4.1608227220 -0.5634097749  0.3981072895
H    4.9906018507 -1.1515034307  0.7355307313
C    2.8316355803 -1.0490935154  0.1658446411
C    3.4315794417  3.3833472488 -0.8929467171
C    3.5313678414  4.6178953037 -0.2549138915
C    4.5224046903  5.5139208731 -0.6157026910
C    5.4113151652  5.2021779776 -1.6307514908
H    6.1810070882  5.9064424898 -1.9152919782
C    5.3152033447  3.9811565317 -2.2796617693
C    4.3428384118  3.0755052647 -1.9054204700
N    0.0281339552 -2.0383810254 -0.1455505599
N   -2.0076480653  0.0086156017 -0.1418628162
C    2.4639935842 -2.3900320992  0.1040441438
C    1.1381287187 -2.8200513580 -0.1925555577
C    0.7960217282 -4.1119740260 -0.6542600109
H    1.4860819618 -4.9172049483 -0.8198173143
C   -0.5610371066 -4.1069133328 -0.8757997060
H   -1.1558577379 -4.9079496783 -1.2686629674
C   -1.0286014570 -2.8174102765 -0.5218170340
C   -2.3821509838 -2.4054858632 -0.5018445956
C   -2.7992208760 -1.0989527324 -0.2167905005
C   -4.1591238323 -0.7327561131  0.0339547659
H   -4.9854489880 -1.4133496922  0.0880075031
C   -4.1784997729  0.6082896897  0.2439865317
H   -5.0186514862  1.2239198683  0.4903581405
C   -2.8376334693  1.0803256869  0.0763432144
C   -3.4137077454 -3.3953409134 -0.8271510306
C   -3.4522243137 -4.6514550282 -0.2199947480
C   -4.4094540155 -5.5800210455 -0.5841690918
C   -5.3558219720 -5.2713334206 -1.5478282563
H   -6.0994229267 -6.0019369701 -1.8354105151
C   -5.3407825480 -4.0184829403 -2.1433866618
C   -4.3801604261 -3.0923323033 -1.7931219583
Fe  -0.0021062469  0.0121789949  0.2392066053
C    3.4950303954 -3.4205519251  0.2433146447
C    3.3014905288 -4.5081712259  1.1004623860
C    4.6859329413 -3.3497187300 -0.4819221449
C    4.2818683987 -5.4672483792  1.2536040412
C    5.6646423580 -4.3136684986 -0.3285903287
H    4.1237338075 -6.2963274420  1.9270168872
C    5.4714267204 -5.3699277711  0.5451309504
H    6.5808237018 -4.2404548937 -0.8988487206
H    6.2378345473 -6.1197249330  0.6700996857
C   -3.4404884225  3.4863343225  0.1983080034
C   -3.1715935143  4.5142652214  1.1040525896
C   -4.6290497373  3.5325079989 -0.5307975714
C   -4.0756833200  5.5401656811  1.2947872070
C   -5.5278789095  4.5661490570 -0.3442015248
H   -3.8598421049  6.3227062208  2.0074411954
C   -5.2576425627  5.5686287072  0.5723143621
H   -6.4414516029  4.5905169764 -0.9186079248
H   -5.9594455664  6.3756594489  0.7174511409
H    4.5980524244  6.4613009776 -0.1020462932
H    5.9950409176  3.7333627220 -3.0820032285
H   -4.4201222636 -6.5549786375 -0.1150297899
H   -6.0789003241 -3.7653976475 -2.8913250608
H   -2.2532671925  4.4876432382  1.6697953858
H   -4.8267957819  2.7693262705 -1.2709961748
H    2.3822224410 -4.5754610085  1.6651846135
H    4.8280764731 -2.5477102194 -1.1915837777
H   -2.7384709645 -4.8854839878  0.5562695700
H   -4.3422768062 -2.1309622000 -2.2871856378
H    2.8465937378  4.8582540772  0.5449167691
H    4.2574526404  2.1246522877 -2.4118306369
Cl  -0.0071354456  0.0375585923  2.3785719447
78
aligned d3map frame 44
N   -0.0128295994  2.0620965881 -0.1842432410
N    2.0082083247  0.0111589595 -0.0959422661
C   -2.4132579350  2.4242844274  0.1228718751
C   -1.0979249661  2.8590805352  0.0644762471
C   -0.6606561737  4.2166720134  0.2451597723
H   -1.2968978110  5.0439555408  0.4912326021
C    0.6823033276  4.2264851825  0.0658698005
H    1.3513147117  5.0603142696  0.1436050581
C    1.0829421109  2.8705511105 -0.1939120498
C    2.4032999656  2.4482747486 -0.3481101677
C    2.8058614028  1.0892985885 -0.3743630732
C    4.1283109303  0.6541602745 -0.6223371518
H    4.9506421336  1.2750613325 -0.9196416803
C    4.1410830929 -0.7087714533 -0.4273000018
H    4.9789808439 -1.3717602498 -0.5108981886
C    2.8207513176 -1.0846528107 -0.1050306051
C    3.4633482831  3.4631881772 -0.4006345311
C    4.5296852421  3.4133007741  0.4988579958
C    5.5340473181  4.3615895348  0.4561603164
C    5.4988980678  5.3724104922 -0.4923105018
H    6.2894684325  6.1084174685 -0.5299172193
C    4.4459971567  5.4321341724 -1.3904794737
C    3.4316722484  4.4923462169 -1.3424150894
N    0.0074758026 -2.0441663001 -0.1225268756
N   -2.0092524177 -0.0172390253 -0.1162769358
C    2.4058387600 -2.4156979240  0.1853415439
C    1.0881965429 -2.8362460536  0.1541133422
C    0.6635233203 -4.2051487165  0.2502998329
H    1.3104325973 -5.0325871026  0.4677067433
C   -0.6664685871 -4.2244069829 -0.0114163523
H   -1.3233486285 -5.0717577406 -0.0241282143
C   -1.0717520343 -2.8637812432 -0.2320749031
C   -2.3877669325 -2.4476932207 -0.4476237075
C   -2.8036827817 -1.0954283730 -0.4110885866
C   -4.1295611028 -0.6581906401 -0.6317933103
H   -4.9549059430 -1.2764557712 -0.9239557785
C   -4.1446518898  0.7014993982 -0.4200391446
H   -4.9815434420  1.3653922235 -0.4896945432
C   -2.8214605994  1.0751466148 -0.0990606865
C   -3.4006602039 -3.4821087956 -0.7006239375
C   -4.5376946508 -3.6042860348  0.0970750311
C   -5.4809822841 -4.5788859384 -0.1700160341
C   -5.3137786410 -5.4387308800 -1.2442831486
H   -6.0565138640 -6.1931209188 -1.4556404727
C   -4.1867755679 -5.3277904683 -2.0429330421
C   -3.2337212410 -4.3648889339 -1.7691656113
Fe  -0.0021062469  0.0121789949  0.2392066053
C    3.4520902177 -3.4069499071  0.5068140999
C    4.3010977363 -3.9139978803 -0.4723984544
C    3.5944902487 -3.8377439341  1.8223611902
C    5.2796856899 -4.8322942278 -0.1375271357
C    4.5788807386 -4.7520031914  2.1533620836
H    5.9347344410 -5.2226286477 -0.9026464868
C    5.4240467486 -5.2495816500  1.1757510423
H    4.6884307919 -5.0768214850  3.1763181071
H    6.1917016304 -5.9634784516  1.4363525431
C   -3.4876259000  3.3891856461  0.3836238928
C   -4.3650338663  3.1666083270  1.4459167789
C   -3.6727915691  4.5139997057 -0.4201944871
C   -5.3940691856  4.0522436387  1.7022342800
C   -4.7150717352  5.3888861724 -0.1703354945
H   -6.0614907015  3.8772370290  2.5327155344
C   -5.5770410268  5.1623447473  0.8903171252
H   -4.8612841398  6.2489962366 -0.8088092359
H   -6.3912315526  5.8466922308  1.0821451062
H    6.3449885203  4.3122564852  1.1671492267
H    4.4161475110  6.2127653170 -2.1367546636
H   -6.3524296257 -4.6691851281  0.4623104887
H   -4.0513644176 -5.9934399079 -2.8834068652
H   -4.2130833596  2.3016787100  2.0756924432
H   -3.0129851188  4.6759799521 -1.2595559368
H    4.1758904305 -3.5942513105 -1.4974671821
H    2.9343527815 -3.4440759902  2.5812641696
H   -4.6632958620 -2.9456535304  0.9440017284
H   -2.3605910067 -4.2730523577 -2.3979694316
H    4.5531455968  2.6320022668  1.2424856764
H    2.6212713005  4.5271908431 -2.0624761197
Cl  -0.0434685454  0.0666530892  2.3763850613
78
aligned d3map frame 45
N    0.0032666039  2.0480069455 -0.2236035040
N    2.0107215192  0.0250224264 -0.0979609460
C   -2.4362530734  2.4101086166 -0.1389870248
C   -1.1053601324  2.7937257116 -0.4769448618
C   -0.7306214015  4.0185072864 -1.0720565383
H   -1.4039966889  4.7765445686 -1.4219340721
C    0.6452533471  4.0215997899 -1.1402380928
H    1.2709475881  4.7806020280 -1.5666526166
C    1.0842360561  2.8040889613 -0.5712856226
C    2.4315944118  2.4346716111 -0.3121345828
C    2.8019750873  1.1320059510  0.0374546670
C    4.1021093451  0.7341854318  0.4941801011
H    4.8902907056  1.4037678386  0.7779692031
C    4.1104575303 -0.6224445739  0.5430718445
H    4.9089817016 -1.2650171024  0.8591025573
C    2.8125615538 -1.0645087187  0.1254300815
C    3.4761133418  3.4475237420 -0.4467000817
C    3.3096168441  4.7418214417  0.0543764890
C    4.3033019784  5.6898870813 -0.0926238455
C    5.4925018755  5.3670341500 -0.7280695467
H    6.2709727100  6.1073194270 -0.8369103534
C    5.6744642812  4.0865215435 -1.2266218320
C    4.6764775890  3.1416296179 -1.0985732868
N    0.0201739857 -2.0342416876 -0.1592641695
N   -2.0143037551 -0.0065989594 -0.1129852868
C    2.4538917411 -2.3889708491 -0.1073287826
C    1.1234052815 -2.8006027792 -0.3831427320
C    0.7342077456 -4.0680575133 -0.8722052106
H    1.3985254717 -4.8529045416 -1.1767906359
C   -0.6424432899 -4.0749244249 -0.8991092796
H   -1.2848225963 -4.8642769201 -1.2375432290
C   -1.0657712916 -2.8127334546 -0.4207855280
C   -2.4102677311 -2.4317230802 -0.1590218768
C   -2.8028282698 -1.1117797279  0.0655028958
C   -4.1108684279 -0.7007067034  0.4934205557
H   -4.9026019501 -1.3655955454  0.7724359706
C   -4.1138484718  0.6565385870  0.5159634146
H   -4.9111020911  1.3058697724  0.8185631062
C   -2.8126243286  1.0901065499  0.0944089726
C   -3.4006670567 -3.5079880434 -0.0900158805
C   -3.1283010179 -4.6533308092  0.6632757412
C   -4.0422280690 -5.6856895276  0.7341265755
C   -5.2444695694 -5.6015973614  0.0484717868
H   -5.9553484294 -6.4129106023  0.0994331014
C   -5.5265537831 -4.4723941461 -0.7035439728
C   -4.6172257972 -3.4338968754 -0.7725502677
Fe  -0.0021062469  0.0121789949  0.2392066053
C    3.5056882619 -3.4096362997 -0.1003464008
C    3.3740712951 -4.5715856729  0.6603479118
C    4.6646738515 -3.2319134482 -0.8584320230
C    4.3813800692 -5.5169834715  0.6751927460
C    5.6642680780 -4.1849552843 -0.8496375870
H    4.2751084865 -6.4056709199  1.2799959861
C    5.5290127522 -5.3284160841 -0.0789420065
H    6.5522674520 -4.0363718396 -1.4468760367
H    6.3147294272 -6.0693830628 -0.0676177802
C   -3.4231560004  3.4878930528 -0.0562258991
C   -3.1126864132  4.6574310641  0.6435375803
C   -4.6675526028  3.3988577792 -0.6837375630
C   -4.0168350129  5.6982740482  0.7153225910
C   -5.5687699491  4.4437965353 -0.6096743393
H   -3.7603219795  6.5935737143  1.2620837434
C   -5.2488134145  5.5972472404  0.0877314960
H   -6.5247919174  4.3621002854 -1.1064658742
H   -5.9522329872  6.4145942324  0.1390304347
H    4.1544939722  6.6873554422  0.2955022393
H    6.5980389906  3.8254773845 -1.7234806638
H   -3.8174418439 -6.5607373339  1.3262220343
H   -6.4599359378 -4.4061007400 -1.2447299537
H   -2.1614696566  4.7295652518  1.1495344012
H   -4.9080132213  2.5182027305 -1.2606798140
H    2.4878046211 -4.7120637793  1.2604058675
H    4.7592155100 -2.3483074117 -1.4731222343
H   -2.2008167927 -4.7114800263  1.2121161749
H   -4.8301958929 -2.5688612410 -1.3840664706
H    2.4040466059  4.9897517400  0.5880503775
H    4.8077489031  2.1604606572 -1.5303386055
Cl  -0.0289907812  0.0369472781  2.3790897208
78
aligned d3map frame 46
N   -0.0182956377  2.0599235719 -0.1720411979
N    2.0122019471  0.0228248532 -0.1092961606
C   -2.4658418258  2.4155770047 -0.0954110011
C   -1.1236891579  2.8365813159 -0.3230951158
C   -0.7512957320  4.1252185407 -0.7674352516
H   -1.4259404626  4.9224620952 -1.0099094670
C    0.6219918853  4.1289936783 -0.8588053375
H    1.2505829469  4.9311727254 -1.1934898829
C    1.0608577499  2.8446429050 -0.4552895943
C    2.4149365291  2.4455251312 -0.3304250619
C    2.8202871529  1.1256599516 -0.1111299165
C    4.1745325532  0.7313088183  0.1532623405
H    5.0050900061  1.4025812311  0.2476302794
C    4.1800620791 -0.6176536367  0.2889451538
H    5.0114170717 -1.2625003117  0.4974272583
C    2.8303709698 -1.0629931762  0.1040337368
C    3.4267094257  3.5048757202 -0.4055115108
C    3.2979459219  4.6485985435  0.3872368058
C    4.2279968717  5.6669833223  0.3130795666
C    5.3030192955  5.5681609501 -0.5557465290
H    6.0247608613  6.3690699319 -0.6194075481
C    5.4435245108  4.4377726374 -1.3455115456
C    4.5175084710  3.4141778355 -1.2716368760
N    0.0067779032 -2.0438419892 -0.1064079503
N   -2.0128202507 -0.0007102450 -0.1308750091
C    2.4396840742 -2.3909544357  0.0989592510
C    1.1094919649 -2.8358791264 -0.1217651869
C    0.7426775794 -4.1742040481 -0.3929181901
H    1.4206051996 -4.9987021791 -0.4964002168
C   -0.6246273793 -4.1879754414 -0.5227243844
H   -1.2525226591 -5.0266995072 -0.7489102593
C   -1.0657647949 -2.8583985818 -0.3126676285
C   -2.4113050668 -2.4353107848 -0.2794339012
C   -2.8127802181 -1.1088691595 -0.1259619339
C   -4.1754915027 -0.7216226568  0.0902387260
H   -5.0000349652 -1.4019679749  0.1778823202
C   -4.1926621720  0.6292898250  0.2024793064
H   -5.0336158924  1.2611449721  0.4088213598
C   -2.8458411060  1.0837456874  0.0129636693
C   -3.4462949460 -3.4753810895 -0.4045470867
C   -3.5289867452 -4.5106708283  0.5256425541
C   -4.4833503961 -5.4992677154  0.3862520116
C   -5.3537029966 -5.4822383868 -0.6936047515
H   -6.0876004855 -6.2669019911 -0.8092456345
C   -5.2795437377 -4.4565873441 -1.6215799201
C   -4.3403057800 -3.4525177474 -1.4729323683
Fe  -0.0021062469  0.0121789949  0.2392066053
C    3.4112604910 -3.4750086045  0.3378420563
C    4.3961120120 -3.8116161609 -0.5853054516
C    3.2684785677 -4.2460567472  1.4909270225
C    5.1977600873 -4.9216770324 -0.3749009034
C    4.0860683913 -5.3376742375  1.7084989337
H    5.9379431312 -5.1932973189 -1.1147993455
C    5.0408223188 -5.6916478445  0.7646415116
H    3.9667506660 -5.9280591179  2.6052864326
H    5.6575917314 -6.5655755399  0.9170804713
C   -3.4830841314  3.4700169503 -0.0260600914
C   -4.6200076126  3.4446163445 -0.8352895465
C   -3.3145105320  4.5378079057  0.8568349128
C   -5.5662868176  4.4484668608 -0.7511342851
C   -4.2669521348  5.5350651227  0.9430836984
H   -6.4390979172  4.4183352802 -1.3865405833
C   -5.3967678440  5.4941635422  0.1417269572
H   -4.1309013641  6.3490381394  1.6406582950
H   -6.1380225332  6.2766905419  0.2064784597
H    4.1138823583  6.5435782379  0.9342027783
H    6.2771635030  4.3570392617 -2.0278691606
H   -4.5488202268 -6.2897796743  1.1186063211
H   -5.9560243871 -4.4454810076 -2.4640944777
H   -4.7367154410  2.6465772225 -1.5536170874
H   -2.4402856224  4.5638578458  1.4905161480
H    4.5070899569 -3.2204318454 -1.4833148001
H    2.5109548448 -3.9760474246  2.2137076855
H   -2.8493792334 -4.5184358088  1.3659307776
H   -4.2746789776 -2.6566973219 -2.2006447182
H    2.4688219420  4.7211908637  1.0740540322
H    4.6160326421  2.5494720523 -1.9129499989
Cl   0.0322353229 -0.0507772419  2.3740412392
78
aligned d3map frame 47
N   -0.0297117489  2.0487495928 -0.2240121950
N    2.0122445414  0.0040277290 -0.1000586099
C   -2.4711463969  2.4284497299 -0.1722067566
C   -1.1273031701  2.8110159126 -0.4676377586
C   -0.7386373514  4.0480074023 -1.0289632881
H   -1.4010471991  4.8181645849 -1.3751857034
C    0.6381056632  4.0461580119 -1.0790070616
H    1.2808538517  4.8133912543 -1.4643657445
C    1.0589354930  2.8074964024 -0.5467895057
C    2.4030328794  2.4200137893 -0.3287117296
C    2.8037214736  1.1178211971 -0.0373075418
C    4.1380355173  0.7386826175  0.3203703144
H    4.9453076689  1.4206688666  0.5010233256
C    4.1540766442 -0.6139432017  0.4150814523
H    4.9743924747 -1.2424031876  0.6981943094
C    2.8321079007 -1.0745136408  0.0983353272
C    3.4253836268  3.4649007078 -0.4450101086
C    3.3033131895  4.6583732350  0.2673782264
C    4.2593165299  5.6479669134  0.1458879372
C    5.3463001635  5.4725526473 -0.6966113601
H    6.0878297552  6.2508911329 -0.7953864209
C    5.4741056919  4.2928116520 -1.4106343869
C    4.5267546318  3.2944065015 -1.2833689799
N    0.0327986198 -2.0352249389 -0.1587574669
N   -2.0134600357  0.0188243198 -0.1194752194
C    2.4673452206 -2.4079527687 -0.0614392477
C    1.1291096313 -2.8191100815 -0.3315847910
C    0.7394299317 -4.0988893427 -0.7851512417
H    1.3968827902 -4.9004771283 -1.0592318771
C   -0.6371822653 -4.0988737784 -0.8410726997
H   -1.2807636436 -4.9007566387 -1.1481894464
C   -1.0555474140 -2.8146595170 -0.4295670979
C   -2.3972508813 -2.4053427163 -0.2746627609
C   -2.8072847133 -1.0947793164 -0.0563427813
C   -4.1580935543 -0.7102131193  0.2217110595
H   -4.9756670321 -1.3913523098  0.3576295210
C   -4.1747442097  0.6435342805  0.3067680149
H   -5.0084890230  1.2764774278  0.5375814606
C   -2.8412731818  1.1011154527  0.0303243762
C   -3.4314486190 -3.4489894104 -0.3984380566
C   -3.5543506980 -4.4561518944  0.5540765489
C   -4.5322948488 -5.4240415255  0.4170676077
C   -5.3784119803 -5.4126306494 -0.6807886645
H   -6.1388322195 -6.1729603804 -0.7871206791
C   -5.2442115578 -4.4251503806 -1.6449711227
C   -4.2852886238 -3.4405776641 -1.5000295302
Fe  -0.0021062469  0.0121789949  0.2392066053
C    3.4880054123 -3.4546605591  0.0100928144
C    3.2730911222 -4.5946085154  0.7905361134
C    4.6883583046 -3.3499058051 -0.6969847600
C    4.2360922129 -5.5803259956  0.8757401935
C    5.6488860166 -4.3385496189 -0.6071810478
H    4.0566162886 -6.4522608365  1.4890665046
C    5.4304178041 -5.4562426900  0.1821040187
H    6.5728299524 -4.2350596780 -1.1603032012
H    6.1823299106 -6.2271829181  0.2543619586
C   -3.4684835211  3.4973218052 -0.1270643690
C   -3.1903048512  4.6731556103  0.5813476542
C   -4.6953254359  3.3964731118 -0.7894011838
C   -4.1145553553  5.6955332768  0.6427787854
C   -5.6212581019  4.4204130666 -0.7197322700
H   -3.8846627091  6.5958444974  1.1958440261
C   -5.3369458324  5.5718983838 -0.0021103069
H   -6.5667353150  4.3222494930 -1.2327408197
H   -6.0629050429  6.3714795832  0.0522462247
H    4.1555276962  6.5628597575  0.7107439601
H    6.3139201146  4.1505283543 -2.0755718641
H   -4.6357514963 -6.1930014960  1.1697013648
H   -5.8886726120 -4.4224655502 -2.5129362270
H   -2.2477056364  4.7622783288  1.1021198088
H   -4.9039194326  2.5222688549 -1.3902640895
H    2.3534258006 -4.6847159587  1.3498523936
H    4.8489216856 -2.4968727105 -1.3411941325
H   -2.8897749484 -4.4627615927  1.4060582581
H   -4.1711197275 -2.6671331644 -2.2468251239
H    2.4618581135  4.7894230322  0.9314635412
H    4.6159327130  2.3841272189 -1.8582323424
Cl  -0.0051804614  0.0446577389  2.3784984727
78
aligned d3map frame 48
N   -0.0227004760  2.0647936262 -0.1736210451
N    2.0015672984  0.0175994806 -0.1254889288
C   -2.4384444160  2.4114032988 -0.3776261402
C   -1.1379983294  2.8444863159 -0.1072671419
C   -0.7740043727  4.1726599293  0.3026486856
H   -1.4644714923  4.9716161000  0.4844149895
C    0.5712042193  4.1832807010  0.4642165369
H    1.1884415225  4.9928336015  0.8002133870
C    1.0463507669  2.8676246034  0.1294056325
C    2.3723767126  2.4662784656  0.0789110740
C    2.7711471813  1.1311079235 -0.2486036645
C    4.0431535528  0.7867583479 -0.7514263650
H    4.8310376996  1.4758013861 -0.9853385170
C    4.0491055861 -0.5815071836 -0.9111011228
H    4.8435762129 -1.1841007153 -1.3053150397
C    2.7863284172 -1.0491058619 -0.4801051789
C    3.4488998149  3.4211454259  0.3477396531
C    4.4603553218  3.0748565089  1.2467883735
C    5.4792566294  3.9603402834  1.5384257434
C    5.5169981868  5.2040004121  0.9281763650
H    6.3144652760  5.8970060761  1.1526249617
C    4.5284682883  5.5527597648  0.0217897272
C    3.5030579030  4.6730274655 -0.2676447096
N    0.0010061504 -2.0492592875 -0.1096114539
N   -2.0007906878 -0.0073555715 -0.1487793410
C    2.4183076937 -2.4091094182 -0.3404788199
C    1.1156414605 -2.8258435938 -0.0437534589
C    0.7633203114 -4.1338460637  0.4336872219
H    1.4562450298 -4.9302777113  0.6227640480
C   -0.5745384170 -4.1307259480  0.6530234341
H   -1.1699495018 -4.9208883973  1.0645505117
C   -1.0619147393 -2.8372702822  0.2599145711
C   -2.3869672230 -2.4359351704  0.1832644269
C   -2.7627734401 -1.1252482053 -0.2644776884
C   -4.0130758497 -0.8022324993 -0.8274625074
H   -4.7868142813 -1.5021197930 -1.0773355914
C   -4.0230308253  0.5639485934 -1.0118682475
H   -4.8059587657  1.1575801178 -1.4413500850
C   -2.7800165781  1.0464264400 -0.5439145759
C   -3.4865967247 -3.3049021858  0.5948902369
C   -4.4928487551 -2.7592270744  1.4021600630
C   -5.5409888006 -3.5333327919  1.8527879816
C   -5.6156613622 -4.8738011005  1.5057907728
H   -6.4346029073 -5.4826986170  1.8590579655
C   -4.6380327061 -5.4236284317  0.6936531972
C   -3.5869177591 -4.6502785356  0.2360075685
Fe  -0.0021062469  0.0121789949  0.2392066053
C    3.4586518351 -3.4314935298 -0.4658735995
C    4.6824846020 -3.3049626636  0.1958067174
C    3.2405745523 -4.5684836025 -1.2479199283
C    5.6519106863 -4.2817908965  0.0757778705
C    4.2129353161 -5.5425585783 -1.3654449619
H    6.5910481613 -4.1702966780  0.5974817298
C    5.4226668650 -5.4040472997 -0.7045141803
H    4.0276999895 -6.4136047689 -1.9764586780
H    6.1832512979 -6.1655236107 -0.7936964250
C   -3.5322689177  3.3845968716 -0.4074821081
C   -4.6996219141  3.1401821096  0.3222927303
C   -3.4443415646  4.5651005803 -1.1464001478
C   -5.7399774047  4.0467197427  0.3111161231
C   -4.4903690495  5.4692066124 -1.1565927751
H   -6.6334588707  3.8456446941  0.8839464352
C   -5.6410958675  5.2147569350 -0.4299316367
H   -4.4063863384  6.3761355327 -1.7378216830
H   -6.4596184318  5.9192597859 -0.4383456556
H    6.2461075516  3.6799655228  2.2455220773
H    4.5619553607  6.5170717606 -0.4640661487
H   -6.3019388398 -3.0889427043  2.4782444583
H   -4.6990180175 -6.4641051150  0.4094535297
H   -4.7668666836  2.2431701308  0.9181855952
H   -2.5585611524  4.7548781104 -1.7349415751
H    4.8542309191 -2.4479638002  0.8291740037
H    2.3077893584 -4.6674382645 -1.7835604994
H   -4.4219086163 -1.7215514728  1.6940302847
H   -2.8581412059 -5.0793031055 -0.4359825657
H    4.4224976186  2.1117912709  1.7341235792
H    2.7537101334  4.9352988911 -0.9996090745
Cl  -0.0205224016  0.0485756583  2.3784869567
78
aligned d3map frame 49
N   -0.0164798295  2.0552833852 -0.2062471971
N    2.0153493724  0.0181169860 -0.0791568609
C   -2.4514023835  2.4177059174 -0.2387835597
C   -1.1104582337  2.8458215090 -0.3824383123
C   -0.7068975860  4.1835300504 -0.6256570258
H   -1.3644353446  5.0128020945 -0.7975152609
C    0.6641988011  4.1956691960 -0.5826801832
H    1.3196456133  5.0308549109 -0.7336695098
C    1.0744921090  2.8676090154 -0.3031078597
C    2.4121658727  2.4525177584 -0.1357307933
C    2.8141830839  1.1271482574  0.0243272961
C    4.1608000535  0.7277375294  0.2937544413
H    4.9795276137  1.3989422857  0.4651365587
C    4.1749167931 -0.6303943024  0.3186654023
H    5.0076571502 -1.2717485964  0.5284013743
C    2.8384484252 -1.0696551813  0.0442667024
C    3.4499234863  3.4981731863 -0.1588658673
C    3.4754259455  4.4973177159  0.8113377077
C    4.4426915701  5.4845064231  0.7710783513
C    5.3816234956  5.5011445658 -0.2483379551
H    6.1271228774  6.2825447133 -0.2865772316
C    5.3608954321  4.5139624755 -1.2188979851
C    4.4088295623  3.5120156945 -1.1696044950
N    0.0148444042 -2.0401858921 -0.1414187257
N   -2.0161491465  0.0010113212 -0.0989283178
C    2.4597954781 -2.4026547826 -0.1263148070
C    1.1164295963 -2.8200970966 -0.3242912107
C    0.7241502152 -4.1146920005 -0.7413730363
H    1.3866568463 -4.9149128216 -1.0065423766
C   -0.6495381148 -4.1224184222 -0.7722275152
H   -1.2938074712 -4.9286597788 -1.0625294723
C   -1.0732816874 -2.8305559124 -0.3762789949
C   -2.4222903173 -2.4228829918 -0.2545067196
C   -2.8271057123 -1.0994186948 -0.0642193559
C   -4.1881863224 -0.6883608352  0.1085785448
H   -5.0243615651 -1.3498823714  0.2242417037
C   -4.1969313421  0.6696851913  0.1105208461
H   -5.0426253548  1.3230299916  0.2005254661
C   -2.8384557624  1.0976157093 -0.0380847564
C   -3.4570398528 -3.4536266404 -0.4122122042
C   -3.4576031840 -4.6018511321  0.3793578937
C   -4.4253335875 -5.5732876563  0.2048067027
C   -5.3998965783 -5.4228535275 -0.7687190177
H   -6.1497981326 -6.1871534039 -0.9084392564
C   -5.4056766102 -4.2884567923 -1.5641620923
C   -4.4466729829 -3.3100371187 -1.3858651707
Fe  -0.0021062469  0.0121789949  0.2392066053
C    3.4960328646 -3.4383276870 -0.1429206016
C    4.6280931032 -3.3123460228 -0.9516361861
C    3.3626866881 -4.5890548243  0.6386815371
C    5.5938538244 -4.2996362207 -0.9710568417
C    4.3301732784 -5.5747083027  0.6155503667
H    6.4620550045 -4.1873232612 -1.6042988304
C    5.4502992960 -5.4351403473 -0.1886187242
H    4.2119289176 -6.4575821530  1.2276171410
H    6.2051529600 -6.2071764213 -0.2090073813
C   -3.4924591750  3.4582973509 -0.3482005659
C   -3.7160822398  4.0810002085 -1.5739054525
C   -4.2398462330  3.8514998822  0.7575031211
C   -4.6617328196  5.0832625590 -1.6888640407
C   -5.1756272377  4.8642965326  0.6411154049
H   -4.8295650255  5.5558087926 -2.6459736726
C   -5.3871034604  5.4844786104 -0.5792436671
H   -5.7400625325  5.1757180521  1.5083744671
H   -6.1136890873  6.2797268512 -0.6663606286
H    4.4633644703  6.2464721599  1.5363966282
H    6.0875057855  4.5258692658 -2.0187941996
H   -4.4194395659 -6.4540874084  0.8303085590
H   -6.1578144061 -4.1679567317 -2.3299383748
H   -3.1476117555  3.7656171270 -2.4367529777
H   -4.0670948615  3.3744995332  1.7106214071
H    4.7286043180 -2.4456502760 -1.5890551264
H    2.5020175994 -4.6891893692  1.2833998937
H   -2.7051442869 -4.7147598381  1.1457587650
H   -4.4385909313 -2.4348625038 -2.0192708123
H    2.7420023195  4.4819892373  1.6041102791
H    4.3860607588  2.7427268325 -1.9278329326
Cl  -0.0095704089  0.0622277289  2.3785845762
78
aligned d3map frame 50
N   -0.0208617030  2.0561497961 -0.2043370210
N    2.0087464934  0.0017543412 -0.0869795495
C   -2.4230174245  2.4538122648  0.0363603990
C   -1.1067107793  2.8792938021 -0.0722583063
C   -0.6707230015  4.2466732065 -0.1246114331
H   -1.3054643273  5.1047303444 -0.0221394263
C    0.6683246878  4.2317766137 -0.3389148531
H    1.3258296237  5.0742483229 -0.4722284692
C    1.0729547096  2.8533979423 -0.3555586732
C    2.3875695249  2.4145643237 -0.5002367370
C    2.8115808938  1.0729566477 -0.3796213881
C    4.1632591209  0.6539958625 -0.4399389126
H    5.0051357258  1.2832620135 -0.6525588253
C    4.1742413897 -0.6927433362 -0.1602231630
H    5.0204617399 -1.3513670465 -0.1291159995
C    2.8301673364 -1.0744302471  0.0537158075
C    3.4288824700  3.4281412446 -0.7599465383
C    3.7805189627  4.3588347581  0.2136304724
C    4.7539042298  5.3074604526 -0.0419841341
C    5.3782461465  5.3470703035 -1.2777466831
H    6.1316887045  6.0939414445 -1.4804439539
C    5.0346218628  4.4249101501 -2.2526953093
C    4.0738369625  3.4652908858 -1.9934359694
N    0.0326546416 -2.0419855258 -0.1410304831
N   -2.0114131226  0.0072912552 -0.1046990067
C    2.4161430969 -2.4253586046  0.2517491670
C    1.1091351780 -2.8588712253  0.0826453519
C    0.6756164215 -4.2304198356  0.0859206371
H    1.3046720031 -5.0804797977  0.2566593104
C   -0.6559292306 -4.2250166074 -0.1690532245
H   -1.3197626707 -5.0633708144 -0.2555783863
C   -1.0575286743 -2.8504246134 -0.2789524201
C   -2.3777005253 -2.4262395630 -0.4090822835
C   -2.8066452850 -1.0817492945 -0.3473651944
C   -4.1481930616 -0.6645102529 -0.5234175912
H   -4.9735498887 -1.3079082688 -0.7580237058
C   -4.1644708531  0.7000787514 -0.3564899033
H   -5.0032563136  1.3633252163 -0.4368311654
C   -2.8312258560  1.0932161152 -0.0940210833
C   -3.4257122068 -3.4547683744 -0.5578892701
C   -4.3491630271 -3.6664153942  0.4643848289
C   -5.3307477669 -4.6286875525  0.3272105394
C   -5.4201077411 -5.3766390023 -0.8379816655
H   -6.1949420147 -6.1204906294 -0.9428863352
C   -4.5093535064 -5.1663480023 -1.8595816103
C   -3.5105036633 -4.2190210120 -1.7180142066
Fe  -0.0021062469  0.0121789949  0.2392066053
C    3.4731737802 -3.3908320629  0.5880765498
C    3.7854224572 -4.4651407907 -0.2424940950
C    4.1991559699 -3.2199639648  1.7679451327
C    4.7969667196 -5.3463078676  0.0962527650
C    5.1932935661 -4.1138973867  2.1150367848
H    5.0382435524 -6.1643045817 -0.5658201289
C    5.5003712578 -5.1761285752  1.2765912287
H    5.7363943437 -3.9811699930  3.0385946529
H    6.2858819282 -5.8674519948  1.5459407281
C   -3.4960863510  3.4397687670  0.2285885869
C   -3.7222513228  4.4752779657 -0.6764948805
C   -4.3301172301  3.3244981523  1.3416487622
C   -4.7554075074  5.3710428240 -0.4720028023
C   -5.3502474179  4.2325750473  1.5502934878
H   -4.9307973009  6.1600139272 -1.1895358427
C   -5.5709527273  5.2572658638  0.6426809435
H   -5.9776432573  4.1379236805  2.4257402146
H   -6.3797342487  5.9549216229  0.7943067921
H    5.0250316247  6.0166922232  0.7254560931
H    5.5175353701  4.4530777454 -3.2186758648
H   -6.0350943497 -4.7951695214  1.1298574640
H   -4.5754453214 -5.7389672680 -2.7733871825
H   -3.1034443159  4.5534646114 -1.5579636558
H   -4.1585779129  2.5256921679  2.0474079411
H    3.2496705966 -4.5862197005 -1.1722422746
H    3.9566423623 -2.3932106855  2.4201550475
H   -4.2800462868 -3.0797636835  1.3685025279
H   -2.7993033998 -4.0527413017 -2.5146573930
H    3.2944640286  4.3214995431  1.1779274491
H    3.8040737730  2.7451237887 -2.7521019663
Cl  -0.0264493423  0.0327412073  2.3768321986
78
aligned d3map frame 51
N   -0.0251121046  2.0541372600 -0.1947099696
N    2.0117644828  0.0088022654 -0.1032746319
C   -2.4622856613  2.4250896037 -0.0288185601
C   -1.1255515719  2.8373357627 -0.3087312253
C   -0.7571885563  4.1282236092 -0.7519754021
H   -1.4363693784  4.9285837789 -0.9764436700
C    0.6126423440  4.1258956621 -0.8777313601
H    1.2397640117  4.9273310246 -1.2062708197
C    1.0537806563  2.8371097062 -0.4899470144
C    2.4001486103  2.4351724751 -0.3353939375
C    2.8044506265  1.1244942365 -0.0726099736
C    4.1430888015  0.7516382147  0.2788213224
H    4.9563302011  1.4354199842  0.4263166888
C    4.1567710403 -0.5962588535  0.4290482034
H    4.9823670784 -1.2145762511  0.7249498860
C    2.8301412348 -1.0667645700  0.1436518234
C    3.4199188677  3.4892635461 -0.3983920830
C    3.2905979528  4.6330972925  0.3915260849
C    4.2384738871  5.6361141784  0.3344238444
C    5.3272010308  5.5219777325 -0.5154105482
H    6.0624669868  6.3125331753 -0.5608561862
C    5.4627868215  4.3913312087 -1.3052354215
C    4.5211131003  3.3811375327 -1.2470020894
N    0.0302149958 -2.0402311902 -0.1290278640
N   -2.0131682893  0.0162018496 -0.1221742132
C    2.4621656360 -2.4059020485  0.0660285026
C    1.1263389461 -2.8362395013 -0.2014149931
C    0.7507437947 -4.1411696707 -0.5934415209
H    1.4208005915 -4.9596193866 -0.7691545017
C   -0.6187572632 -4.1363548010 -0.7238438485
H   -1.2549203994 -4.9438921360 -1.0223806811
C   -1.0501203823 -2.8251797500 -0.4156880749
C   -2.3922707946 -2.4067807552 -0.3384896467
C   -2.8091852460 -1.0960480645 -0.1332197838
C   -4.1746941227 -0.7156021855  0.0843227372
H   -4.9985559073 -1.4002121434  0.1447176665
C   -4.1943508979  0.6324010474  0.2249293492
H   -5.0388107219  1.2612194260  0.4274187083
C   -2.8457645840  1.0940662635  0.0483397299
C   -3.4445260957 -3.4358755358 -0.4852373608
C   -3.7435196993 -4.3043312166  0.5600844886
C   -4.7591931193 -5.2350285085  0.4241197911
C   -5.4754328211 -5.3160148298 -0.7585931248
H   -6.2703916317 -6.0407068367 -0.8631948153
C   -5.1715641471 -4.4628100160 -1.8071462199
C   -4.1651681281 -3.5229696690 -1.6719408766
Fe  -0.0021062469  0.0121789949  0.2392066053
C    3.4725725825 -3.4551495843  0.2185414759
C    3.2325984070 -4.5286461570  1.0831097799
C    4.6689234696 -3.4358303476 -0.5005309444
C    4.1648404848 -5.5376100006  1.2314363243
C    5.5955780122 -4.4519217742 -0.3543966600
H    3.9679305291 -6.3552696121  1.9126349409
C    5.3494818059 -5.5064829042  0.5120932208
H    6.5123145241 -4.4213398679 -0.9184039314
H    6.0768273256 -6.3036693735  0.6236042805
C   -3.4372445482  3.5083999625  0.1463008827
C   -3.1810356440  4.4968084359  1.0995627130
C   -4.5881903104  3.6115918869 -0.6322127081
C   -4.0562769720  5.5522344178  1.2686703065
C   -5.4564912168  4.6775470608 -0.4672921803
H   -3.8495159506  6.3079086553  2.0128354349
C   -5.1944850567  5.6507068170  0.4828546546
H   -6.3377969488  4.7516144838 -1.0870274117
H   -5.8690863470  6.4859125855  0.6080717665
H    4.1241798733  6.5117339290  0.9575034673
H    6.3076684166  4.3019163317 -1.9733318715
H   -4.9940608974 -5.8964922424  1.2450478392
H   -5.7219089588 -4.5220297262 -2.7347455284
H   -2.2967157807  4.4206975569  1.7153450862
H   -4.7842445341  2.8718868332 -1.3957587295
H    2.3174125522 -4.5486170294  1.6552334604
H    4.8560462173 -2.6355032632 -1.2024988618
H   -3.1883799452 -4.2320192559  1.4826618070
H   -3.9260500340 -2.8535596858 -2.4860327437
H    2.4483648340  4.7114860143  1.0631643042
H    4.6189899590  2.5112429478 -1.8805231260
Cl  -0.0136778292  0.0767592534  2.3773028132
78
aligned d3map frame 52
N    0.0000521855  2.0640525756 -0.1810418493
N    2.0114308971  0.0280656460 -0.0729695302
C   -2.4216350158  2.4241929019 -0.2915373600
C   -1.1080290787  2.8636429501 -0.2309860550
C   -0.7184326726  4.2393085744 -0.1033747437
H   -1.3985582011  5.0686355074 -0.1107994063
C    0.6271759192  4.2554761474  0.0537367831
H    1.2604659483  5.1051672274  0.2154606176
C    1.0738090140  2.8896375593 -0.0070166447
C    2.3962456663  2.4778652998  0.1133373805
C    2.8217212897  1.1237764971  0.0057996389
C    4.1712128595  0.7386930945 -0.1423774867
H    5.0170867342  1.3972114617 -0.1357371257
C    4.1765988107 -0.6260966491 -0.3123873245
H    5.0310988097 -1.2600633793 -0.4388312137
C    2.8291636692 -1.0491760356 -0.2692534009
C    3.4454936987  3.4866453296  0.3128514582
C    4.2894834457  3.4087542982  1.4209977965
C    5.2736089971  4.3570162586  1.6203992341
C    5.4470100067  5.3874313623  0.7093533517
H    6.2222766618  6.1241754362  0.8619335214
C    4.6240825743  5.4651962904 -0.4018236571
C    3.6278681536  4.5264864115 -0.5973285867
N    0.0052857263 -2.0485704834 -0.1171718096
N   -2.0128492420 -0.0157327588 -0.0909763577
C    2.4251331602 -2.4088296507 -0.3207738067
C    1.1107454136 -2.8478997892 -0.1881476128
C    0.7112837228 -4.2253328388 -0.1216069196
H    1.3732267209 -5.0671283391 -0.1783065207
C   -0.6349097202 -4.2414661471  0.0379704789
H   -1.2738195977 -5.0937860450  0.1662389926
C   -1.0766458780 -2.8760848317  0.0075466503
C   -2.4030477599 -2.4628851021  0.0601005531
C   -2.8226164270 -1.1124482906 -0.0900859892
C   -4.1597128762 -0.7264767033 -0.3315776352
H   -4.9959185802 -1.3907709774 -0.4235295174
C   -4.1595088193  0.6438985517 -0.4543675224
H   -4.9966877057  1.2815606797 -0.6578264079
C   -2.8228489766  1.0662501827 -0.2832176226
C   -3.4761481515 -3.4452368854  0.2693795933
C   -4.3440666819 -3.2650559142  1.3483754084
C   -5.3779662639 -4.1517747139  1.5763174440
C   -5.5713217888 -5.2272603037  0.7236275962
H   -6.3862258737 -5.9152106773  0.8998691554
C   -4.7221409005 -5.4107199232 -0.3551068654
C   -3.6788679027 -4.5299805094 -0.5815514551
Fe  -0.0021062469  0.0121789949  0.2392066053
C    3.4935438375 -3.4069842551 -0.5024755527
C    3.7671643372 -4.3623028123  0.4753253130
C    4.2634592865 -3.3951097229 -1.6651052514
C    4.7881705896 -5.2772716917  0.2954906573
C    5.2780900327 -4.3165753382 -1.8448416343
H    4.9947208308 -6.0080964113  1.0641230517
C    5.5474258788 -5.2572029319 -0.8638327287
H    5.8638542057 -4.2980727625 -2.7532553084
H    6.3496548048 -5.9679715356 -1.0010723463
C   -3.5175272418  3.4109360105 -0.2476035709
C   -4.3167135217  3.4650065461  0.8941480492
C   -3.7961763454  4.2604192061 -1.3132708901
C   -5.3715684218  4.3524039673  0.9677459712
C   -4.8685971093  5.1341541159 -1.2426791758
H   -5.9769016634  4.3897152994  1.8628377302
C   -5.6581940143  5.1836139566 -0.1056823708
H   -5.0926957290  5.7748711490 -2.0851635018
H   -6.4923916657  5.8685243452 -0.0517484241
H    5.9124232687  4.2939799744  2.4892161008
H    4.7595158567  6.2580175143 -1.1218610926
H   -6.0363636911 -3.9995517259  2.4195675663
H   -4.8788711605 -6.2410492002 -1.0293235228
H   -4.0959465349  2.8063640327  1.7227542278
H   -3.1876659616  4.2115169482 -2.2065069246
H    3.1920069259 -4.3640136047  1.3897941301
H    4.0515348178 -2.6632241010 -2.4309628660
H   -4.1842865909 -2.4284487783  2.0128424942
H   -3.0375202897 -4.6615064268 -1.4413884945
H    4.1535014687  2.6086037257  2.1346623156
H    2.9984074115  4.5752866084 -1.4747542619
Cl  -0.0345025772  0.0623100126  2.3784816117
78
aligned d3map frame 53
N    0.0071406672  2.0491361154 -0.2182923623
N    2.0101448133  0.0177613004 -0.1016607522
C   -2.4300722897  2.4052809637 -0.3090148240
C   -1.0858833230  2.8033528635 -0.5228790085
C   -0.6708904823  4.0595731991 -1.0249203811
H   -1.3198185096  4.8336498049 -1.3853063105
C    0.7049927817  4.0694137233 -0.9794639766
H    1.3623805485  4.8503803477 -1.3081033820
C    1.1035518112  2.8226151223 -0.4461758117
C    2.4372218425  2.4333777485 -0.1282456747
C    2.7990059698  1.1149754447  0.1377518142
C    4.0905355252  0.6786112957  0.5853411628
H    4.8737559244  1.3205635635  0.9387091289
C    4.0986094869 -0.6772417287  0.5162457983
H    4.8889964690 -1.3449591924  0.7989324849
C    2.8074723801 -1.0823240998  0.0418172970
C    3.4765086692  3.4629919540 -0.1327703139
C    3.2778695607  4.6947840920  0.4968094852
C    4.2660821848  5.6590530919  0.4842707969
C    5.4726608157  5.4188014094 -0.1556315637
H    6.2441773909  6.1742883507 -0.1624004633
C    5.6805277681  4.2046317327 -0.7896431053
C    4.6935085068  3.2386247952 -0.7831329813
N    0.0257951663 -2.0342220413 -0.1556333031
N   -2.0142677568 -0.0120801180 -0.1149273006
C    2.4498208014 -2.3936572542 -0.2905423876
C    1.1070180920 -2.7896702145 -0.5109894030
C    0.6658844761 -4.0406189368 -1.0028205386
H    1.2879596258 -4.8068090779 -1.4221776088
C   -0.7054443159 -4.0570103118 -0.8711124087
H   -1.3789725646 -4.8448855345 -1.1472020148
C   -1.0744426080 -2.8090532625 -0.3239783982
C   -2.4053341036 -2.4277722350  0.0288970239
C   -2.8090280421 -1.1035903075  0.1438131774
C   -4.1324644586 -0.6565812281  0.4749507180
H   -4.9388448918 -1.2919008126  0.7844831959
C   -4.1435022406  0.6922065429  0.3401708932
H   -4.9610554830  1.3637043045  0.5162041856
C   -2.8192623003  1.0907166471 -0.0446847097
C   -3.3394908496 -3.5272202826  0.2779825086
C   -2.9458188317 -4.5625799105  1.1312337965
C   -3.7969800310 -5.6135993641  1.4085639201
C   -5.0559277669 -5.6610182375  0.8297252984
H   -5.7213197921 -6.4838520615  1.0462105617
C   -5.4511360062 -4.6516294021 -0.0331441142
C   -4.6042569306 -3.5940367536 -0.3089347422
Fe  -0.0021062469  0.0121789949  0.2392066053
C    3.5050635237 -3.3971744844 -0.4221042159
C    3.3684899091 -4.6727610971  0.1322045612
C    4.6751522592 -3.1024069178 -1.1284021398
C    4.3619063430 -5.6193836947 -0.0239994108
C    5.6689084856 -4.0499493316 -1.2758417167
H    4.2379578562 -6.6019783816  0.4086928948
C    5.5158723879 -5.3142237535 -0.7288472365
H    6.5644521300 -3.8018811719 -1.8271743951
H    6.2916416296 -6.0549839858 -0.8523701584
C   -3.4513612977  3.4576161371 -0.3300686541
C   -3.2872921535  4.6031014096  0.4506193367
C   -4.5991288546  3.3411795480 -1.1155740910
C   -4.2517697300  5.5913321001  0.4595180872
C   -5.5578903101  4.3362873783 -1.1101930532
H   -4.1190672755  6.4670746251  1.0779985203
C   -5.3911951606  5.4610605417 -0.3185597933
H   -6.4396783641  4.2373689135 -1.7260185913
H   -6.1454481072  6.2336700012 -0.3084779306
H    4.0987240181  6.6058597085  0.9787920836
H    6.6150396099  4.0110525679 -1.2966039262
H   -3.4786470446 -6.3991649349  2.0784567470
H   -6.4253112226 -4.6916628642 -0.4991395790
H   -2.4069357558  4.6935118718  1.0699542022
H   -4.7184903159  2.4747276664 -1.7486665638
H    2.4871239026 -4.9053238949  0.7112447394
H    4.7845088974 -2.1297950652 -1.5860945642
H   -1.9710736034 -4.5175155717  1.5946190538
H   -4.9048923271 -2.8304162468 -1.0116457148
H    2.3504325115  4.8764562185  1.0197944446
H    4.8459909350  2.3075016723 -1.3092014555
Cl  -0.0249503079  0.0470498817  2.3788624839
78
aligned d3map frame 54
N   -0.0145510697  2.0526006722 -0.2158393825
N    2.0079168857  0.0388560972 -0.0913928218
C   -2.4138188427  2.3789918150 -0.6359208268
C   -1.1224414190  2.8300350752 -0.3307395682
C   -0.7815373321  4.1969168066 -0.0523177775
H   -1.4803674754  5.0113325480 -0.0227400558
C    0.5460033693  4.2280051521  0.2226053166
H    1.1362631515  5.0730476083  0.5175107789
C    1.0356613882  2.8841983028  0.0705670500
C    2.3647291541  2.4910156053  0.1209843998
C    2.7979461970  1.1473440021 -0.0974276831
C    4.1221776501  0.7946215846 -0.4382305660
H    4.9417630876  1.4777302448 -0.5473814499
C    4.1329951589 -0.5665634604 -0.6384400701
H    4.9645157774 -1.1735330035 -0.9371000141
C    2.8163618760 -1.0250263821 -0.3980625144
C    3.4104932454  3.5034732371  0.3052079979
C    4.3848494056  3.3362824594  1.2922695328
C    5.3749942101  4.2837707973  1.4696769479
C    5.4195641763  5.4077630178  0.6582425396
H    6.1975700955  6.1456442556  0.7926422902
C    4.4643100713  5.5782709257 -0.3325919015
C    3.4674107567  4.6367244704 -0.5080174317
N   -0.0059137912 -2.0420357203 -0.1491076253
N   -2.0073773913 -0.0013172757 -0.1142624430
C    2.4134621458 -2.3789034440 -0.4361719451
C    1.1056551004 -2.8216566199 -0.2264536748
C    0.7599925919 -4.1823545280  0.0791606992
H    1.4501512791 -5.0030175783  0.1003730392
C   -0.5587425185 -4.1969947765  0.3960069369
H   -1.1389787438 -5.0360773788  0.7325043674
C   -1.0501925070 -2.8589101355  0.2072308520
C   -2.3643078542 -2.4317291732  0.3196891359
C   -2.7837819407 -1.1152540345 -0.0764741709
C   -4.0785447397 -0.8233170454 -0.5513352416
H   -4.8800748312 -1.5289221268 -0.6605410730
C   -4.0848963843  0.5131431728 -0.8836425244
H   -4.8922593687  1.0686161090 -1.3190849933
C   -2.8018752603  1.0215667935 -0.5681355827
C   -3.4213648818 -3.3006103546  0.8374169662
C   -4.2653343496 -2.7783711754  1.8258105937
C   -5.2507522317 -3.5560808062  2.4008234848
C   -5.4260902289 -4.8726680519  1.9927449368
H   -6.1927301647 -5.4857173530  2.4460077853
C   -4.6230110743 -5.3908854278  0.9885281809
C   -3.6319948087 -4.6143422994  0.4114059631
Fe  -0.0021062469  0.0121789949  0.2392066053
C    3.4475416624 -3.3984497817 -0.6700201650
C    3.3145810311 -4.2804343748 -1.7444179918
C    4.5713779152 -3.4997678858  0.1480567606
C    4.2899636168 -5.2241407686 -2.0039932288
C    5.5360278959 -4.4587002037 -0.1036836772
H    4.1834423593 -5.8881120148 -2.8519930910
C    5.4039086126 -5.3176117395 -1.1836281336
H    6.3974192573 -4.5348739952  0.5442440473
H    6.1657923449 -6.0564246327 -1.3863431479
C   -3.3969348781  3.3849575679 -1.0482830856
C   -3.0579551443  4.2870377162 -2.0615674370
C   -4.6672439138  3.4716131033 -0.4748638122
C   -3.9647797005  5.2328556231 -2.4972577795
C   -5.5706674891  4.4208758226 -0.9137679772
H   -3.6863618319  5.9168882176 -3.2874207580
C   -5.2276098920  5.3004691291 -1.9286043521
H   -6.5502916706  4.4779698962 -0.4594671078
H   -5.9373979331  6.0379555645 -2.2718027354
H    6.1169611658  4.1475135817  2.2434760041
H    4.4986224070  6.4477349779 -0.9742710861
H   -5.8838017092 -3.1384361047  3.1706269768
H   -4.7725641519 -6.4074652140  0.6491607478
H   -2.0807859205  4.2216047571 -2.5191760516
H   -4.9275877305  2.8110906386  0.3385075659
H    2.4482269042 -4.2011242642 -2.3866600447
H    4.6688326624 -2.8375104717  0.9934992845
H   -4.1089172950 -1.7600893568  2.1569762461
H   -3.0434998478 -5.0152029284 -0.4019082395
H    4.3423841945  2.4661974948  1.9305441247
H    2.7400664263  4.7566172552 -1.2992863814
Cl  -0.0389634286 -0.0131358819  2.3765883079
78
aligned d3map frame 55
N   -0.0063604500  2.0587801281 -0.1763705870
N    2.0153770882  0.0351227344 -0.0843573866
C   -2.4409618936  2.4091756017 -0.3487025451
C   -1.0951679884  2.8388854244 -0.4292813009
C   -0.6804936221  4.1554175813 -0.7364120798
H   -1.3249681998  4.9659428295 -1.0149933012
C    0.6914273264  4.1726246566 -0.6236901947
H    1.3506389677  4.9988704574 -0.8043106441
C    1.0833986225  2.8668082270 -0.2512694053
C    2.4189981375  2.4605145970  0.0264848986
C    2.8156730642  1.1311181842  0.1200933476
C    4.1543973382  0.6996922518  0.4066344440
H    4.9685307235  1.3463549099  0.6680455745
C    4.1652040269 -0.6520296552  0.3105189895
H    4.9904818494 -1.3169347392  0.4749763695
C    2.8276514326 -1.0645629205 -0.0053137502
C    3.3960571400  3.5349053838  0.2327763525
C    3.1156790666  4.5355698572  1.1663021184
C    4.0122229051  5.5612268968  1.3901236090
C    5.2009123809  5.6152607518  0.6794489815
H    5.8998120559  6.4198080690  0.8505619959
C    5.4855203376  4.6332907398 -0.2556171036
C    4.5940650819  3.6001051488 -0.4784312495
N    0.0012226988 -2.0449397058 -0.1103866472
N   -2.0155391489 -0.0062358902 -0.1043122969
C    2.4430024581 -2.3958127517 -0.1528505633
C    1.1019321930 -2.8398899019 -0.2501860121
C    0.7005568610 -4.1865551668 -0.4082309360
H    1.3510700158 -5.0202127836 -0.5850653662
C   -0.6703548054 -4.2067656213 -0.3002632001
H   -1.3086029776 -5.0666168621 -0.3322967909
C   -1.0846996728 -2.8667034609 -0.1207814115
C   -2.4241052001 -2.4321206323  0.0720774015
C   -2.8226733891 -1.0988727989  0.0605102058
C   -4.1959799576 -0.6795154705  0.0896737339
H   -5.0378552482 -1.3364879690  0.1890451557
C   -4.2044878839  0.6671818648 -0.0619028740
H   -5.0529351093  1.3224399536 -0.0845420493
C   -2.8382973903  1.0858781138 -0.1874080377
C   -3.4518826499 -3.4549953741  0.3240353080
C   -4.1414250154 -3.4372908768  1.5369599037
C   -5.0837130714 -4.4060837587  1.8242969633
C   -5.3612032984 -5.4023458568  0.9020517708
H   -6.0938162686 -6.1623200605  1.1290900657
C   -4.6980693762 -5.4160865609 -0.3140145216
C   -3.7498245428 -4.4512957975 -0.6026528191
Fe  -0.0021062469  0.0121789949  0.2392066053
C    3.4979993246 -3.4200028188 -0.1349192575
C    3.4761215865 -4.4441094325  0.8110832823
C    4.5462746954 -3.3768483835 -1.0539923867
C    4.4787754269 -5.3949087733  0.8385031132
C    5.5415940502 -4.3356869895 -1.0296395053
H    4.4559306347 -6.1761514107  1.5838600449
C    5.5129087093 -5.3461118999 -0.0824785794
H    6.3434755966 -4.2936280569 -1.7523081478
H    6.2938051111 -6.0916179563 -0.0600445981
C   -3.4662600740  3.4669494226 -0.3573023734
C   -3.4563747514  4.4227097123  0.6571244456
C   -4.4423471744  3.5440101721 -1.3489811862
C   -4.4119094777  5.4226541704  0.6879000663
C   -5.3844465806  4.5557744199 -1.3228922413
H   -4.4012465679  6.1487120200  1.4876767269
C   -5.3756291925  5.4933847592 -0.3027451640
H   -6.1284181087  4.6137927649 -2.1029701047
H   -6.1182972722  6.2786147330 -0.2813990659
H    3.7835192017  6.3220547734  2.1222796872
H    6.4073021361  4.6756722301 -0.8178908980
H   -5.6016997385 -4.3853228685  2.7717899532
H   -4.9208260571 -6.1828550535 -1.0415697036
H   -2.7054521752  4.3602277362  1.4297057107
H   -4.4418202408  2.8192664496 -2.1504693298
H    2.6804452202 -4.4714290238  1.5408229096
H    4.5618855222 -2.5942987612 -1.7984219780
H   -3.9125726266 -2.6671850642  2.2590889918
H   -3.2529587990 -4.4516907416 -1.5621803076
H    2.1952573535  4.4832021229  1.7288449345
H    4.8071258519  2.8528655974 -1.2291811730
Cl  -0.0120703888  0.0393906084  2.3792835846
78
aligned d3map frame 56
N   -0.0084908124  2.0489713674 -0.2125206784
N    2.0078807465  0.0166437419 -0.1174548894
C   -2.4165860592  2.3844171345 -0.5532192495
C   -1.0684252645  2.7996065106 -0.6389944720
C   -0.6000469704  4.0628048546 -1.0762517815
H   -1.1955484575  4.8394582915 -1.5145582711
C    0.7581442319  4.0825618159 -0.8525442640
H    1.4463838926  4.8752181850 -1.0727760100
C    1.0984650647  2.8250953228 -0.3040242756
C    2.4123307029  2.4232307764  0.0932719822
C    2.7934627528  1.0927849197  0.2175111407
C    4.0947390326  0.6215747993  0.6020421064
H    4.8791310641  1.2348229464  1.0000902831
C    4.1078617857 -0.7198205869  0.3974255558
H    4.9098794312 -1.4046771773  0.5920351291
C    2.8040520325 -1.0897401494 -0.0716893873
C    3.3859483297  3.4878068151  0.3364295309
C    4.6638460702  3.4600289577 -0.2254624627
C    5.5724022218  4.4645153442  0.0459415051
C    5.2233931304  5.5167128168  0.8768382311
H    5.9368791919  6.2979817440  1.0933474164
C    3.9507781489  5.5665132131  1.4237483749
C    3.0378441097  4.5668553996  1.1529156430
N    0.0123579893 -2.0337631829 -0.1496947333
N   -2.0078092629 -0.0109682266 -0.1358465946
C    2.4234030857 -2.3919370509 -0.4266467219
C    1.0730962595 -2.7924494429 -0.5589016585
C    0.6027154676 -4.0545347012 -0.9962153758
H    1.1973111262 -4.8290566550 -1.4385832994
C   -0.7571618142 -4.0692642315 -0.7771469993
H   -1.4447998862 -4.8627606774 -0.9906168096
C   -1.0950700874 -2.8091488433 -0.2365215493
C   -2.4130379539 -2.4057226687  0.1545833275
C   -2.8051315084 -1.0749115829  0.2134513569
C   -4.1236490900 -0.5923818591  0.5177391585
H   -4.9279438827 -1.1860520879  0.9055987096
C   -4.1323046954  0.7372916238  0.2436390103
H   -4.9474271574  1.4257034893  0.3579442887
C   -2.8073884433  1.0927708531 -0.1741206469
C   -3.3525131867 -3.4879252210  0.4465438729
C   -2.9468792716 -4.5213004311  1.2962561098
C   -3.7965077849 -5.5681791041  1.5913963153
C   -5.0657136989 -5.6127718032  1.0371451578
H   -5.7263262419 -6.4370991821  1.2605316389
C   -5.4772970747 -4.5994398166  0.1870441227
C   -4.6313718024 -3.5467399352 -0.1082727324
Fe  -0.0021062469  0.0121789949  0.2392066053
C    3.4787454456 -3.3872212096 -0.6209251298
C    3.3975544083 -4.6570835671 -0.0451985797
C    4.6032462395 -3.0777884469 -1.3920166054
C    4.4032157727 -5.5842989497 -0.2385081706
C    5.6095231737 -4.0049135814 -1.5766481361
H    4.3243113110 -6.5624005853  0.2136385909
C    5.5135375861 -5.2629627700 -1.0027427111
H    6.4728218477 -3.7474175066 -2.1731980758
H    6.3007464762 -5.9882312183 -1.1479254350
C   -3.4699339361  3.3500823516 -0.8812570236
C   -3.5024524869  4.6304539901 -0.3283207137
C   -4.4631031065  2.9926870219 -1.7965830900
C   -4.4909906139  5.5259613910 -0.6914094455
C   -5.4424127409  3.8945008561 -2.1645360211
H   -4.5080193619  6.5124905902 -0.2510651467
C   -5.4587123271  5.1666197165 -1.6156762988
H   -6.1918941476  3.6041084893 -2.8866070893
H   -6.2220162807  5.8739192060 -1.9045452188
H    6.5580711618  4.4294416414 -0.3952547475
H    3.6694772491  6.3859267864  2.0680359555
H   -3.4665666045 -6.3551851968  2.2541153201
H   -6.4614244967 -4.6352680346 -0.2545486797
H   -2.7625045170  4.9085613760  0.4075013508
H   -4.4400899596  2.0061898105 -2.2367540400
H    2.5529061543 -4.8982879650  0.5826380286
H    4.6681860134 -2.1084581057 -1.8644483877
H   -1.9628603353 -4.4781340269  1.7387917353
H   -4.9449429701 -2.7817032923 -0.8030674845
H    4.9255312915  2.6590304150 -0.9013268501
H    2.0530868304  4.5944605598  1.5948320136
Cl  -0.0108841839  0.0449417574  2.3788417819
78
aligned d3map frame 57
N   -0.0138945520  2.0594414815 -0.2077456971
N    2.0180329455  0.0224221499 -0.0505269748
C   -2.4332526968  2.4533052225 -0.1240753399
C   -1.1082076354  2.8759916609 -0.1549861691
C   -0.6846822879  4.2486543573 -0.0921654872
H   -1.3373503700  5.0949243458  0.0078664905
C    0.6698595304  4.2473309007 -0.1353018810
H    1.3329678136  5.0896304160 -0.0945136292
C    1.0835963516  2.8732727585 -0.1940791316
C    2.4102468451  2.4657318833 -0.1368101343
C    2.8354382685  1.1216095127 -0.0284801606
C    4.1884279224  0.7205500198  0.0420050379
H    5.0372748005  1.3747703039  0.0753891774
C    4.1936155608 -0.6547739763  0.0524385600
H    5.0444793516 -1.3032727945  0.1286839637
C    2.8446183218 -1.0670733533 -0.0362570206
C    3.4520740286  3.5062038990 -0.2414923104
C    4.3077779679  3.7971565096  0.8173488147
C    5.2853807374  4.7672590264  0.6792653855
C    5.4365988659  5.4427848337 -0.5230460274
H    6.2112303552  6.1857320597 -0.6347661089
C    4.5892288536  5.1590226129 -1.5810082576
C    3.5963195022  4.2055759494 -1.4386535131
N    0.0143147665 -2.0443704025 -0.1421756536
N   -2.0189352546  0.0020613290 -0.0698309566
C    2.4382892953 -2.4229461468 -0.1486848344
C    1.1168259213 -2.8488044118 -0.1942085739
C    0.7071805372 -4.2179347650 -0.3403960950
H    1.3733472082 -5.0528362688 -0.4330348867
C   -0.6481642124 -4.2271704325 -0.3382834477
H   -1.2991957633 -5.0761092221 -0.4063794275
C   -1.0762771503 -2.8615459189 -0.2306697378
C   -2.4049492683 -2.4486757526 -0.2105353706
C   -2.8273980212 -1.0986895647 -0.1648344347
C   -4.1748857378 -0.6950278010 -0.3127064253
H   -5.0143520294 -1.3509455226 -0.4323614001
C   -4.1819267872  0.6791571777 -0.2968517930
H   -5.0281661105  1.3277447976 -0.4150464557
C   -2.8398930419  1.0915144535 -0.1382054405
C   -3.4613123225 -3.4734987248 -0.2920216852
C   -4.3883296280 -3.6129641063  0.7400432538
C   -5.3903342069 -4.5620555565  0.6587889475
C   -5.4889930912 -5.3768456676 -0.4589588662
H   -6.2763246544 -6.1126300757 -0.5253782607
C   -4.5740633949 -5.2427624070 -1.4908135620
C   -3.5638739839 -4.3025011131 -1.4072268364
Fe  -0.0021062469  0.0121789949  0.2392066053
C    3.5087592150 -3.4221739015 -0.3076610583
C    3.6852821212 -4.4593329789  0.6066660092
C    4.3703769091 -3.3306956001 -1.4005717703
C    4.7057104580 -5.3782292021  0.4324570474
C    5.3830614121 -4.2556444123 -1.5766529076
H    4.8479378865 -6.1718780635  1.1602445774
C    5.5574754407 -5.2786952289 -0.6570512123
H    6.0423173196 -4.1739980573 -2.4286856252
H    6.3542242060 -5.9972361668 -0.7891454598
C   -3.4871410793  3.4757003639 -0.0904638154
C   -4.4404103719  3.4775316958  0.9279766491
C   -3.5475943858  4.4704207656 -1.0673540072
C   -5.4136438470  4.4574864262  0.9772824742
C   -4.5268266756  5.4445033051 -1.0184497125
H   -6.1364749856  4.4531200383  1.7804768966
C   -5.4589533893  5.4455808979  0.0069123790
H   -4.5629655041  6.2063273006 -1.7834467506
H   -6.2172848094  6.2122244568  0.0487498416
H    5.9381510561  4.9923419647  1.5105821485
H    4.7019462762  5.6792023585 -2.5218405726
H   -6.1007178308 -4.6639421011  1.4666451790
H   -4.6469573310 -5.8718751310 -2.3646444014
H   -4.3921311448  2.7183198813  1.6946478354
H   -2.8322417758  4.4590609280 -1.8765350023
H    3.0319593476 -4.5277158403  1.4660625288
H    4.2294939831 -2.5357953622 -2.1173667857
H   -4.3096910582 -2.9795319553  1.6090179118
H   -2.8532319071 -4.1946898524 -2.2059851090
H    4.1897623981  3.2714276944  1.7540564421
H    2.9355993108  3.9783660266 -2.2627456416
Cl  -0.0236904537  0.0889752026  2.3776682063
78
aligned d3map frame 58
N   -0.0214471861  2.0693103036 -0.1514613626
N    2.0058571615 -0.0041959857 -0.1174184882
C   -2.4438264962  2.4280196044 -0.1508542370
C   -1.1258003531  2.8572623497 -0.0054258980
C   -0.7215675191  4.1912898711  0.3412307046
H   -1.3892038303  5.0018052613  0.5583200617
C    0.6328662499  4.1975742204  0.3859942462
H    1.2762669311  5.0166366791  0.6400852574
C    1.0703926786  2.8692834696  0.0585651777
C    2.3907905162  2.4521540822 -0.0337793839
C    2.7814980957  1.1051701327 -0.2939013591
C    4.0594413423  0.7337303029 -0.7581665928
H    4.8489204195  1.4112611757 -1.0199625477
C    4.0676229622 -0.6417740410 -0.8400717898
H    4.8652708776 -1.2687482772 -1.1861508861
C    2.7987247285 -1.0836080439 -0.4050949011
C    3.4761068690  3.4179794712  0.1646524528
C    4.4781026597  3.1346047505  1.0959970695
C    5.5001804675  4.0336278747  1.3251465302
C    5.5549679575  5.2230471622  0.6151270456
H    6.3585570762  5.9226578487  0.7911833261
C    4.5769870656  5.5064247933 -0.3238035083
C    3.5417145723  4.6164481518 -0.5452581440
N    0.0186951016 -2.0499059284 -0.0907514913
N   -2.0067390377 -0.0124747675 -0.1375151707
C    2.4257336468 -2.4440322604 -0.2457211288
C    1.1131413555 -2.8470406021  0.0146324916
C    0.7080608666 -4.1793695588  0.3792200093
H    1.3772435630 -4.9886871695  0.5968487267
C   -0.6462816675 -4.1801312259  0.4308926101
H   -1.3027540131 -4.9909806045  0.6832735984
C   -1.0759735347 -2.8491519223  0.1084384693
C   -2.3885762255 -2.4547177083 -0.0751716320
C   -2.7907451087 -1.1181889936 -0.3146589940
C   -4.0892636252 -0.7356284042 -0.7121145468
H   -4.8913713108 -1.4076854195 -0.9469600149
C   -4.0992443656  0.6405327504 -0.7468263794
H   -4.9104921582  1.2812715910 -1.0325442015
C   -2.8100238252  1.0690645804 -0.3558249717
C   -3.4282145122 -3.5044725309 -0.0669608033
C   -4.2862642009 -3.6545392502  1.0167174001
C   -5.2240605089 -4.6723133181  1.0262094580
C   -5.3262745358 -5.5356068630 -0.0513581616
H   -6.0585436795 -6.3296183937 -0.0430926906
C   -4.4853217095 -5.3803876465 -1.1416153120
C   -3.5352344285 -4.3762166225 -1.1463998552
Fe  -0.0021062469  0.0121789949  0.2392066053
C    3.4391499074 -3.4879595561 -0.4005675400
C    3.1722265154 -4.5879732443 -1.2224261696
C    4.6716109289 -3.4308334944  0.2530053616
C    4.1010682963 -5.5972005916 -1.3782868589
C    5.5970607644 -4.4444617937  0.0952892516
H    3.8744336276 -6.4377739023 -2.0186220092
C    5.3175973651 -5.5319235809 -0.7180219068
H    6.5438426436 -4.3932974198  0.6138510323
H    6.0422859325 -6.3231698783 -0.8357655517
C   -3.5410556528  3.3893196343 -0.0093417985
C   -3.5812972836  4.5863757984 -0.7258858702
C   -4.5834071404  3.1057081490  0.8771594381
C   -4.6297383942  5.4708272547 -0.5546353387
C   -5.6255656958  3.9941881143  1.0492032118
H   -4.6525953408  6.3910248266 -1.1197601626
C   -5.6528385726  5.1808033974  0.3338791533
H   -6.4179033922  3.7624827170  1.7454860029
H   -6.4688326227  5.8759104453  0.4670350447
H    6.2592388759  3.8087277321  2.0602458539
H    4.6215787422  6.4261479820 -0.8891985413
H   -5.8748571921 -4.7929765718  1.8797883208
H   -4.5662281066 -6.0487193666 -1.9865496131
H   -2.8002825676  4.8033459450 -1.4400417468
H   -4.5494464351  2.1898923173  1.4474707387
H    2.2340422783 -4.6279476963 -1.7565880338
H    4.8834866902 -2.5999687251  0.9104041788
H   -4.2001826684 -2.9801993401  1.8561823556
H   -2.8714417227 -4.2545615945 -1.9904105290
H    4.4279388390  2.2115681054  1.6541832011
H    2.7940084569  4.8328869340 -1.2944260459
Cl  -0.0251071699  0.0684041220  2.3784555419
78
aligned d3map frame 59
N   -0.0172663194  2.0612221191 -0.1720439797
N    2.0141438128  0.0140805352 -0.0824522742
C   -2.4549444968  2.4234482290 -0.2199207134
C   -1.1104905333  2.8508046972 -0.3707091944
C   -0.6983895746  4.1606438089 -0.7134549281
H   -1.3474601659  4.9744105995 -0.9733058466
C    0.6770185150  4.1657184847 -0.6780998925
H    1.3350828145  4.9845147372 -0.8927691533
C    1.0796534967  2.8565680753 -0.3253919245
C    2.4226028234  2.4407748301 -0.1677282265
C    2.8236843098  1.1137657384 -0.0145028793
C    4.1750568578  0.7029251926  0.2300499966
H    5.0063116411  1.3656593827  0.3667695830
C    4.1771782295 -0.6537281338  0.2665083030
H    5.0032168737 -1.3119465938  0.4383563766
C    2.8265256184 -1.0792797626  0.0585548076
C    3.4695728967  3.4716596210 -0.1682428491
C    3.4594996638  4.4984495032  0.7746083398
C    4.4822353518  5.4272874228  0.8044881686
C    5.5191089376  5.3556182907 -0.1117489515
H    6.3207862938  6.0799541651 -0.0812113906
C    5.5244145330  4.3535310674 -1.0688824885
C    4.5081355174  3.4171979642 -1.0979612408
N    0.0137434636 -2.0458855819 -0.1083787072
N   -2.0150040650 -0.0034444850 -0.1025709007
C    2.4433273410 -2.4093736554 -0.0677354466
C    1.1132420569 -2.8436196822 -0.2394237208
C    0.7130685194 -4.1820068896 -0.4728643565
H    1.3768364314 -5.0100347023 -0.6287568023
C   -0.6601247588 -4.1895889029 -0.4601293698
H   -1.3102648444 -5.0264130319 -0.6170804679
C   -1.0747020184 -2.8570123630 -0.2054239952
C   -2.4174538341 -2.4370513434 -0.0465039655
C   -2.8157529843 -1.1029267458  0.0514084033
C   -4.1599655593 -0.6850154644  0.3163531997
H   -4.9771659088 -1.3404151893  0.5386849243
C   -4.1708516533  0.6722034801  0.2708303585
H   -4.9994445030  1.3268798952  0.4533155354
C   -2.8332579119  1.0935008132 -0.0222442093
C   -3.4467000262 -3.4813709990  0.0307352992
C   -3.3484503800 -4.4882186004  0.9924924704
C   -4.3207792274 -5.4651491906  1.0867711268
C   -5.3959920401 -5.4646555701  0.2123933182
H   -6.1531105561 -6.2314563065  0.2820999510
C   -5.4960937510 -4.4770325578 -0.7543914070
C   -4.5340625981 -3.4882641893 -0.8419558799
Fe  -0.0021062469  0.0121789949  0.2392066053
C    3.5180848525 -3.4251768521  0.0091498532
C    4.0904456626 -3.9482482454 -1.1463716932
C    4.0068397541 -3.8234335425  1.2491452735
C    5.1429044538 -4.8425645222 -1.0612698527
C    5.0587478595 -4.7196532598  1.3299507749
H    5.5897845078 -5.2321382526 -1.9645709545
C    5.6326905659 -5.2263355115  0.1763609131
H    5.4399189348 -5.0133731301  2.2985701602
H    6.4626675579 -5.9147969558  0.2397538801
C   -3.5087861308  3.4428030165 -0.2858911873
C   -4.5982773325  3.2811682326 -1.1457684379
C   -3.4476899969  4.5928214059  0.5043699674
C   -5.5949539134  4.2344813510 -1.2093608509
C   -4.4488944004  5.5431596122  0.4408226274
H   -6.4293480061  4.0986897548 -1.8835473467
C   -5.5270435230  5.3690263512 -0.4138163886
H   -4.3915986705  6.4252846061  1.0641627923
H   -6.3070640926  6.1138728542 -0.4597745018
H    4.4785482117  6.2107539524  1.5503105215
H    6.3232572204  4.3021795719 -1.7948104205
H   -4.2408174191 -6.2295396529  1.8466069146
H   -6.3283264585 -4.4785755608 -1.4436984035
H   -4.6427995810  2.4087763619 -1.7818956307
H   -2.6201966024  4.7196423678  1.1873497167
H    3.7189521215 -3.6309948288 -2.1106577922
H    3.5617208806 -3.4174123218  2.1455191790
H   -2.5130871720 -4.4749956505  1.6770344407
H   -4.6057529859 -2.7249126049 -1.6035854752
H    2.6611210147  4.5411217607  1.5007535847
H    4.4957324430  2.6414103628 -1.8515114353
Cl  -0.0071452051  0.0456691178  2.3797094859
78
aligned d3map frame 60
N    0.0015062589  2.0623446757 -0.1670468900
N    2.0103898185  0.0248485797 -0.1045989170
C   -2.4408797072  2.4297833319 -0.2063386570
C   -1.0918823726  2.8450039230 -0.3735528223
C   -0.6887601660  4.1485720739 -0.7449715566
H   -1.3425994107  4.9548562278 -1.0140399588
C    0.6873376069  4.1591057784 -0.7212181365
H    1.3402696997  4.9755904644 -0.9583115714
C    1.0944637788  2.8616028038 -0.3386807362
C    2.4353649363  2.4475830113 -0.1561121889
C    2.8214657800  1.1236804001  0.0216989940
C    4.1701022897  0.7010412351  0.2613471202
H    4.9941389907  1.3554091042  0.4691083228
C    4.1762523706 -0.6539762951  0.1954904627
H    5.0052698560 -1.3163244956  0.3478126412
C    2.8279836209 -1.0674591661 -0.0692147661
C    3.4951517227  3.4634984030 -0.2269589639
C    3.5105326446  4.5530916481  0.6410836912
C    4.5370998352  5.4776530496  0.5830804737
C    5.5495682515  5.3412830979 -0.3527542127
H    6.3504059907  6.0646047968 -0.3955420556
C    5.5314425572  4.2722023557 -1.2343191109
C    4.5168812239  3.3366358873 -1.1684288449
N    0.0304157137 -2.0473847264 -0.1004184902
N   -2.0148698631  0.0052508911 -0.1182052957
C    2.4583849419 -2.3950757444 -0.3007952171
C    1.1149511691 -2.8441689784 -0.3273210482
C    0.6920672532 -4.1736748261 -0.5625943890
H    1.3261547488 -5.0021390076 -0.8071374644
C   -0.6773550625 -4.1822338059 -0.4347283263
H   -1.3401026155 -5.0169813088 -0.5517569351
C   -1.0673957800 -2.8533668769 -0.1495382215
C   -2.4090930660 -2.4248588999  0.0122036182
C   -2.8171884608 -1.0959111975  0.0402625664
C   -4.1743362331 -0.6763126378  0.2381918211
H   -5.0020494761 -1.3334869548  0.4199425776
C   -4.1849931697  0.6777804755  0.1775432661
H   -5.0233465802  1.3330697605  0.3071309858
C   -2.8347429211  1.1009763240 -0.0636232611
C   -3.4305445787 -3.4772791268  0.1401499797
C   -3.3667451902 -4.3815213988  1.1990275654
C   -4.3280681681 -5.3647038216  1.3391035246
C   -5.3542456850 -5.4734734390  0.4143935723
H   -6.1008103319 -6.2466165651  0.5211282507
C   -5.4165377193 -4.5887943049 -0.6503058852
C   -4.4673814433 -3.5923036184 -0.7840002052
Fe  -0.0021062469  0.0121789949  0.2392066053
C    3.5501329206 -3.3268119900 -0.6049440767
C    4.4572291489 -2.9702002028 -1.6091940489
C    3.7369231943 -4.5371767846  0.0598518016
C    5.5165145558 -3.7928222878 -1.9351967011
C    4.8011224517 -5.3583897236 -0.2688415330
H    6.2056314035 -3.4965124241 -2.7133177460
C    5.6938435214 -4.9922451806 -1.2637939196
H    4.9412977578 -6.2895950951  0.2607459240
H    6.5257427052 -5.6345896029 -1.5132966312
C   -3.4461327385  3.4953738388 -0.1223394082
C   -4.5829870773  3.5136294036 -0.9298820353
C   -3.2636498481  4.5294782703  0.7988962058
C   -5.5119478498  4.5307977660 -0.8100391022
C   -4.1978112355  5.5385538918  0.9208345063
H   -6.3855033085  4.5361594566 -1.4455429166
C   -5.3271656605  5.5428509814  0.1175713827
H   -4.0461290473  6.3246907325  1.6456262303
H   -6.0572034206  6.3326274078  0.2132023056
H    4.5507657392  6.3073718370  1.2743870871
H    6.3118838360  4.1658596248 -1.9738132508
H   -4.2787233686 -6.0474606954  2.1746507715
H   -6.2084774531 -4.6762946841 -1.3798209359
H   -4.7196586849  2.7403427260 -1.6719427641
H   -2.3908464794  4.5154818973  1.4347436379
H    4.3092275866 -2.0415029374 -2.1411496449
H    3.0670353186 -4.8148361388  0.8606344328
H   -2.5695388984 -4.2897484871  1.9215409355
H   -4.5096848499 -2.9077165448 -1.6189676644
H    2.7278099195  4.6515672489  1.3786126739
H    4.4960129384  2.5057617163 -1.8596395960
Cl  -0.0405627131  0.0467133240  2.3799091666
78
aligned d3map frame 61
N   -0.0109259351  2.0565021201 -0.1950720989
N    2.0095198267  0.0194837829 -0.1094973931
C   -2.4351316255  2.4064700803 -0.4356747786
C   -1.0869105140  2.8348952604 -0.5053558254
C   -0.6521808775  4.1380834892 -0.8472607708
H   -1.2798200461  4.9398067317 -1.1817045209
C    0.7146970898  4.1545533609 -0.6880460602
H    1.3883524489  4.9726716083 -0.8525679282
C    1.0878451490  2.8549678488 -0.2815428497
C    2.4186813726  2.4381767769 -0.0230368637
C    2.8173534106  1.1171290862  0.0652065855
C    4.1810361490  0.6919017106  0.2003252516
H    5.0103571598  1.3477788122  0.3806969858
C    4.1905259743 -0.6546919746  0.0463150798
H    5.0327188739 -1.3165855349  0.0973887377
C    2.8306335397 -1.0672754368 -0.1655515996
C    3.4510839358  3.4958136950  0.0512358344
C    3.6629245213  4.1860744020  1.2390601076
C    4.6283890541  5.1752240161  1.3061263412
C    5.3821363536  5.4913027987  0.1888143462
H    6.1328595822  6.2659224465  0.2421927157
C    5.1712706645  4.8104196687 -0.9985075331
C    4.2142640644  3.8144775112 -1.0675932069
N    0.0131673117 -2.0409192875 -0.1307098728
N   -2.0105259741 -0.0049596877 -0.1284050193
C    2.4398249604 -2.3878131672 -0.4016670490
C    1.0919551464 -2.8236065556 -0.4235270135
C    0.6606912919 -4.1395057052 -0.7163718920
H    1.2875650220 -4.9516656300 -1.0267220368
C   -0.7056310611 -4.1543326576 -0.5514664716
H   -1.3731869772 -4.9818301266 -0.7003160595
C   -1.0848991655 -2.8452284058 -0.1802290241
C   -2.4235699839 -2.4221397805  0.0473235596
C   -2.8194837712 -1.0908731776  0.0976911470
C   -4.1672203891 -0.6446410912  0.3048339348
H   -4.9934532609 -1.2750867113  0.5682073464
C   -4.1727805474  0.6995859887  0.1236732122
H   -5.0038441205  1.3715522593  0.2120141127
C   -2.8234018587  1.0927178555 -0.1641407287
C   -3.4471990774 -3.4698600703  0.1505365581
C   -3.3204095543 -4.4907450716  1.0924931926
C   -4.2857594742 -5.4737677510  1.1961105977
C   -5.3840889471 -5.4657161451  0.3518568199
H   -6.1353614731 -6.2370983080  0.4299956366
C   -5.5118183420 -4.4655123110 -0.5979175827
C   -4.5546757471 -3.4736850689 -0.6970229868
Fe  -0.0021062469  0.0121789949  0.2392066053
C    3.4913985012 -3.3743426962 -0.6776000310
C    3.5999760354 -4.5611565087  0.0482742831
C    4.4033225138 -3.1330389067 -1.7077878965
C    4.5912671669 -5.4784909523 -0.2493891652
C    5.3856217874 -4.0563461159 -2.0107678387
H    4.6674432325 -6.3900727849  0.3260999407
C    5.4856322279 -5.2333985996 -1.2795760085
H    6.0779350230 -3.8566416382 -2.8146810388
H    6.2527072616 -5.9563065201 -1.5151822993
C   -3.4897984838  3.4014882225 -0.6643961489
C   -4.4687405386  3.1679741330 -1.6317346173
C   -3.5368145357  4.5912807885  0.0620678876
C   -5.4586042844  4.1009874748 -1.8716245551
C   -4.5351964452  5.5172017313 -0.1737784875
H   -6.2024937516  3.9110734400 -2.6315438251
C   -5.4967352448  5.2785356033 -1.1424716627
H   -4.5655611249  6.4309374926  0.4019518353
H   -6.2724460713  6.0063718111 -1.3279730472
H    4.7918820882  5.7010068513  2.2354130680
H    5.7541109219  5.0545081514 -1.8751021582
H   -4.1818735044 -6.2515949880  1.9373332004
H   -6.3596897065 -4.4599110937 -1.2665636012
H   -4.4281455356  2.2563622912 -2.2097371818
H   -2.7991599399  4.7698961907  0.8301219317
H    2.9166346505 -4.7466589321  0.8635165727
H    4.3227246716 -2.2216370421 -2.2778468149
H   -2.4694594221 -4.4897290137  1.7566680043
H   -4.6441271445 -2.7071257339 -1.4530181624
H    3.0731801528  3.9368059391  2.1089644536
H    4.0456819407  3.2796596175 -1.9908149184
Cl   0.0023408523 -0.0234482850  2.3767811373
78
aligned d3map frame 62
N   -0.0006088604  2.0632876348 -0.1583498126
N    2.0130935896  0.0203421367 -0.0991849010
C   -2.4424611628  2.4130660478 -0.2273502295
C   -1.1000877341  2.8554547487 -0.3240926058
C   -0.6994867659  4.1841318910 -0.5877392409
H   -1.3540983304  5.0095403786 -0.7892972610
C    0.6777427068  4.1955034327 -0.5566159966
H    1.3267186703  5.0314683580 -0.7254748467
C    1.0867015195  2.8734722336 -0.2735970855
C    2.4384084050  2.4444709315 -0.1643405983
C    2.8319158630  1.1172041516 -0.0623555465
C    4.2007654018  0.6919562938  0.0672634518
H    5.0403251748  1.3532711352  0.1600704184
C    4.1984531415 -0.6610716887  0.0668323710
H    5.0351532334 -1.3289346581  0.1369365389
C    2.8291946024 -1.0800607922 -0.0492197020
C    3.4800426698  3.4828230080 -0.1984845190
C    3.5111950064  4.4852146144  0.7686319630
C    4.5023545613  5.4488870883  0.7461535079
C    5.4638814321  5.4396725279 -0.2523430511
H    6.2358300031  6.1948653985 -0.2707664686
C    5.4298618932  4.4565339027 -1.2278614288
C    4.4506539877  3.4806976247 -1.1989479579
N    0.0108875379 -2.0461968537 -0.0954802705
N   -2.0156240942 -0.0170661882 -0.1165350580
C    2.4422106590 -2.4059080766 -0.1667665490
C    1.1032610127 -2.8462997454 -0.2681756685
C    0.6958402194 -4.1833529243 -0.4673589836
H    1.3491556226 -5.0141349808 -0.6462922418
C   -0.6793248881 -4.1905416544 -0.3837941404
H   -1.3373185510 -5.0289608313 -0.5005905399
C   -1.0756837761 -2.8597132405 -0.1286165941
C   -2.4204629114 -2.4362405137  0.0830298925
C   -2.8237542169 -1.1088074010  0.0803387084
C   -4.1783659443 -0.6717168402  0.2849368413
H   -5.0041363964 -1.3170930662  0.5097820829
C   -4.1831599754  0.6760805952  0.1659260861
H   -5.0134765876  1.3450233803  0.2721193607
C   -2.8285690502  1.0844711156 -0.0857238943
C   -3.3978904197 -3.4926457992  0.3707091955
C   -3.1539183735 -4.3563938413  1.4396596434
C   -4.0658091667 -5.3385787943  1.7737646755
C   -5.2290883512 -5.4908440587  1.0348556737
H   -5.9389213226 -6.2621296886  1.2974499933
C   -5.4697120639 -4.6531414936 -0.0424276315
C   -4.5675378605 -3.6580412856 -0.3713496619
Fe  -0.0021062469  0.0121789949  0.2392066053
C    3.4965937422 -3.4438910362 -0.1478425079
C    4.0392241779 -3.8569462287  1.0650995395
C    3.9572387843 -4.0143488743 -1.3287604855
C    5.0240939816 -4.8276675872  1.0923824533
C    4.9515056355 -4.9773704286 -1.2977603857
H    5.4380313024 -5.1470379616  2.0372653146
C    5.4871871015 -5.3870558267 -0.0882657043
H    5.3088481111 -5.4079474374 -2.2220311582
H    6.2606422709 -6.1397839054 -0.0655527208
C   -3.4947205755  3.4419961952 -0.2457853136
C   -3.5270811226  4.4380798595  0.7287647525
C   -4.4817354648  3.4302003149 -1.2306705677
C   -4.5312432925  5.3874985997  0.7241743529
C   -5.4722774384  4.3938255168 -1.2425850587
H   -4.5589984232  6.1412667461  1.4963522435
C   -5.5048739968  5.3717294216 -0.2616181075
H   -6.2225643277  4.3811594856 -2.0207463692
H   -6.2833815490  6.1185827740 -0.2647611992
H    4.5262209218  6.2117078963  1.5107391335
H    6.1698288451  4.4486135433 -2.0145176034
H   -3.8696199978 -5.9875608834  2.6148172411
H   -6.3686558849 -4.7755406251 -0.6301463031
H   -2.7720349781  4.4411456724  1.5011910334
H   -4.4514687462  2.6687598879 -1.9976070826
H    3.6805423579 -3.4158727716  1.9838921157
H    3.5375731927 -3.6920329143 -2.2708256588
H   -2.2522794434 -4.2270821941  2.0207052986
H   -4.7511418144 -3.0194022847 -1.2236146392
H    2.7669244276  4.4879814784  1.5508469990
H    4.4167682302  2.7190481700 -1.9644932863
Cl  -0.0534763474  0.0505231485  2.3774446681
78
aligned d3map frame 63
N   -0.0097379362  2.0586190661 -0.1843243057
N    2.0103649727  0.0366597583 -0.0933660699
C   -2.4072658209  2.4016283361 -0.5713483408
C   -1.1004621545  2.8497787444 -0.3729264020
C   -0.7082218188  4.2304593796 -0.2938597531
H   -1.3723054645  5.0682492687 -0.3884717706
C    0.6267182349  4.2514319604 -0.0591163642
H    1.2619295696  5.1090113353  0.0504895449
C    1.0643024775  2.8846749834 -0.0047868120
C    2.3893360603  2.4792609759  0.0710379512
C    2.8237186443  1.1324913214 -0.0555101162
C    4.1747222649  0.7397309067 -0.1882719889
H    5.0210494134  1.3971221386 -0.1706350828
C    4.1765322426 -0.6274482274 -0.3378403544
H    5.0237741395 -1.2677832325 -0.4840601302
C    2.8289819030 -1.0481172683 -0.2605252973
C    3.4008878776  3.5448946847  0.1999810550
C    3.4482639798  4.3128718892  1.3615100635
C    4.3411589944  5.3633514468  1.4705791300
C    5.1831890784  5.6729391506  0.4170525036
H    5.8633114790  6.5084453003  0.4944389294
C    5.1465595983  4.9100260059 -0.7395548003
C    4.2684006660  3.8477298535 -0.8461715591
N   -0.0042397165 -2.0460625377 -0.1183420768
N   -2.0101493557 -0.0068085497 -0.1149534268
C    2.4192288019 -2.3989705308 -0.3002067016
C    1.1072267177 -2.8359293288 -0.1602617485
C    0.7352873292 -4.2015871526  0.0742006309
H    1.4188663380 -5.0277492787  0.1079675340
C   -0.6023499863 -4.2148991749  0.2965870213
H   -1.2118462515 -5.0559443207  0.5617094301
C   -1.0678704831 -2.8650120787  0.1360383701
C   -2.3942657845 -2.4483046827  0.1884732861
C   -2.8092780991 -1.1096529537 -0.0747216661
C   -4.1270358936 -0.7647849063 -0.4433136560
H   -4.9491221797 -1.4491389777 -0.5358217949
C   -4.1239467342  0.5845093827 -0.7139699642
H   -4.9458047535  1.1808855236 -1.0575462457
C   -2.8096089038  1.0466616712 -0.4747078872
C   -3.4419042172 -3.4308091877  0.4802899247
C   -4.3411614477 -3.1886795914  1.5210110465
C   -5.2883159865 -4.1329106905  1.8621621435
C   -5.3729891704 -5.3259591759  1.1599504955
H   -6.1098969846 -6.0668125685  1.4328287260
C   -4.5130142377 -5.5593032276  0.1012624995
C   -3.5545612119 -4.6222031974 -0.2368621821
Fe  -0.0021062469  0.0121789949  0.2392066053
C    3.4730542830 -3.4246298161 -0.4510314058
C    4.3499072570 -3.7103185494  0.5909818733
C    3.5971136758 -4.1150302191 -1.6527624885
C    5.3259203925 -4.6733335447  0.4341528357
C    4.5873838282 -5.0634406771 -1.8127607454
H    5.9932375591 -4.8950636636  1.2524986864
C    5.4508307239 -5.3478096057 -0.7695177862
H    4.6846994307 -5.5830831825 -2.7551152220
H    6.2189238156 -6.0906983123 -0.8953338625
C   -3.4287821279  3.4123780978 -0.8782584295
C   -4.5728282740  3.5498148887 -0.0942927274
C   -3.2546351831  4.2705108975 -1.9639616725
C   -5.5097552764  4.5213479490 -0.3836971093
C   -4.1985003108  5.2329950886 -2.2557459037
H   -6.3852518491  4.6210213392  0.2398865960
C   -5.3280287014  5.3654322683 -1.4639213640
H   -4.0566125327  5.8827925018 -3.1066612482
H   -6.0631852063  6.1250903656 -1.6919497518
H    4.3715377436  5.9514935923  2.3758584695
H    5.7935195739  5.1526985168 -1.5682962607
H   -5.9612792222 -3.9433029485  2.6843091435
H   -4.5865201299 -6.4783564514 -0.4627494588
H   -4.7070075790  2.9046483796  0.7629809110
H   -2.3823323566  4.1617646879 -2.5897516253
H    4.2475928060 -3.1837530539  1.5283421032
H    2.9184958116 -3.8933655514 -2.4634515323
H   -4.2642369760 -2.2660863572  2.0772248948
H   -2.9034121756 -4.7971857767 -1.0800738527
H    2.7828036386  4.0736799949  2.1780269979
H    4.2251157071  3.2630405545 -1.7542204853
Cl  -0.0102033201  0.0131050651  2.3792799624
78
aligned d3map frame 64
N   -0.0158594962  2.0545240682 -0.2031550558
N    2.0127183140  0.0163690400 -0.0877063921
C   -2.4554089291  2.4183362384 -0.1470242905
C   -1.1171312717  2.8389860274 -0.3791045150
C   -0.7251609431  4.1267192263 -0.8096945473
H   -1.3841303818  4.9305574356 -1.0730534285
C    0.6524004893  4.1274074255 -0.8509412547
H    1.2964000324  4.9337700213 -1.1395371805
C    1.0714125422  2.8379918863 -0.4555276430
C    2.4236525980  2.4294040697 -0.3242147050
C    2.8257921407  1.1146092861 -0.1140155839
C    4.1877437967  0.7083296732  0.1047734994
H    5.0244510921  1.3766410719  0.1550859405
C    4.1852574721 -0.6381613282  0.2407378825
H    5.0188097463 -1.2933954903  0.4161095188
C    2.8232712818 -1.0719751730  0.0948929593
C    3.4659387607  3.4674061871 -0.3815163664
C    3.4937016111  4.4793811030  0.5779188993
C    4.5147564904  5.4109482366  0.5865301180
C    5.5098576358  5.3623319364 -0.3766010669
H    6.3116615297  6.0865587632 -0.3638546714
C    5.4735204159  4.3802281959 -1.3536599366
C    4.4652838748  3.4332923875 -1.3527542058
N    0.0112047935 -2.0406855188 -0.1397304331
N   -2.0146964142 -0.0050765776 -0.1081932871
C    2.4402808081 -2.4013463981 -0.0016715632
C    1.1149012062 -2.8344731981 -0.2563653930
C    0.7308923966 -4.1455707422 -0.6097871612
H    1.3952368264 -4.9711400346 -0.7778474984
C   -0.6424858047 -4.1432289735 -0.6914059549
H   -1.2793652930 -4.9605080242 -0.9660139336
C   -1.0700153105 -2.8369247126 -0.3600086963
C   -2.4206566348 -2.4337991622 -0.1844670962
C   -2.8140683293 -1.1124767983  0.0166071879
C   -4.1460636731 -0.7040750796  0.3618910594
H   -4.9590319221 -1.3667991264  0.5866942722
C   -4.1508633650  0.6521928543  0.3939840509
H   -4.9674177955  1.2977324727  0.6558432723
C   -2.8232250637  1.0880136334  0.0565598371
C   -3.4509534086 -3.4778111662 -0.1865936730
C   -3.3366521489 -4.5951815339  0.6417333160
C   -4.3164826289 -5.5690913536  0.6465359829
C   -5.4235382798 -5.4522858222 -0.1792954218
H   -6.1899669890 -6.2131197396 -0.1729639967
C   -5.5454892436 -4.3497435272 -1.0105632744
C   -4.5708463401 -3.3705981436 -1.0135193635
Fe  -0.0021062469  0.0121789949  0.2392066053
C    3.4848601647 -3.4325153656  0.1640362828
C    3.9805768034 -4.1485953388 -0.9201352004
C    3.9976021249 -3.6801563540  1.4350737110
C    4.9767893876 -5.0913740824 -0.7347253912
C    4.9850049679 -4.6308735761  1.6176096460
H    5.3662331682 -5.6340080043 -1.5843854948
C    5.4792870684 -5.3360501851  0.5326218519
H    5.3709244446 -4.8210212435  2.6089591761
H    6.2572021715 -6.0721067168  0.6720396375
C   -3.5109721446  3.4363890169 -0.1671956972
C   -4.6573315665  3.2472568148 -0.9422979692
C   -3.4000252619  4.6092993881  0.5811424685
C   -5.6665820347  4.1891120343 -0.9532709459
C   -4.4072310463  5.5552635253  0.5598348772
H   -6.5533251204  4.0242655563 -1.5502482867
C   -5.5446213466  5.3485229472 -0.2036341699
H   -4.3077863469  6.4600820256  1.1406114958
H   -6.3319831278  6.0875486211 -0.2145870996
H    4.5406124453  6.1728697785  1.3522704538
H    6.2378400888  4.3497170146 -2.1174895670
H   -4.2235726930 -6.4236596208  1.3075566020
H   -6.4060627489 -4.2538147172 -1.6574472332
H   -4.7375133150  2.3598918165 -1.5536558547
H   -2.5274301479  4.7594663837  1.1968087079
H    3.5952725410 -3.9517921310 -1.9100083207
H    3.6078482034 -3.1241885966  2.2749376117
H   -2.4856129043 -4.6762737044  1.3018618927
H   -4.6574397178 -2.5209471739 -1.6750804085
H    2.7213534746  4.5080982922  1.3319984685
H    4.4341792095  2.6670730779 -2.1164021379
Cl  -0.0362820655  0.0451594923  2.3775490233
78
aligned d3map frame 65
N   -0.0084900901  2.0585052047 -0.1980484351
N    2.0114320829  0.0324003549 -0.0720164648
C   -2.4245455674  2.4178657308 -0.4555640093
C   -1.1052826900  2.8533179608 -0.3216020245
C   -0.7177597119  4.2301152638 -0.1823162793
H   -1.3897588477  5.0651416630 -0.2051109823
C    0.6183300097  4.2465434762  0.0360753157
H    1.2404039343  5.1004081268  0.2224209660
C    1.0651376671  2.8824986913  0.0007785300
C    2.3856475648  2.4755790949  0.1365034447
C    2.8208176601  1.1259805959  0.0557952096
C    4.1749103785  0.7357680097 -0.0363610951
H    5.0190547704  1.3946860688  0.0247269259
C    4.1828466785 -0.6239435212 -0.2402671932
H    5.0417625298 -1.2586433887 -0.3378049632
C    2.8327015817 -1.0432850876 -0.2675943880
C    3.4135999069  3.5233050812  0.2506871911
C    4.2596177265  3.5932045190  1.3548132215
C    5.1908786508  4.6106213995  1.4526738366
C    5.3051198980  5.5598399002  0.4494323626
H    6.0322230918  6.3546115136  0.5336166439
C    4.4819996925  5.4837193732 -0.6619456137
C    3.5418416641  4.4760191914 -0.7599613233
N    0.0090345056 -2.0447752263 -0.1313300628
N   -2.0126160769  0.0012119333 -0.0911219154
C    2.4216118312 -2.3936471177 -0.4095505104
C    1.1069642568 -2.8394502312 -0.2839819304
C    0.7023708379 -4.2180880658 -0.2589342910
H    1.3520673739 -5.0575344760 -0.3987846515
C   -0.6274650852 -4.2368323879 -0.0038727825
H   -1.2642880811 -5.0924178928  0.1248457072
C   -1.0674765416 -2.8703850515  0.0373212210
C   -2.3843753165 -2.4447545300  0.1810927123
C   -2.8121288477 -1.0998767046 -0.0099726718
C   -4.1518544849 -0.7405838275 -0.2571749848
H   -4.9877918074 -1.4112345183 -0.2897547898
C   -4.1631067143  0.6150177395 -0.4978149265
H   -5.0062553246  1.2213671129 -0.7616496455
C   -2.8308026671  1.0642069367 -0.3596715193
C   -3.4344161802 -3.4037084630  0.5490876407
C   -4.1871327729 -3.1399585426  1.6947671374
C   -5.1631702815 -4.0223764007  2.1156772230
C   -5.4094877617 -5.1819614034  1.3967253975
H   -6.1693531843 -5.8762820871  1.7264990190
C   -4.6864467669 -5.4411520195  0.2433341270
C   -3.7103453346 -4.5584323772 -0.1820638517
Fe  -0.0021062469  0.0121789949  0.2392066053
C    3.4792132457 -3.3769873258 -0.7011403675
C    3.7507335793 -4.4496217147  0.1466089865
C    4.2365069956 -3.2349077779 -1.8638210711
C    4.7385894262 -5.3638544832 -0.1700557763
C    5.2239446198 -4.1489075779 -2.1783979181
H    4.9351022865 -6.1925712254  0.4940146343
C    5.4764438637 -5.2171247618 -1.3337697995
H    5.7991019264 -4.0277055036 -3.0857279363
H    6.2462244911 -5.9333138502 -1.5796722616
C   -3.4596947973  3.4455095315 -0.6250330073
C   -4.5217946044  3.5519371454  0.2728234409
C   -3.3733919378  4.3650452208 -1.6707464171
C   -5.4580644259  4.5597050947  0.1356439228
C   -4.3161790904  5.3662747909 -1.8107358961
H   -6.2663269046  4.6401614363  0.8474417299
C   -5.3577084795  5.4719904671 -0.9038378984
H   -4.2361491021  6.0699615976 -2.6261438960
H   -6.0872336778  6.2637237509 -1.0010688273
H    5.8342062427  4.6685265336  2.3200481694
H    4.5713960755  6.2113893990 -1.4547369882
H   -5.7332112380 -3.8074011432  3.0075816413
H   -4.8917754344 -6.3361984593 -0.3382719472
H   -4.5868818694  2.8552158848  1.0968950891
H   -2.5647688819  4.2786817109 -2.3818978589
H    3.1930155712 -4.5475871962  1.0680653388
H    4.0326227085 -2.4058861349 -2.5250398228
H   -3.9846494519 -2.2429507826  2.2620754344
H   -3.1823095805 -4.7401268324 -1.1076032193
H    4.1614506594  2.8633783005  2.1439432545
H    2.9074041813  4.4049681746 -1.6306640929
Cl  -0.0324115144  0.0223612652  2.3784479778
78
aligned d3map frame 66
N   -0.0247443317  2.0664188756 -0.1646035142
N    2.0128289373  0.0128653934 -0.0882126478
C   -2.4442242546  2.4432684335 -0.1300356671
C   -1.1200434536  2.8723953272 -0.0613703893
C   -0.7008029250  4.2338566916  0.1242154493
H   -1.3597125625  5.0647926056  0.2849400367
C    0.6544079226  4.2392624741  0.0927234007
H    1.3156744926  5.0767328748  0.2052529378
C    1.0734589419  2.8788398903 -0.0874709733
C    2.3953843297  2.4655406856 -0.1445536179
C    2.8146059126  1.1139329020 -0.2109543873
C    4.1496894918  0.7204229535 -0.4467157483
H    4.9753495405  1.3833119052 -0.6072398342
C    4.1603745193 -0.6545747016 -0.4650977249
H    4.9986981356 -1.3002690171 -0.6381567443
C    2.8306833455 -1.0752105471 -0.2329649714
C    3.4417607291  3.5048988730 -0.2023775606
C    4.3651022384  3.6666317874  0.8269945201
C    5.3391527994  4.6458200568  0.7409026367
C    5.4153784679  5.4620884003 -0.3768007737
H    6.1839355523  6.2177034361 -0.4442566385
C    4.4995463756  5.3058314817 -1.4047117353
C    3.5139438279  4.3411398227 -1.3160943998
N    0.0068969575 -2.0495219886 -0.1007528546
N   -2.0133335950 -0.0041063933 -0.1111104856
C    2.4245219794 -2.4318760484 -0.2095508612
C    1.1023388970 -2.8566474359 -0.1030636683
C    0.6945106245 -4.2284296309  0.0307092771
H    1.3629109133 -5.0649516986  0.0823748681
C   -0.6588685248 -4.2328888014  0.1071536342
H   -1.3185093541 -5.0717242256  0.2131276072
C   -1.0864871262 -2.8661968964  0.0095110551
C   -2.4044785363 -2.4527564437 -0.0692437904
C   -2.8141183826 -1.1071776544 -0.2392206441
C   -4.1426266405 -0.7154006479 -0.5100030244
H   -4.9666219326 -1.3807847665 -0.6736487064
C   -4.1498594542  0.6598367509 -0.5356668746
H   -4.9814583725  1.3032174896 -0.7409455117
C   -2.8298600071  1.0812951002 -0.2548829975
C   -3.4742257640 -3.4679758912  0.0586116532
C   -3.8195308054 -3.9260258998  1.3278377875
C   -4.8426082281 -4.8429814880  1.4845045528
C   -5.5230689823 -5.3210323376  0.3758939496
H   -6.3238237191 -6.0356683603  0.5002787442
C   -5.1758988970 -4.8786120452 -0.8894737451
C   -4.1589814301 -3.9524500262 -1.0491514895
Fe  -0.0021062469  0.0121789949  0.2392066053
C    3.4618602513 -3.4622148729 -0.3847247887
C    4.5033645112 -3.6147577562  0.5298045618
C    3.4178303287 -4.2956347142 -1.4999023540
C    5.4703037068 -4.5817228437  0.3308129669
C    4.3996485631 -5.2482401453 -1.7066181243
H    6.2649352162 -4.7044386114  1.0529568184
C    5.4271782532 -5.3955955589 -0.7914537946
H    4.3647210768 -5.8740007352 -2.5859385909
H    6.1965190817 -6.1383608432 -0.9512116106
C   -3.5229869872  3.4336623329 -0.0530832312
C   -4.5392116625  3.2804742693  0.8923985144
C   -3.5670561011  4.5335841419 -0.9112091977
C   -5.5651315732  4.2004725300  0.9782772636
C   -4.5977796298  5.4509001455 -0.8238772572
H   -6.3419486849  4.0727075343  1.7176792886
C   -5.5988185965  5.2885267582  0.1197977562
H   -4.6158672179  6.2974214246 -1.4933258962
H   -6.4007397541  6.0081506638  0.1856472506
H    6.0425903464  4.7733664380  1.5518965196
H    4.5521879610  5.9396864545 -2.2789184300
H   -5.1138393895 -5.1814158151  2.4727543203
H   -5.7030141956 -5.2524156771 -1.7548514291
H   -4.5033144362  2.4429812802  1.5732540584
H   -2.8008532150  4.6439231674 -1.6647636956
H    4.5287333732 -2.9825693601  1.4052112585
H    2.6180725107 -4.1752871923 -2.2148539011
H   -3.2858448339 -3.5448419729  2.1860889918
H   -3.8890241692 -3.6036425788 -2.0355831417
H    4.2984225841  3.0362188135  1.7049971408
H    2.8009413599  4.2130158779 -2.1182400378
Cl  -0.0234086846  0.0530981247  2.3790557733
78
aligned d3map frame 67
N   -0.0081229209  2.0614634952 -0.1860245204
N    2.0137933858  0.0261085177 -0.0804234115
C   -2.4332037159  2.4325145763 -0.3148295954
C   -1.1140430451  2.8611721888 -0.2055927147
C   -0.7185515041  4.2330337764 -0.0437785703
H   -1.3906908797  5.0670749379  0.0162007307
C    0.6315678947  4.2460768593  0.0642709274
H    1.2672906656  5.0919268021  0.2393613055
C    1.0745496474  2.8835520713 -0.0586251501
C    2.4067542152  2.4797437471 -0.0812164788
C    2.8249418011  1.1249164503 -0.1608157817
C    4.1584341157  0.7276377507 -0.4106294660
H    4.9887003083  1.3904263426 -0.5518713240
C    4.1583561749 -0.6463716009 -0.4675815712
H    4.9920976998 -1.2946241812 -0.6539218302
C    2.8253229922 -1.0625261621 -0.2541445576
C    3.4368635645  3.5266875153 -0.0992806399
C    4.4744535815  3.5456379731  0.8337577819
C    5.3982742613  4.5755051146  0.8328203526
C    5.3158083209  5.5922359741 -0.1054403217
H    6.0311207749  6.4015391885 -0.0958855217
C    4.3087610468  5.5670350950 -1.0579317455
C    3.3771514226  4.5452521236 -1.0533383908
N    0.0093702576 -2.0468539306 -0.1209635696
N   -2.0156325370 -0.0051847231 -0.0995328786
C    2.4226274448 -2.4207754968 -0.2557041910
C    1.1071053825 -2.8540468854 -0.1710472480
C    0.7007631796 -4.2312589948 -0.0932683586
H    1.3703883102 -5.0690137319 -0.1014839120
C   -0.6499866072 -4.2387941300  0.0053604658
H   -1.3103193796 -5.0808775544  0.0899041892
C   -1.0774598249 -2.8672110948 -0.0226385199
C   -2.3998583536 -2.4568749070 -0.0347137540
C   -2.8216172245 -1.1111165613 -0.1446720897
C   -4.1623706453 -0.7295432181 -0.3688477112
H   -4.9939145942 -1.4025290918 -0.4535724385
C   -4.1691717070  0.6414601574 -0.4768705183
H   -5.0093407812  1.2744900126 -0.6812843202
C   -2.8359270203  1.0727166667 -0.2899776648
C   -3.4499753341 -3.5011662559 -0.0419013501
C   -3.9730998830 -4.0037530830  1.1433196041
C   -4.9517906794 -4.9831302157  1.1126887545
C   -5.4154195562 -5.4692230801 -0.0980938866
H   -6.1806008083 -6.2229827100 -0.1185161816
C   -4.8981398496 -4.9714283627 -1.2828104986
C   -3.9207640194 -3.9938494064 -1.2555583249
Fe  -0.0021062469  0.0121789949  0.2392066053
C    3.4808142787 -3.4441407279 -0.3692052924
C    3.6015334898 -4.1993652750 -1.5332613431
C    4.3636499699 -3.6732430750  0.6830361630
C    4.5922441704 -5.1574471627 -1.6451209489
C    5.3390666668 -4.6472712225  0.5766322069
H    4.6871855074 -5.7295851448 -2.5575327055
C    5.4593763625 -5.3880203201 -0.5888060373
H    6.0084205521 -4.8317799290  1.4051178945
H    6.2256853267 -6.1440636387 -0.6751046178
C   -3.4690613958  3.4584334287 -0.5008061995
C   -3.3740680509  4.3392849296 -1.5793717842
C   -4.5498158108  3.5802950337  0.3717694211
C   -4.3354623693  5.3081645978 -1.7842388323
C   -5.5035396479  4.5597451458  0.1698805921
H   -4.2515910906  5.9734699188 -2.6308309825
C   -5.4027891271  5.4244838297 -0.9093460040
H   -6.3312114580  4.6521935488  0.8580191676
H   -6.1560933012  6.1829143934 -1.0657777792
H    6.1863522072  4.5881740955  1.5728564036
H    4.2458929683  6.3485823900 -1.8021299756
H   -5.3528946002 -5.3650674914  2.0391500271
H   -5.2574638910 -5.3381744744 -2.2295781318
H   -2.5411580113  4.2422450273 -2.2643340818
H   -4.6239426301  2.9172951987  1.2202524733
H    2.9230134289 -4.0182079020 -2.3540425192
H    4.2647416151 -3.0935420373  1.5897116011
H   -3.6123266297 -3.6219647640  2.0876731300
H   -3.5127322754 -3.5996166303 -2.1757424560
H    4.5302836622  2.7641997815  1.5781214906
H    2.6015199844  4.5162762026 -1.8050484400
Cl  -0.0147310090  0.0342246128  2.3788687590
78
aligned d3map frame 68
N   -0.0135289281  2.0659440060 -0.1710737366
N    2.0169337893  0.0283594219 -0.0524916607
C   -2.4310961532  2.4472406965 -0.0732974456
C   -1.1137432923  2.8799201479 -0.1437433338
C   -0.6971771306  4.2515113626 -0.1881677182
H   -1.3514996984  5.1002270138 -0.1732782665
C    0.6561935076  4.2507433572 -0.2624572659
H    1.3059514938  5.0991701070 -0.3501951124
C    1.0798417789  2.8798857596 -0.2077919340
C    2.4123395609  2.4716452181 -0.1835502327
C    2.8372267969  1.1198756373 -0.1312208605
C    4.1898974946  0.7094867243 -0.0859654532
H    5.0462068324  1.3541159650 -0.1033885612
C    4.1857365696 -0.6619357606  0.0136353287
H    5.0343366622 -1.3165155739  0.0515166373
C    2.8322463946 -1.0627872938  0.0448209403
C    3.4459495734  3.5178075065 -0.1345938248
C    3.4397879121  4.4423474858  0.9102208035
C    4.4060927122  5.4274740547  0.9837423275
C    5.3934318706  5.5088027163  0.0154815098
H    6.1474906332  6.2794692101  0.0748869979
C    5.4069788577  4.5970445061 -1.0278151040
C    4.4439407083  3.6082787767 -1.1040186614
N    0.0015146946 -2.0515642967 -0.1058564592
N   -2.0170353159 -0.0055420585 -0.0738806906
C    2.4143815201 -2.4122395325  0.1665010959
C    1.0998716028 -2.8453933980  0.0910733828
C    0.6846379162 -4.2054293942  0.2882126402
H    1.3434382458 -5.0289436836  0.4808425227
C   -0.6679660510 -4.2189265177  0.2174595084
H   -1.3255516153 -5.0544605131  0.3537221486
C   -1.0893371210 -2.8672497181 -0.0297904995
C   -2.4180054360 -2.4558580016 -0.1066062659
C   -2.8232388595 -1.0995202551 -0.2161698232
C   -4.1545371802 -0.6899728820 -0.4534139826
H   -4.9817749968 -1.3415294784 -0.6547705156
C   -4.1603514708  0.6853720161 -0.4061998937
H   -4.9949349554  1.3424315223 -0.5535293796
C   -2.8305948563  1.0870317799 -0.1570522219
C   -3.4829338808 -3.4579387547  0.0204395935
C   -4.4552384037 -3.3061430687  1.0108926833
C   -5.4554308392 -4.2459755721  1.1655127934
C   -5.5124147906 -5.3480725955  0.3274144611
H   -6.2966932406 -6.0808680269  0.4504047049
C   -4.5591501957 -5.5035813441 -0.6662001832
C   -3.5500503884 -4.5711650466 -0.8175370295
Fe  -0.0021062469  0.0121789949  0.2392066053
C    3.4610983616 -3.4061030248  0.4705368054
C    4.1191562270 -3.3356965852  1.6974019863
C    3.7943549331 -4.4210853505 -0.4204104884
C    5.0789305860 -4.2718291741  2.0304185610
C    4.7705886171 -5.3457347600 -0.0916203405
H    5.5705709127 -4.2195039850  2.9907163539
C    5.4091694836 -5.2770923502  1.1350066757
H    5.0309914116 -6.1230149858 -0.7949200756
H    6.1635778592 -6.0053977128  1.3949807989
C   -3.5068568220  3.4261588712  0.1475400812
C   -4.2890247343  3.2973830644  1.2960849573
C   -3.7697854197  4.4752970016 -0.7300896386
C   -5.2871913070  4.2108748627  1.5737338587
C   -4.7789388765  5.3806585154 -0.4549786845
H   -5.8733845336  4.1057553976  2.4749776120
C   -5.5344085949  5.2576674346  0.7000234149
H   -4.9798850184  6.1861882351 -1.1461428491
H   -6.3156843475  5.9710756104  0.9165023086
H    4.3888182280  6.1333872113  1.8016265699
H    6.1733298942  4.6592251305 -1.7869798581
H   -6.1928531731 -4.1182953709  1.9449356283
H   -4.6049426193 -6.3576990388 -1.3261066178
H   -4.0882209692  2.4844277758  1.9784635775
H   -3.1981470252  4.5624284298 -1.6429695113
H    3.8532858356 -2.5513853403  2.3909966463
H    3.2949792094 -4.4720093825 -1.3773910041
H   -4.4022522662 -2.4546921724  1.6730665289
H   -2.8195053353 -4.6868308476 -1.6046060929
H    2.6813158657  4.3653011794  1.6754622653
H    4.4446449010  2.9106614373 -1.9287883515
Cl  -0.0024010581  0.0237283065  2.3794513111
78
aligned d3map frame 69
N   -0.0216859891  2.0433687123 -0.2548834401
N    2.0096511590  0.0057535441 -0.0778596064
C   -2.4066598472  2.4511866327  0.1228157258
C   -1.0942310298  2.8700978449 -0.0589126082
C   -0.6553695228  4.2351785861 -0.1158277476
H   -1.2819883899  5.0919421019  0.0388540202
C    0.6743024803  4.2137967754 -0.3901152603
H    1.3391861264  5.0495746947 -0.4940382574
C    1.0662341597  2.8340359448 -0.4645944408
C    2.3814012281  2.3944699206 -0.6313687690
C    2.8104801459  1.0564556152 -0.4362779559
C    4.1458234948  0.6123585294 -0.5537718628
H    4.9768110921  1.2052670108 -0.8805312358
C    4.1577123878 -0.7226916632 -0.2198798070
H    5.0057582841 -1.3775009451 -0.1879646635
C    2.8203562201 -1.0834587058  0.0567855167
C    3.3806625781  3.3979976930 -1.0232264781
C    4.5360566270  3.6284475247 -0.2779342187
C    5.4553416629  4.5767267415 -0.6860759411
C    5.2390808129  5.3096283023 -1.8416656306
H    5.9594101895  6.0476290264 -2.1558964296
C    4.0909411599  5.0940074947 -2.5869751593
C    3.1689135690  4.1492526391 -2.1810777339
N    0.0309114476 -2.0310465597 -0.1910717286
N   -2.0108206393  0.0105550616 -0.0958766811
C    2.3999867702 -2.4306162706  0.2534871349
C    1.0900970176 -2.8584004342  0.0626273705
C    0.6441349965 -4.2233828134  0.0189481053
H    1.2537089941 -5.0802208773  0.2286799950
C   -0.6675004918 -4.2015676141 -0.3271118586
H   -1.3296561238 -5.0343037317 -0.4615794133
C   -1.0526605672 -2.8202131393 -0.4250939699
C   -2.3648840218 -2.3859527802 -0.5982205213
C   -2.8100377542 -1.0568470897 -0.3943300014
C   -4.1584777998 -0.6358535967 -0.4701194142
H   -4.9983506231 -1.2505539306 -0.7203288195
C   -4.1723619709  0.7105951945 -0.1902381621
H   -5.0238995476  1.3623244058 -0.1667069120
C   -2.8294825315  1.0994466682  0.0174318196
C   -3.3541036885 -3.3822956409 -1.0469701896
C   -4.4576302455 -3.7532951260 -0.2823507512
C   -5.3718219188 -4.6687329191 -0.7720001138
C   -5.2097302132 -5.2156704468 -2.0351775784
H   -5.9336619766 -5.9195349860 -2.4194714590
C   -4.1114011653 -4.8574614058 -2.8012632687
C   -3.1859809300 -3.9578534268 -2.3072067875
Fe  -0.0021062469  0.0121789949  0.2392066053
C    3.4571102903 -3.3995595199  0.5698113751
C    3.7235610838 -4.5017431998 -0.2410927810
C    4.2414901845 -3.1966645814  1.7060242088
C    4.7392678105 -5.3824171402  0.0836718975
C    5.2487851028 -4.0830342825  2.0327145895
H    4.9406208770 -6.2269017730 -0.5573321931
C    5.5013635375 -5.1783393639  1.2215623878
H    5.8499698648 -3.9147337407  2.9161811081
H    6.2958602025 -5.8665403542  1.4753934049
C   -3.4611593379  3.4655353179  0.2916622975
C   -4.2490112253  3.4709822745  1.4407230537
C   -3.7009397083  4.4176984552 -0.6976637576
C   -5.2438001723  4.4181900355  1.6001586486
C   -4.7057010396  5.3540312894 -0.5402778996
H   -5.8415249508  4.4235168775  2.4997143740
C   -5.4769945969  5.3597445626  0.6100115162
H   -4.8913903045  6.0795358250 -1.3192584125
H   -6.2612360397  6.0928090714  0.7330894968
H    6.3457940302  4.7485443832 -0.1000043777
H    3.9132613504  5.6645205324 -3.4851817680
H   -6.2175988045 -4.9555594385 -0.1638405337
H   -3.9779791201 -5.2776087034 -3.7885330042
H   -4.0580733454  2.7371150901  2.2107387025
H   -3.1113188687  4.3988248550 -1.6021351765
H    3.1546649446 -4.6447626883 -1.1471011027
H    4.0377252333 -2.3459844252  2.3387095452
H   -4.5807860266 -3.3349759624  0.7070170812
H   -2.3337184207 -3.6729576201 -2.9069475122
H    4.6913772589  3.0782136686  0.6381909957
H    2.2795850296  3.9659184694 -2.7693595392
Cl  -0.0107110423  0.0294463844  2.3787976857
78
aligned d3map frame 70
N   -0.0070654338  2.0484931695 -0.2364305792
N    2.0131274216  0.0158577777 -0.0836706349
C   -2.4460100265  2.4121328938 -0.2627711453
C   -1.1042043912  2.8275620871 -0.4615153420
C   -0.6974713687  4.1282141618 -0.8405480634
H   -1.3491152542  4.9448688795 -1.0811048725
C    0.6786128869  4.1319775471 -0.8348012605
H    1.3292384587  4.9395147365 -1.1041122483
C    1.0851202315  2.8401110927 -0.4279104956
C    2.4283510665  2.4370711829 -0.2056483840
C    2.8074239252  1.1214328294  0.0538261564
C    4.1271916702  0.7153923129  0.4451147914
H    4.9296249317  1.3811877531  0.6907628352
C    4.1324479163 -0.6413532441  0.4769284244
H    4.9370652454 -1.2922988038  0.7599816166
C    2.8208490898 -1.0755460506  0.0912226059
C    3.4870021989  3.4481194279 -0.3142740081
C    4.5697911401  3.2183426938 -1.1675914916
C    5.5701901638  4.1607817129 -1.3068294655
C    5.5183242516  5.3418725078 -0.5834954453
H    6.3053485349  6.0733721920 -0.6834851947
C    4.4531850072  5.5762142262  0.2724775659
C    3.4413698942  4.6430466154  0.4039169669
N    0.0248613011 -2.0338849239 -0.1723422243
N   -2.0155259657 -0.0004848206 -0.0998790270
C    2.4618931075 -2.3987626110 -0.1666208827
C    1.1239476432 -2.8031339690 -0.4252190817
C    0.7232748852 -4.0608935730 -0.9270331438
H    1.3719347719 -4.8444814825 -1.2630931576
C   -0.6541031459 -4.0643210417 -0.9306742500
H   -1.3011131029 -4.8498161874 -1.2679911068
C   -1.0659959162 -2.8067384336 -0.4348874581
C   -2.4169257342 -2.4187710396 -0.2245277975
C   -2.8227442259 -1.1029710696 -0.0209650199
C   -4.1797539748 -0.6854741175  0.1945038347
H   -5.0088891704 -1.3472585072  0.3539537128
C   -4.1887716902  0.6694178143  0.1687090828
H   -5.0310067542  1.3264904815  0.2649925544
C   -2.8319986611  1.0975878662 -0.0266142431
C   -3.4196463024 -3.4889340441 -0.2806984874
C   -3.2687257888 -4.6332890339  0.5041396261
C   -4.1828266381 -5.6646929136  0.4247258422
C   -5.2582113972 -5.5794587230 -0.4458038817
H   -5.9592035002 -6.3951656441 -0.5179849136
C   -5.4188433012 -4.4480272466 -1.2280510825
C   -4.5119402056 -3.4092379946 -1.1437405744
Fe  -0.0021062469  0.0121789949  0.2392066053
C    3.5146923464 -3.4146232934 -0.2316189871
C    3.3797254629 -4.6383590625  0.4272383944
C    4.6787753879 -3.1802430230 -0.9690816937
C    4.3843267043 -5.5864892178  0.3639520679
C    5.6805384709 -4.1288547951 -1.0299452358
H    4.2664529480 -6.5278543809  0.8862052547
C    5.5409872706 -5.3363502292 -0.3585033631
H    6.5759226852 -3.9278949869 -1.6006715344
H    6.3259134405 -6.0779270726 -0.4014783200
C   -3.5004051013  3.4418090437 -0.3352062003
C   -4.2518276729  3.7630015269  0.7932918234
C   -3.7708119589  4.0955140572 -1.5346808150
C   -5.2472909029  4.7197004902  0.7215994165
C   -4.7754360199  5.0428611434 -1.6043245864
H   -5.8182799097  4.9663447987  1.6048808832
C   -5.5157636927  5.3597174868 -0.4771717744
H   -4.9837699745  5.5344053945 -2.5439886939
H   -6.2983118891  6.1009315702 -0.5323948010
H    6.3949489826  3.9723606955 -1.9742255308
H    4.4145588565  6.4917768006  0.8440418683
H   -4.0560639443 -6.5414549108  1.0428697487
H   -6.2482865856 -4.3770015402 -1.9164633576
H   -4.0368494037  3.2662772777  1.7275915852
H   -3.2021067305  3.8414201842 -2.4162113195
H    2.4939162957 -4.8298258004  1.0154456874
H    4.7812540050 -2.2544452321 -1.5180874102
H   -2.4350919890 -4.6973298333  1.1894463274
H   -4.6240157778 -2.5403745169 -1.7760289596
H    4.6035611037  2.3007897200 -1.7389826308
H    2.6204349910  4.8228610945  1.0821812784
Cl  -0.0272698807  0.0699260015  2.3781926527
78
aligned d3map frame 71
N   -0.0127602202  2.0535089368 -0.2180079166
N    2.0110269663  0.0277603978 -0.0789894696
C   -2.4081752770  2.3912060417 -0.5883629240
C   -1.0986038466  2.8401435387 -0.4408944258
C   -0.7052650856  4.2227922123 -0.4163105478
H   -1.3706746034  5.0507324275 -0.5694719050
C    0.6227382429  4.2521022432 -0.1461951698
H    1.2648741600  5.1053813579 -0.0361846824
C    1.0579391157  2.8874727020 -0.0450606093
C    2.3697871216  2.4787220107  0.1086774126
C    2.8063457278  1.1335528409 -0.0223708188
C    4.1494782672  0.7757935720 -0.2684877225
H    4.9794184286  1.4525940304 -0.2850903540
C    4.1614198481 -0.5779848268 -0.5084510436
H    5.0052120764 -1.1771593604 -0.7859188307
C    2.8312132748 -1.0330931805 -0.3547286039
C    3.4257419016  3.5003258092  0.2844165435
C    3.9570428447  3.7399127966  1.5472459933
C    4.9626014539  4.6756521707  1.7116681686
C    5.4578667613  5.3676939941  0.6177955598
H    6.2529989465  6.0879693258  0.7466990569
C    4.9314547837  5.1327424305 -0.6411157713
C    3.9148270717  4.2091075328 -0.8076775691
N   -0.0015538545 -2.0397104932 -0.1536850192
N   -2.0104243137 -0.0098090751 -0.1007043924
C    2.4235818945 -2.3887161093 -0.4105298492
C    1.1112395159 -2.8236602695 -0.2039993022
C    0.7559952202 -4.1813312072  0.1002284726
H    1.4462002898 -5.0006636724  0.1657835642
C   -0.5764245137 -4.1951137191  0.3577851572
H   -1.1739286424 -5.0258856372  0.6776144789
C   -1.0572304964 -2.8564857464  0.1532188804
C   -2.3841000567 -2.4502497441  0.2144457469
C   -2.8100463887 -1.1118152966 -0.0508753056
C   -4.1351534966 -0.7637323750 -0.3899230559
H   -4.9643581035 -1.4405561919 -0.4678056548
C   -4.1370337203  0.5885961209 -0.6469945566
H   -4.9656775613  1.1969193439 -0.9526836798
C   -2.8131940567  1.0440839568 -0.4452551154
C   -3.4430737921 -3.4251692672  0.4810504025
C   -4.4117045141 -3.1470886816  1.4501459501
C   -5.4335196560 -4.0418278023  1.7019369841
C   -5.5163914107 -5.2264956480  0.9867048813
H   -6.3195912946 -5.9215751319  1.1795949677
C   -4.5636339451 -5.5117644345  0.0189874792
C   -3.5377523628 -4.6222746470 -0.2333446417
Fe  -0.0021062469  0.0121789949  0.2392066053
C    3.4443865333 -3.4123129311 -0.6667118433
C    4.6129298435 -3.4981168986  0.0890077399
C    3.2542101132 -4.3239563509 -1.7064089348
C    5.5731748275 -4.4481229542 -0.2052501895
C    4.2175750060 -5.2692600484 -1.9999405927
H    6.4736013480 -4.5009598498  0.3890013904
C    5.3844454452 -5.3311765711 -1.2545656290
H    4.0597775637 -5.9597140779 -2.8153487225
H    6.1401738551 -6.0661852649 -1.4889029040
C   -3.4580729033  3.3794577052 -0.8924974608
C   -4.4782906114  3.6376482704  0.0195860423
C   -3.4522857199  4.0542417778 -2.1122560223
C   -5.4678472782  4.5541702012 -0.2813252933
C   -4.4608341126  4.9492454413 -2.4212576805
H   -6.2457883557  4.7585271155  0.4399850869
C   -5.4692415490  5.2036857412 -1.5068886252
H   -4.4626362173  5.4460960548 -3.3813237508
H   -6.2525878127  5.9075138256 -1.7482918011
H    5.3648682903  4.8612405822  2.6966932507
H    5.3149827929  5.6671419835 -1.4989839911
H   -6.1742784142 -3.8129987170  2.4572142419
H   -4.6233686615 -6.4308561509 -0.5486800974
H   -4.4754734599  3.1281314631  0.9720502693
H   -2.6635567983  3.8509347313 -2.8223243982
H    4.7523542109 -2.8317692363  0.9276455000
H    2.3532984467 -4.2660608687 -2.2996691101
H   -4.3430266211 -2.2296799208  2.0155576537
H   -2.8197451857 -4.8276067704 -1.0156246719
H    3.5719696542  3.1920747135  2.3954622046
H    3.5056902737  4.0193888529 -1.7893055562
Cl   0.0207708368 -0.0077258991  2.3786200079
78
aligned d3map frame 72
N   -0.0051892356  2.0622634623 -0.1872719179
N    2.0077633952  0.0082251946 -0.0960722684
C   -2.4277948916  2.4158910896 -0.3731099811
C   -1.1098976073  2.8548724774 -0.2406307804
C   -0.7334874266  4.2241593459 -0.0118084609
H   -1.4107138014  5.0551540398  0.0067148786
C    0.6011320560  4.2357007816  0.2186485520
H    1.2173063586  5.0768883868  0.4660474996
C    1.0622624074  2.8809479844  0.0806833682
C    2.3783966793  2.4562145915  0.1727021170
C    2.7959185249  1.1177705963 -0.1026681144
C    4.1074961233  0.7796169230 -0.4918052667
H    4.9206565016  1.4707442576 -0.6149787471
C    4.1152598551 -0.5808889538 -0.7137895646
H    4.9355661743 -1.1736695232 -1.0671589380
C    2.8134767748 -1.0496251395 -0.4212004574
C    3.4376000753  3.3866821633  0.5814171144
C    4.2346541952  3.0362109740  1.6742784122
C    5.2149059502  3.8933880253  2.1371632273
C    5.4348987615  5.1052137659  1.5005313834
H    6.2022826066  5.7763406741  1.8600141858
C    4.6746326546  5.4478566368  0.3926400527
C    3.6801889942  4.5995411830 -0.0637021235
N    0.0228503037 -2.0445810047 -0.1252636890
N   -2.0102543290 -0.0122571951 -0.1121959055
C    2.4316432162 -2.4146881342 -0.3909489385
C    1.1187529246 -2.8453441350 -0.1671858776
C    0.7307365591 -4.2064374321  0.0901279322
H    1.4019919071 -5.0401937166  0.1582588401
C   -0.6120506847 -4.2109899179  0.2717432071
H   -1.2542951811 -5.0413215885  0.4881534867
C   -1.0574853035 -2.8540828037  0.1177737426
C   -2.3784363465 -2.4522570290  0.1156340995
C   -2.8095516421 -1.1209101679 -0.1250984436
C   -4.1419124351 -0.7572739618 -0.4127821787
H   -4.9663941607 -1.4384115848 -0.4966493275
C   -4.1510122972  0.6082453396 -0.5809498905
H   -4.9858862750  1.2311996939 -0.8313371685
C   -2.8242972821  1.0560940662 -0.3610889049
C   -3.4192071817 -3.4793096990  0.3492778227
C   -3.7876272839 -3.7924980837  1.6532785878
C   -4.7349805181 -4.7709509514  1.8959980383
C   -5.3290635894 -5.4417709149  0.8394749808
H   -6.0696758500 -6.1960233893  1.0294802628
C   -4.9734268656 -5.1275479748 -0.4612316781
C   -4.0231461299 -4.1507282921 -0.7074382113
Fe  -0.0021062469  0.0121789949  0.2392066053
C    3.4719030368 -3.4347982436 -0.5472941311
C    3.2998390859 -4.4810340404 -1.4589376444
C    4.6417594692 -3.4001832065  0.2148548053
C    4.2621706170 -5.4608090537 -1.5965485485
C    5.6027411112 -4.3821059171  0.0748845202
H    4.1101187260 -6.2618678820 -2.3081302126
C    5.4166071935 -5.4157427608 -0.8307758673
H    6.5013540645 -4.3471747759  0.6753603165
H    6.1651684132 -6.1871361326 -0.9372195858
C   -3.4952562197  3.4253848795 -0.4409425524
C   -3.5219330934  4.3832468769 -1.4532259907
C   -4.5035267009  3.4371508368  0.5244777282
C   -4.5397502246  5.3189070525 -1.5059563941
C   -5.5090943634  4.3827432171  0.4768077086
H   -4.5602805595  6.0450453560 -2.3064547781
C   -5.5343872310  5.3232213196 -0.5418276245
H   -6.2789918571  4.3861090913  1.2342764332
H   -6.3285344127  6.0551424277 -0.5824558471
H    5.8069374901  3.6176930330  2.9979815071
H    4.8588241132  6.3814854366 -0.1202960166
H   -5.0106748140 -5.0071407598  2.9122479451
H   -5.4365961063 -5.6433244413 -1.2888130576
H   -2.7546404147  4.3710844590 -2.2143894921
H   -4.4738895607  2.7085133894  1.3216228419
H    2.4087759982 -4.5062359541 -2.0706642758
H    4.7737882899 -2.6114614762  0.9416333762
H   -3.3208508847 -3.2653187314  2.4726378555
H   -3.7383935131 -3.9081375485 -1.7212764285
H    4.0535841505  2.0962897052  2.1748378256
H    3.1084560015  4.8582945474 -0.9437000547
Cl   0.0059917779  0.0866115523  2.3785707163
78
aligned d3map frame 73
N   -0.0197072462  2.0474642122 -0.2355857642
N    2.0128680913  0.0141212351 -0.0841148702
C   -2.4564734870  2.4196414876 -0.2600659254
C   -1.1111847843  2.8332585466 -0.4564762485
C   -0.7000077574  4.1262163599 -0.8527480383
H   -1.3386710899  4.9376065186 -1.1368564488
C    0.6762464448  4.1309644321 -0.8184646929
H    1.3303103741  4.9509544932 -1.0395795879
C    1.0773528112  2.8333822858 -0.4283190390
C    2.4155293220  2.4292950659 -0.1845218343
C    2.8098511850  1.1221408073  0.0550096042
C    4.1598783339  0.7062145749  0.3101268466
H    4.9786767408  1.3739007241  0.4947837045
C    4.1716993015 -0.6474534824  0.2789217021
H    4.9963567601 -1.3082247552  0.4605596124
C    2.8321423038 -1.0762959666 -0.0227886317
C    3.4508320391  3.4806026723 -0.2476838568
C    4.0975641510  3.9248345642  0.9008314342
C    5.0465919021  4.9288007613  0.8191756567
C    5.3655770552  5.4908204646 -0.4060514792
H    6.1043370926  6.2772009877 -0.4643824040
C    4.7341662602  5.0432195194 -1.5551803854
C    3.7799220606  4.0453358796 -1.4773649033
N    0.0183206367 -2.0340099418 -0.1712704954
N   -2.0144030836  0.0039742654 -0.1040790957
C    2.4571574842 -2.3909852149 -0.3016306154
C    1.1058408194 -2.7906055751 -0.4945274782
C    0.6838159965 -4.0394503284 -1.0052739835
H    1.3182203945 -4.8099014205 -1.3980265477
C   -0.6933493297 -4.0518236323 -0.9376119077
H   -1.3551110960 -4.8341778278 -1.2548000694
C   -1.0820317142 -2.8072488474 -0.3960023872
C   -2.4195473104 -2.4182884220 -0.0989334642
C   -2.8036556714 -1.0967493190  0.1064378926
C   -4.1266686784 -0.6692320259  0.4702194486
H   -4.9204273845 -1.3249722612  0.7739667382
C   -4.1451834707  0.6840313890  0.3872136520
H   -4.9628827393  1.3439635730  0.6002890445
C   -2.8263614997  1.1009451169 -0.0034690173
C   -3.4398412964 -3.4684655038 -0.0685398293
C   -3.2394633921 -4.6332584715  0.6756751019
C   -4.2073357789 -5.6177511119  0.7143515380
C   -5.3886122560 -5.4648549716  0.0041919935
H   -6.1461856962 -6.2333919086  0.0345963278
C   -5.5918336320 -4.3216469210 -0.7521378867
C   -4.6281805608 -3.3322372965 -0.7902945496
Fe  -0.0021062469  0.0121789949  0.2392066053
C    3.4988366984 -3.4123871460 -0.4393650381
C    3.3844394244 -4.6454073804  0.2093717619
C    4.6253260649 -3.1787084414 -1.2353564803
C    4.3705801837 -5.6040786283  0.0760964888
C    5.6072861791 -4.1413797757 -1.3659115636
H    4.2688141312 -6.5497586295  0.5903122955
C    5.4865284067 -5.3578800032 -0.7087634643
H    6.4713946064 -3.9482025342 -1.9848217484
H    6.2594755875 -6.1042135573 -0.8084913719
C   -3.5060385411  3.4412413556 -0.3430755836
C   -4.6009527966  3.2582615203 -1.1905964574
C   -3.4275383512  4.6196295642  0.4005393705
C   -5.5777084624  4.2295395145 -1.2993606317
C   -4.4134630825  5.5825632692  0.2981046288
H   -6.4107269468  4.0788859435 -1.9705486146
C   -5.4889265464  5.3955184597 -0.5559640653
H   -4.3450717410  6.4846922071  0.8855438168
H   -6.2527383151  6.1536972966 -0.6418182714
H    5.5379525043  5.2776138497  1.7156294253
H    4.9845649631  5.4745155118 -2.5136510360
H   -4.0425388473 -6.5084661070  1.3032742368
H   -6.5047902175 -4.2022378503 -1.3181579278
H   -4.6639893564  2.3585279324 -1.7850868778
H   -2.5978598043  4.7611596227  1.0772270904
H    2.5271502968 -4.8347020211  0.8392899582
H    4.7080395807 -2.2448363023 -1.7732776317
H   -2.3269426292 -4.7433256164  1.2431606907
H   -4.7764767305 -2.4553958065 -1.4036723990
H    3.8384024257  3.4899041007  1.8549595561
H    3.2876434883  3.6872252435 -2.3689622974
Cl  -0.0176296826  0.0558292033  2.3781381692
78
aligned d3map frame 74
N    0.0105248804  2.0608028732 -0.1844879271
N    2.0088188379  0.0354765319 -0.0988754612
C   -2.4140432303  2.4193454821 -0.3669817075
C   -1.0958918506  2.8544191317 -0.2776578269
C   -0.7092236040  4.2303946151 -0.1439195430
H   -1.3827132077  5.0645413680 -0.1663840102
C    0.6323882930  4.2489442969  0.0549764375
H    1.2566987121  5.1040322082  0.2357325156
C    1.0822175988  2.8862699332  0.0069281707
C    2.4064843007  2.4737987845  0.1247125165
C    2.8284452446  1.1222793576  0.0034555857
C    4.1742632268  0.7307597515 -0.1822834967
H    5.0235891382  1.3847893736 -0.1693629712
C    4.1652428845 -0.6246700112 -0.4157915842
H    5.0061013736 -1.2651789978 -0.5982614650
C    2.8146593753 -1.0391685126 -0.3558507320
C    3.4528746666  3.4895149848  0.2947153800
C    4.3310371397  3.4238698260  1.3754665618
C    5.3147022003  4.3814362518  1.5410799136
C    5.4509347191  5.4079638247  0.6192405129
H    6.2232088788  6.1528002619  0.7436455136
C    4.5942201245  5.4727317491 -0.4679465554
C    3.6014703411  4.5251177529 -0.6279136174
N    0.0087978993 -2.0444509528 -0.1192619284
N   -2.0126144471 -0.0153148362 -0.1143880420
C    2.4023737908 -2.3858742688 -0.4933761530
C    1.0997200002 -2.8370521243 -0.3319193470
C    0.6906106412 -4.2109982832 -0.3788039466
H    1.3434626502 -5.0400703558 -0.5635463304
C   -0.6497074962 -4.2336925811 -0.1683019520
H   -1.3023782011 -5.0861507470 -0.1383726650
C   -1.0717420018 -2.8698701794 -0.0251495920
C   -2.3995211761 -2.4579473140  0.0368243583
C   -2.8250634370 -1.1143121133 -0.0698084900
C   -4.1772384382 -0.7183063162 -0.2015470275
H   -5.0242099635 -1.3759475011 -0.1839328119
C   -4.1783741410  0.6464686722 -0.3565657349
H   -5.0267433771  1.2848043791 -0.5113736857
C   -2.8301341600  1.0678856614 -0.2841037554
C   -3.4354573709 -3.5086999895  0.1180288215
C   -3.6412183320 -4.1907728175  1.3135920508
C   -4.6082222803 -5.1764580016  1.3961920430
C   -5.3659422793 -5.5025588744  0.2839652501
H   -6.1162078383 -6.2766421122  0.3497690783
C   -5.1575398912 -4.8356128555 -0.9128378543
C   -4.2036446440 -3.8379025783 -0.9939847292
Fe  -0.0021062469  0.0121789949  0.2392066053
C    3.4457320637 -3.3728479475 -0.8428794379
C    3.9274797829 -4.2802339547  0.0953230146
C    3.9518507829 -3.4013304937 -2.1389044133
C    4.9028364809 -5.1954440480 -0.2586472528
C    4.9137075043 -4.3289593341 -2.4943484920
H    5.2808587978 -5.8883978974  0.4785455661
C    5.3934972802 -5.2253287506 -1.5538638005
H    5.2903132851 -4.3540734795 -3.5070445447
H    6.1495846764 -5.9462808684 -1.8280043102
C   -3.4567936709  3.4481087323 -0.5258847846
C   -4.4293407877  3.6467339721  0.4501371846
C   -3.4755271893  4.2448046034 -1.6696987466
C   -5.3958333690  4.6220978715  0.2872308972
C   -4.4537099789  5.2064356210 -1.8366149358
H   -6.1369414372  4.7757362309  1.0596611655
C   -5.4161425791  5.3999732496 -0.8592761132
H   -4.4688817384  5.8087584825 -2.7334533195
H   -6.1772350508  6.1543860935 -0.9884545413
H    5.9797147366  4.3257958952  2.3922094906
H    4.7016696504  6.2646914428 -1.1957780333
H   -4.7736339500 -5.6942970623  2.3294995741
H   -5.7390865915 -5.0937478020 -1.7853531158
H   -4.4072514294  3.0449346323  1.3467482391
H   -2.7271159651  4.0914789120 -2.4333368934
H    3.5418386535 -4.2537050272  1.1039223173
H    3.5754967492 -2.6978932373 -2.8677953731
H   -3.0470585177 -3.9335432997  2.1778641597
H   -4.0364882525 -3.3197708142 -1.9264390133
H    4.2187302256  2.6277809871  2.0959215701
H    2.9489370105  4.5626194430 -1.4883006321
Cl  -0.0352295723  0.0744501814  2.3773049223
78
aligned d3map frame 75
N   -0.0207557097  2.0655857754 -0.1667417306
N    2.0085705156  0.0154761588 -0.1019594748
C   -2.4291822248  2.4573286229 -0.0938225978
C   -1.1078784918  2.8848741067 -0.0385557453
C   -0.6697662983  4.2481811321  0.0532593796
H   -1.3005784582  5.0971582040  0.2254864253
C    0.6785592802  4.2427469454 -0.1095235282
H    1.3481629615  5.0829770167 -0.1267931054
C    1.0774818529  2.8716639487 -0.2326659386
C    2.3853580977  2.4414490822 -0.4233343841
C    2.8037184011  1.0952704063 -0.3742716785
C    4.1499321422  0.6815410233 -0.5170537270
H    4.9768293209  1.3289923761 -0.7353515133
C    4.1696691226 -0.6771157272 -0.3119729041
H    5.0156672497 -1.3355473639 -0.3505789218
C    2.8356068298 -1.0686355224 -0.0593475241
C    3.4111235770  3.4568802942 -0.7463808154
C    4.0107473527  4.2484288167  0.2246623305
C    4.9597149786  5.1897764560 -0.1365333079
C    5.3095271955  5.3559658508 -1.4659739308
H    6.0468073703  6.0940319162 -1.7435086733
C    4.7131263488  4.5701308081 -2.4386143420
C    3.7739117441  3.6214021805 -2.0810534557
N    0.0122685892 -2.0493758568 -0.1019434810
N   -2.0097245938 -0.0000274437 -0.1231029182
C    2.4276271819 -2.4147436289  0.1295611704
C    1.1081643021 -2.8400786356  0.1147748715
C    0.6879847172 -4.2001709341  0.3052324842
H    1.3468915132 -5.0169079277  0.5242169216
C   -0.6620753379 -4.2166505122  0.1835564309
H   -1.3186235240 -5.0576217334  0.2940836885
C   -1.0773854357 -2.8691425115 -0.0869379011
C   -2.3973136216 -2.4539244813 -0.2760590574
C   -2.7875944161 -1.0950606908 -0.3970432875
C   -4.0763078454 -0.6747537299 -0.7949721192
H   -4.8682233119 -1.3164493622 -1.1280457467
C   -4.0925341831  0.6982335570 -0.7081408610
H   -4.9036294870  1.3551091527 -0.9515479481
C   -2.8093210279  1.0940390474 -0.2730271117
C   -3.4596125924 -3.4622499566 -0.3281448206
C   -4.6082989403 -3.3175263734  0.4567488738
C   -5.6216017241 -4.2523938928  0.4003650285
C   -5.5106739738 -5.3573447432 -0.4312978473
H   -6.3055657356 -6.0875907826 -0.4718211742
C   -4.3752055891 -5.5165192132 -1.2064000857
C   -3.3606052633 -4.5777173310 -1.1606496860
Fe  -0.0021062469  0.0121789949  0.2392066053
C    3.4908594013 -3.4269443576  0.2556409905
C    3.6717510890 -4.3740649704 -0.7505238223
C    4.3328118580 -3.4446306811  1.3652948121
C    4.6819460240 -5.3132363148 -0.6556114772
C    5.3249244595 -4.4036851042  1.4711675009
H    4.8240459509 -6.0303288204 -1.4524610205
C    5.5074396545 -5.3335677983  0.4580295620
H    5.9652250836 -4.4225589531  2.3433559678
H    6.2887504091 -6.0722838820  0.5385296135
C   -3.5194230609  3.4373911128 -0.0763466424
C   -3.5290420817  4.5258474016 -0.9512792721
C   -4.6018542009  3.2677616032  0.7899527553
C   -4.5874585594  5.4128361287 -0.9581212767
C   -5.6596391146  4.1556895860  0.7782040325
H   -4.5864709011  6.2450362390 -1.6459434798
C   -5.6600448485  5.2278896360 -0.0979315431
H   -6.4933150490  4.0014918267  1.4529481640
H   -6.4944344171  5.9123062501 -0.1142475452
H    5.4308084216  5.7960939814  0.6248468887
H    4.9843527851  4.6986178152 -3.4759870624
H   -6.5068229276 -4.1236562951  1.0022487428
H   -4.2826639180 -6.3736471864 -1.8579417847
H   -2.7168487541  4.6504206712 -1.6536545328
H   -4.5962176480  2.4412103835  1.4841634183
H    3.0264005425 -4.3497253190 -1.6164005500
H    4.1909116906 -2.7149522238  2.1485861432
H   -4.6844066583 -2.4713274654  1.1235124636
H   -2.4952386544 -4.6883521217 -1.7978334249
H    3.7382368719  4.1170279574  1.2612058637
H    3.3070655567  3.0015291156 -2.8328974179
Cl  -0.0151550759  0.0370426368  2.3797591203
78
aligned d3map frame 76
N   -0.0191404195  2.0499278004 -0.2260837563
N    2.0145966330  0.0138073319 -0.0780737662
C   -2.4516860484  2.4167219781 -0.0828793899
C   -1.1195657549  2.8465290618 -0.3114624596
C   -0.7303502496  4.1675479479 -0.6456952919
H   -1.3936045870  4.9931873399 -0.8120182186
C    0.6399018984  4.1686929558 -0.7266589052
H    1.2849888175  4.9988633853 -0.9376760776
C    1.0659262391  2.8439742818 -0.4549125805
C    2.4103678083  2.4334748468 -0.3232475925
C    2.8152825760  1.1251639258 -0.0632068785
C    4.1733173821  0.7306682556  0.1584086816
H    5.0115258331  1.3968846840  0.2178577976
C    4.1834389498 -0.6211379918  0.2820217113
H    5.0216339374 -1.2518239264  0.4999567645
C    2.8394048696 -1.0714602808  0.0702556779
C    3.4563415772  3.4618725276 -0.4951891301
C    4.2569101979  3.8606939721  0.5718273482
C    5.2450050853  4.8117125191  0.3888564570
C    5.4531405521  5.3692083789 -0.8618569820
H    6.2321873924  6.1041699159 -1.0058587713
C    4.6583027458  4.9803209058 -1.9280018986
C    3.6618204058  4.0397260096 -1.7459520254
N    0.0076863600 -2.0350820667 -0.1633851998
N   -2.0156853700 -0.0078207041 -0.0997951862
C    2.4525861904 -2.4017240658 -0.0988092787
C    1.1139940176 -2.7950976717 -0.3796120692
C    0.7377187046 -4.0464966776 -0.9230337607
H    1.4111543593 -4.8174324313 -1.2433262638
C   -0.6361871076 -4.0515550771 -0.9889254643
H   -1.2676303083 -4.8267862560 -1.3765771554
C   -1.0732742490 -2.8059972716 -0.4790992563
C   -2.4231706343 -2.4295721285 -0.2616322977
C   -2.8146356894 -1.1142835746  0.0103161135
C   -4.1386458716 -0.7121911561  0.3773690789
H   -4.9470507679 -1.3779453130  0.6080025810
C   -4.1462109307  0.6457911856  0.4198638454
H   -4.9634955694  1.2887299658  0.6801370397
C   -2.8253809885  1.0838977791  0.0847500238
C   -3.4401875537 -3.4796362844 -0.3259847660
C   -3.2443690822 -4.7005396427  0.3283155011
C   -4.2027816381 -5.6937678032  0.2672066416
C   -5.3809527425 -5.4902411931 -0.4383102711
H   -6.1289118506 -6.2692658614 -0.4859363392
C   -5.5859531559 -4.2869242234 -1.0941992706
C   -4.6263360888 -3.2935575641 -1.0438056691
Fe  -0.0021062469  0.0121789949  0.2392066053
C    3.4433956470 -3.4774262382 -0.0255753317
C    3.1654573134 -4.6133845776  0.7440273177
C    4.6548644147 -3.4239095273 -0.7190635421
C    4.0760037248 -5.6454207481  0.8309161437
C    5.5699132151 -4.4563364339 -0.6205019981
H    3.8474426156 -6.5141429318  1.4312899776
C    5.2888687997 -5.5661447925  0.1583376598
H    6.5034680517 -4.4008059488 -1.1643070402
H    6.0032171840 -6.3728135872  0.2321378783
C   -3.5056681927  3.4396098272 -0.0739795166
C   -4.6091090213  3.3230650049 -0.9193169954
C   -3.4211845507  4.5513051045  0.7649631551
C   -5.5945442081  4.2926229643 -0.9307519265
C   -4.4132895404  5.5138155147  0.7586007297
H   -6.4368087795  4.1915878033 -1.5996830116
C   -5.5013571687  5.3900547275 -0.0908924019
H   -4.3368607736  6.3640717459  1.4200942012
H   -6.2719125613  6.1467133208 -0.0982198478
H    5.8565414476  5.1179354254  1.2255447679
H    4.8180920609  5.4111363671 -2.9053498477
H   -4.0352141134 -6.6305981444  0.7782476839
H   -6.4992671308 -4.1223773284 -1.6528998899
H   -4.6752157326  2.4784893813 -1.5898125761
H   -2.5814078910  4.6395692829  1.4377750083
H    2.2322052890 -4.6657943367  1.2861618513
H    4.8595036546 -2.5853897579 -1.3681831205
H   -2.3428479169 -4.8521383492  0.9054249696
H   -4.7766891873 -2.3731574991 -1.5892308217
H    4.0898900448  3.4304380905  1.5484035123
H    3.0450529700  3.7307358787 -2.5779272865
Cl  -0.0294113390  0.1215507387  2.3742033855
78
aligned d3map frame 77
N   -0.0130027660  2.0528102259 -0.1999356261
N    2.0129043679  0.0139912669 -0.0949985526
C   -2.4464574508  2.4107882997 -0.0147085667
C   -1.1152475913  2.8392615847 -0.2756493121
C   -0.7557643602  4.1391875408 -0.6961453461
H   -1.4412532030  4.9464951525 -0.8701315578
C    0.6112556536  4.1358205555 -0.8565634832
H    1.2290724397  4.9415329074 -1.2036943476
C    1.0587853350  2.8394088150 -0.5054835260
C    2.4091988927  2.4348513665 -0.3755346974
C    2.8111424501  1.1262208821 -0.1083816503
C    4.1489937097  0.7579047687  0.2517415543
H    4.9723715565  1.4388226756  0.3553285230
C    4.1503095194 -0.5797189211  0.4748455261
H    4.9717787147 -1.1835560682  0.8065581866
C    2.8210359995 -1.0538527626  0.2109819673
C    3.4176552957  3.4999297018 -0.4657289492
C    3.2998179228  4.6320897865  0.3422148281
C    4.1964535465  5.6763321817  0.2287522010
C    5.2190963846  5.6140558305 -0.7037323518
H    5.9069915284  6.4384113738 -0.8117516767
C    5.3562233081  4.4879905205 -1.4991543308
C    4.4701287458  3.4330907980 -1.3768366625
N    0.0168218334 -2.0374550768 -0.1365426107
N   -2.0141833505 -0.0045815413 -0.1137504112
C    2.4362002012 -2.3909676204  0.2133427022
C    1.1156656087 -2.8353513361 -0.0935811382
C    0.7534756270 -4.1677500282 -0.3976084108
H    1.4286341810 -4.9984015746 -0.4736366261
C   -0.6081467995 -4.1717954865 -0.5961326385
H   -1.2347943500 -5.0114722638 -0.8259235821
C   -1.0521754629 -2.8390155811 -0.4147656727
C   -2.4029116690 -2.4220803335 -0.3794256797
C   -2.8193924717 -1.1084450172 -0.1661433314
C   -4.1922086061 -0.7047776741 -0.0378024533
H   -5.0344333189 -1.3693506993 -0.0575101192
C   -4.2020166223  0.6413740243  0.1164922156
H   -5.0449286057  1.2878570130  0.2607837729
C   -2.8392478458  1.0830168796  0.0269710130
C   -3.4357989588 -3.4633024374 -0.5359452319
C   -4.2906295005 -3.7796773458  0.5164898181
C   -5.2659376456 -4.7477552778  0.3614728680
C   -5.4047630234 -5.4079698150 -0.8479503287
H   -6.1746836556 -6.1541330192 -0.9745540549
C   -4.5554279534 -5.1035733137 -1.8984717742
C   -3.5708246411 -4.1444546084 -1.7440546630
Fe  -0.0021062469  0.0121789949  0.2392066053
C    3.4205730819 -3.4261927199  0.5448301563
C    3.1170922544 -4.3603006637  1.5398487914
C    4.6602374138 -3.5078242549 -0.0909341951
C    4.0368621649 -5.3215261317  1.9077489655
C    5.5774877093 -4.4742459247  0.2783696747
H    3.7903108311 -6.0280407947  2.6878825453
C    5.2728378851 -5.3788472509  1.2825783766
H    6.5340925391 -4.5231483258 -0.2220556252
H    5.9931778864 -6.1287351802  1.5748174527
C   -3.4352680628  3.4836661393  0.1918547242
C   -3.2958860636  4.3115338132  1.3052140341
C   -4.4789486075  3.7169664531 -0.6997003269
C   -4.1905720161  5.3409086485  1.5266496391
C   -5.3623342190  4.7601456114 -0.4836875355
H   -4.0801904314  5.9716152861  2.3959039785
C   -5.2222732981  5.5720250310  0.6286217006
H   -6.1612533027  4.9433370122 -1.1888840857
H   -5.9116256408  6.3870448945  0.7977937427
H    4.0908040711  6.5439753724  0.8629586368
H    6.1534900508  4.4363110401 -2.2274894096
H   -5.9199904026 -4.9863809916  1.1873160361
H   -4.6667110551 -5.6117336560 -2.8460203073
H   -2.4883300288  4.1240230604  2.0001612340
H   -4.5763040700  3.0923197074 -1.5759695835
H    2.1612563427 -4.3021016146  2.0396019799
H    4.8871960120 -2.8280616217 -0.9019499914
H   -4.1758877782 -3.2675531939  1.4611353292
H   -2.9184872481 -3.8874606705 -2.5707859248
H    2.5040851704  4.6760524288  1.0717897779
H    4.5707514212  2.5630771817 -2.0111983032
Cl  -0.0219144816  0.0631179547  2.3782371629
78
aligned d3map frame 78
N    0.0003507763  2.0536837625 -0.2057917579
N    2.0127247346  0.0260766550 -0.0910947046
C   -2.4310375305  2.3919837346 -0.3790007449
C   -1.0929524585  2.8265884108 -0.4695845966
C   -0.6873773133  4.1551851677 -0.7417649291
H   -1.3438238419  4.9658245196 -0.9920722247
C    0.6803039009  4.1828764645 -0.6167866659
H    1.3337588011  5.0208919778 -0.7626913312
C    1.0848059730  2.8703638933 -0.2686650683
C    2.4235974203  2.4558012969 -0.0408500638
C    2.8139979631  1.1247707405  0.0906051062
C    4.1513930785  0.6962627550  0.3746848728
H    4.9694635765  1.3451735931  0.6197366111
C    4.1598570402 -0.6593482905  0.3014727269
H    4.9856554284 -1.3186323219  0.4818845005
C    2.8265969587 -1.0723113515 -0.0239574852
C    3.4613409267  3.4941063572 -0.0009711422
C    4.5636438035  3.4307049960 -0.8560441852
C    5.5420659124  4.4048003406 -0.8180275612
C    5.4424281010  5.4568499698  0.0784809175
H    6.2091236732  6.2149865616  0.1126643750
C    4.3504235087  5.5351593078  0.9266553971
C    3.3640385758  4.5675218153  0.8837987943
N    0.0050944900 -2.0386793962 -0.1427744672
N   -2.0141799423 -0.0180659750 -0.1091549003
C    2.4435246446 -2.3927330674 -0.2739873351
C    1.0957246271 -2.8023127127 -0.4455871028
C    0.6738130411 -4.0801473686 -0.8830741571
H    1.3090120458 -4.8645188188 -1.2487461561
C   -0.6997695478 -4.0997785625 -0.7839417688
H   -1.3597501526 -4.9046192895 -1.0430888233
C   -1.0911906864 -2.8290996393 -0.3036222775
C   -2.4336392955 -2.4339124044 -0.0433875337
C   -2.8268996097 -1.1019251015  0.0845934915
C   -4.1716898995 -0.6547458403  0.3141007891
H   -4.9982236106 -1.2852972494  0.5791478482
C   -4.1758182137  0.6923441485  0.1558754382
H   -5.0051136782  1.3672718780  0.2376749161
C   -2.8249352050  1.0870662053 -0.1114285185
C   -3.4394640558 -3.4942678438  0.0446685405
C   -3.2207671787 -4.5946459108  0.8770748420
C   -4.1750566360 -5.5841371032  1.0028995504
C   -5.3613506468 -5.5049299153  0.2915990647
H   -6.1098792356 -6.2752656669  0.3946810966
C   -5.5776979805 -4.4340256016 -0.5605508077
C   -4.6276906871 -3.4389057033 -0.6857389369
Fe  -0.0021062469  0.0121789949  0.2392066053
C    3.4766210789 -3.4266449007 -0.3740379884
C    3.3421819407 -4.6387512984  0.3122017220
C    4.5995866182 -3.2416186366 -1.1877803057
C    4.2883069421 -5.6356531532  0.1730479545
C    5.5472472258 -4.2376161327 -1.3209284229
H    4.1593285423 -6.5728883149  0.6918295979
C    5.3919609587 -5.4428109600 -0.6512196590
H    6.4065650299 -4.0788518686 -1.9565498090
H    6.1238528908 -6.2273247977 -0.7697696126
C   -3.4869774050  3.4076587271 -0.5979700532
C   -4.0198900829  4.1409597009  0.4543223415
C   -3.9479549831  3.6360382900 -1.8908031501
C   -5.0093895366  5.0791566691  0.2166533864
C   -4.9324103945  4.5790553179 -2.1252885033
H   -5.4202454815  5.6426355630  1.0405455097
C   -5.4706086306  5.2980434776 -1.0705447627
H   -5.2761536892  4.7518239526 -3.1343535455
H   -6.2459099676  6.0273122998 -1.2502609529
H    6.3843474955  4.3435682325 -1.4927611930
H    4.2676754181  6.3521597960  1.6281345612
H   -3.9951150556 -6.4194633739  1.6633852618
H   -6.4922887776 -4.3765439734 -1.1326841384
H   -3.6503077702  3.9762916957  1.4571093575
H   -3.5247795039  3.0697692933 -2.7085293922
H    2.4945350474 -4.7851222545  0.9636877229
H    4.7030760566 -2.3210322095 -1.7457123392
H   -2.3043097918 -4.6474863175  1.4448253746
H   -4.7875328119 -2.6233203419 -1.3754742756
H    4.6335404190  2.6199341136 -1.5676221678
H    2.5214208159  4.6211583299  1.5559690110
Cl  -0.0271966826  0.0754138306  2.3786308311
78
aligned d3map frame 79
N   -0.0017519974  2.0542970853 -0.2025084471
N    2.0126694581  0.0196326753 -0.0919675219
C   -2.4361765445  2.3930127150 -0.3993459249
C   -1.0938226704  2.8229935651 -0.4911569549
C   -0.6726650312  4.1212347231 -0.8710762994
H   -1.3168314426  4.9175968416 -1.1869549636
C    0.6977437168  4.1359202344 -0.7773573195
H    1.3579587306  4.9483551766 -1.0082246226
C    1.0938545755  2.8467408044 -0.3417522198
C    2.4387637242  2.4404379567 -0.1164719476
C    2.8278907049  1.1098828164  0.0528180752
C    4.1750376598  0.6716146111  0.2893617740
H    5.0081395918  1.3134159947  0.5047008861
C    4.1745241769 -0.6832202344  0.1960197271
H    5.0012270088 -1.3598067164  0.2933146962
C    2.8227470172 -1.0850983792 -0.0521888066
C    3.4753187496  3.4758195170 -0.1444603643
C    3.3528290279  4.6366371482  0.6271082980
C    4.3368335412  5.6070252586  0.6001252762
C    5.4621254861  5.4396123304 -0.1937470978
H    6.2324340575  6.1974993424 -0.2090902645
C    5.5904618155  4.2965734272 -0.9745303647
C    4.6052365599  3.3280945209 -0.9564636665
N    0.0027652500 -2.0388576686 -0.1413770268
N   -2.0135788446 -0.0247627280 -0.1108297699
C    2.4285513162 -2.3951431600 -0.3029873144
C    1.0906919502 -2.8175344512 -0.4254073298
C    0.6700952909 -4.1353746584 -0.7277390295
H    1.3158410932 -4.9457043791 -1.0061606110
C   -0.6966644708 -4.1517949799 -0.5906951758
H   -1.3596417952 -4.9777983671 -0.7560325184
C   -1.0853968710 -2.8457815081 -0.2006138221
C   -2.4217952816 -2.4399548923  0.0789293848
C   -2.8213799867 -1.1070598153  0.1418733169
C   -4.1602539411 -0.6553724799  0.3751913786
H   -4.9797567776 -1.2773390562  0.6792483121
C   -4.1680200036  0.6886379055  0.1754448174
H   -5.0052330401  1.3537066929  0.2565623006
C   -2.8258107315  1.0761902132 -0.1343468556
C   -3.4025486532 -3.5122013470  0.2684209113
C   -3.1241243683 -4.5521276808  1.1596059509
C   -4.0273474395 -5.5791096125  1.3472210283
C   -5.2239158636 -5.5942738255  0.6475043937
H   -5.9283829710 -6.4003440518  0.7920745216
C   -5.5087959606 -4.5720518046 -0.2420278817
C   -4.6077238095 -3.5412678845 -0.4334539799
Fe  -0.0021062469  0.0121789949  0.2392066053
C    3.4706473003 -3.4392150514 -0.4376665593
C    3.9832409490 -4.0805639036  0.6849490234
C    3.9251248425 -3.8086310906 -1.6984797351
C    4.9279798700 -5.0833445718  0.5444341829
C    4.8733333890 -4.8081714205 -1.8344052476
H    5.3144705386 -5.5807201165  1.4226977605
C    5.3741863691 -5.4500941746 -0.7140519083
H    5.2203652671 -5.0909636639 -2.8183296532
H    6.1075217314 -6.2375492848 -0.8215467276
C   -3.4977181487  3.3877899468 -0.6076347795
C   -3.5595198073  4.5606391802  0.1464233335
C   -4.4753017809  3.1646653896 -1.5794559777
C   -4.5763743778  5.4769955206 -0.0594377190
C   -5.4832610168  4.0879460247 -1.7900966361
H   -4.6193430195  6.3737337866  0.5410170341
C   -5.5409977624  5.2455523060 -1.0286581605
H   -6.2271109910  3.9041530059 -2.5527590366
H   -6.3341406046  5.9633015323 -1.1894061877
H    4.2305771860  6.4995995079  1.2057729846
H    6.4620737824  4.1610030530 -1.6010600273
H   -3.7999613362 -6.3736147767  2.0428121401
H   -6.4352424430 -4.5833983386 -0.7975757512
H   -2.8193724340  4.7351524358  0.9144783012
H   -4.4213117398  2.2696273420 -2.1842726980
H    3.6303254505 -3.7929399877  1.6641234896
H    3.5281358394 -3.3117099766 -2.5722050161
H   -2.2002055006 -4.5333507405  1.7192042677
H   -4.8160283888 -2.7690974938 -1.1593896734
H    2.4895765324  4.7556149672  1.2671292450
H    4.6883068610  2.4604229557 -1.5971108667
Cl  -0.0004496326  0.0709238542  2.3788308649
78
aligned d3map frame 80
N   -0.0136143098  2.0521308438 -0.2032569055
N    2.0153019535  0.0281718866 -0.0791751878
C   -2.4487863046  2.4158341055 -0.3452859010
C   -1.0978753920  2.8158456402 -0.5142610047
C   -0.6706417098  4.0910521143 -0.9528847396
H   -1.3069131802  4.8762961595 -1.3121338740
C    0.7028443844  4.1053524006 -0.8496615415
H    1.3697984920  4.9034479525 -1.1113010574
C    1.0844534630  2.8388741072 -0.3547356322
C    2.4116550228  2.4518982074 -0.0059367716
C    2.8016045866  1.1291679132  0.1653464471
C    4.1136629473  0.6966516439  0.5554656618
H    4.9055162716  1.3420384209  0.8825471792
C    4.1306405631 -0.6559590113  0.4634105755
H    4.9402878993 -1.3195746562  0.6965291315
C    2.8203583668 -1.0686254169  0.0479266987
C    3.3784639558  3.5353684391  0.1868136488
C    3.0359393968  4.6196503922  0.9991781115
C    3.9240114578  5.6566082208  1.2033821158
C    5.1691565908  5.6379208470  0.5945466788
H    5.8631844435  6.4515626034  0.7521036308
C    5.5195383861  4.5727487332 -0.2185963768
C    4.6336039516  3.5300632060 -0.4224035881
N    0.0123724440 -2.0394425417 -0.1367781214
N   -2.0157332771  0.0056752236 -0.0987072375
C    2.4489425498 -2.3988134590 -0.1662388064
C    1.1082162279 -2.8299156062 -0.3229039530
C    0.6951310632 -4.1609979986 -0.5715838186
H    1.3352695151 -4.9864035083 -0.8127072267
C   -0.6756676369 -4.1788952633 -0.4581725808
H   -1.3208785515 -5.0298666736 -0.5478350992
C   -1.0792842061 -2.8514930219 -0.1870846652
C   -2.4074398220 -2.4200186000  0.0832477039
C   -2.8075458591 -1.0913555951  0.1281608591
C   -4.1700022359 -0.6682947414  0.2908576319
H   -4.9985464523 -1.3249740514  0.4720956823
C   -4.1889794998  0.6793492091  0.1471107580
H   -5.0320975523  1.3371767957  0.2230572556
C   -2.8404305737  1.0965347657 -0.1125422435
C   -3.4071573360 -3.4577614284  0.3947758722
C   -3.9527237667 -3.4957706426  1.6776015137
C   -4.8531451375 -4.4840157839  2.0273258141
C   -5.2303454633 -5.4421772014  1.1007064917
H   -5.9286554433 -6.2178460234  1.3773028324
C   -4.7097758949 -5.3986653445 -0.1821349945
C   -3.8031468337 -4.4151174600 -0.5350391856
Fe  -0.0021062469  0.0121789949  0.2392066053
C    3.5057708903 -3.4162320542 -0.1667170730
C    3.4169636536 -4.5450843837  0.6501817772
C    4.6311179109 -3.2685517351 -0.9800902290
C    4.4196130603 -5.4951378512  0.6478776461
C    5.6315906374 -4.2217345186 -0.9797420268
H    4.3391389085 -6.3603910729  1.2895362221
C    5.5298783642 -5.3392446413 -0.1674391139
H    6.4945850347 -4.0936919067 -1.6167933619
H    6.3120630441 -6.0838223355 -0.1659308276
C   -3.4533377622  3.4862067595 -0.3412687601
C   -3.2709343591  4.5812495088  0.5081615759
C   -4.5854120297  3.4556301270 -1.1547419418
C   -4.1971341197  5.6036153901  0.5513852899
C   -5.5062506682  4.4874072545 -1.1147064614
H   -4.0447986649  6.4370287653  1.2221164968
C   -5.3198876305  5.5620269105 -0.2610993913
H   -6.3748648507  4.4548641910 -1.7569447897
H   -6.0418777615  6.3644697244 -0.2290298567
H    3.6455411433  6.4826129971  1.8415410027
H    6.4860485012  4.5549518618 -0.7003086899
H   -5.2586280469 -4.5080534812  3.0284251064
H   -5.0109354139 -6.1363202124 -0.9120711928
H   -2.4033927091  4.6052424070  1.1509790062
H   -4.7266369736  2.6328732644 -1.8408836136
H    2.5681357021 -4.6540961338  1.3087487043
H    4.7019194071 -2.4078774619 -1.6292355659
H   -3.6450176124 -2.7546755274  2.4007176115
H   -3.4136541648 -4.3719317717 -1.5417844553
H    2.0725626425  4.6269075343  1.4880578715
H    4.8982798200  2.7179265078 -1.0837648564
Cl  -0.0204220057  0.0246147425  2.3793243745
78
aligned d3map frame 81
N   -0.0174962172  2.0578451962 -0.1912278993
N    2.0116577104  0.0220680373 -0.0762112783
C   -2.4075170151  2.4404969423  0.2130458000
C   -1.0971996524  2.8662075204  0.0125862140
C   -0.6894618567  4.2388134460 -0.0770171990
H   -1.3442132514  5.0835187090  0.0166043170
C    0.6438569925  4.2397655436 -0.3292274226
H    1.2888964952  5.0860303220 -0.4506461148
C    1.0629567807  2.8673316081 -0.3725195924
C    2.3870015534  2.4450524786 -0.4604092076
C    2.8140574773  1.1026785665 -0.3229940028
C    4.1622531143  0.6861008034 -0.4194105583
H    4.9991806958  1.3189851682 -0.6398323101
C    4.1749611422 -0.6714413373 -0.1968721508
H    5.0241539171 -1.3271491694 -0.2083589943
C    2.8332821079 -1.0629674339  0.0093969680
C    3.4225903439  3.4774597140 -0.6406217435
C    4.3691308118  3.7118727249  0.3554205063
C    5.3206286676  4.7011682504  0.1952865935
C    5.3532831428  5.4559621430 -0.9671065514
H    6.1006776097  6.2208994025 -1.0949366957
C    4.4233426898  5.2226779863 -1.9663711855
C    3.4571222753  4.2471679806 -1.8009317685
N    0.0227829093 -2.0449196475 -0.1241843173
N   -2.0144363483  0.0140664060 -0.0949912774
C    2.4265149177 -2.4183479418  0.1509487330
C    1.1149362211 -2.8565001812  0.0076474183
C    0.6954298907 -4.2283431241 -0.0362014894
H    1.3443358051 -5.0763169549  0.0565630637
C   -0.6473189239 -4.2262773782 -0.2251258300
H   -1.2961781493 -5.0712302318 -0.3450447244
C   -1.0687684120 -2.8532533785 -0.2337442036
C   -2.3964395358 -2.4313190325 -0.2953698081
C   -2.8231951567 -1.0836709752 -0.2091964176
C   -4.1776004168 -0.6899134510 -0.1036942225
H   -5.0270367753 -1.3433031213 -0.1426244158
C   -4.1848458595  0.6706948097  0.0937338967
H   -5.0403622804  1.2974277277  0.2441638805
C   -2.8371500587  1.0920998405  0.0803863222
C   -3.4447671920 -3.4637557643 -0.3642259694
C   -3.5664366234 -4.4112158774  0.6506840858
C   -4.5530424948 -5.3779518954  0.5922715832
C   -5.4292803442 -5.4171505954 -0.4795593188
H   -6.1977233142 -6.1749902014 -0.5224795692
C   -5.3169156548 -4.4786944494 -1.4927215023
C   -4.3367744097 -3.5059171179 -1.4344888742
Fe  -0.0021062469  0.0121789949  0.2392066053
C    3.4904315446 -3.3907695677  0.4441934526
C    4.2215849759 -3.2419915481  1.6241333181
C    3.7956101445 -4.4508846085 -0.4060918609
C    5.2147990207 -4.1431698340  1.9547077441
C    4.8008196586 -5.3430040942 -0.0770259473
H    5.7596232333 -4.0212451296  2.8800604389
C    5.5083159188 -5.1977547156  1.1052026425
H    5.0357697651 -6.1564547524 -0.7485986568
H    6.2877291425 -5.8979288898  1.3590663274
C   -3.3882031451  3.4576941151  0.6242711951
C   -3.1624803771  4.1392200325  1.8207756310
C   -4.5271700436  3.7636187532 -0.1181972515
C   -4.0644211074  5.0842395983  2.2741310336
C   -5.4245558808  4.7161769664  0.3364934844
H   -3.8801864789  5.5932151573  3.2091333090
C   -5.2021365519  5.3737737158  1.5355400575
H   -6.3005905962  4.9489946069 -0.2521383215
H   -5.9110828739  6.1079366583  1.8920422316
H    6.0391635536  4.8866491004  0.9802339119
H    4.4504141961  5.8035100152 -2.8771741578
H   -4.6396330712 -6.1015954769  1.3900431297
H   -5.9974618385 -4.5044626688 -2.3313299078
H   -2.2823953432  3.9019731878  2.4016123352
H   -4.6934253703  3.2731962830 -1.0668242230
H    3.9846694887 -2.4200309230  2.2843386976
H    3.2632821515 -4.5567836468 -1.3412082374
H   -2.8949906113 -4.3691618924  1.4957360398
H   -4.2411714449 -2.7783261724 -2.2280132314
H    4.3307360800  3.1354338312  1.2621307635
H    2.7314994747  4.0603317702 -2.5787649626
Cl  -0.0459690376  0.0881020207  2.3772570197
78
aligned d3map frame 82
N   -0.0122384283  2.0517057835 -0.1895737594
N    2.0139500306  0.0193176673 -0.0971165941
C   -2.4529725305  2.4181847979 -0.2668056982
C   -1.1031128328  2.8187318146 -0.4613776051
C   -0.6911203853  4.0915052963 -0.9228973610
H   -1.3390468426  4.8809917054 -1.2556212487
C    0.6864126051  4.0999340388 -0.8782535001
H    1.3413161201  4.8961772685 -1.1764511811
C    1.0846118633  2.8351637596 -0.3907130775
C    2.4204492125  2.4463476262 -0.0912245482
C    2.8083029373  1.1220305334  0.0978760215
C    4.1298981385  0.6998959577  0.4643368778
H    4.9293646849  1.3546427770  0.7516568385
C    4.1438895289 -0.6548667658  0.4133188401
H    4.9581788780 -1.3149227348  0.6381229473
C    2.8236891471 -1.0775358571  0.0406485522
C    3.4096061627  3.5203497866  0.0238924239
C    3.1234548039  4.6444559935  0.8029616644
C    4.0437918325  5.6656561752  0.9357711522
C    5.2684528379  5.5884352343  0.2933643714
H    5.9916842617  6.3834316332  0.4000409558
C    5.5610377071  4.4848017360 -0.4925405434
C    4.6420326036  3.4621882514 -0.6305800455
N    0.0208355913 -2.0406842227 -0.1249027232
N   -2.0156084812  0.0040465450 -0.1150255184
C    2.4514243176 -2.4095436674 -0.1341242216
C    1.1093626107 -2.8374675845 -0.3080851255
C    0.6925046886 -4.1602071216 -0.5875421809
H    1.3352012076 -4.9831829312 -0.8297529937
C   -0.6811635160 -4.1682996357 -0.5005642353
H   -1.3425794214 -5.0000159902 -0.6444229074
C   -1.0739645625 -2.8448807868 -0.2030435813
C   -2.4051993950 -2.4211805028  0.0275845103
C   -2.8115316722 -1.0991337280  0.0695615824
C   -4.1706963611 -0.6858606002  0.2668220558
H   -4.9890085208 -1.3560603838  0.4443177459
C   -4.1896703418  0.6658975596  0.1803024869
H   -5.0289681544  1.3223779134  0.2981658654
C   -2.8424221960  1.0932799417 -0.0780392219
C   -3.3910571200 -3.4907886876  0.3000410920
C   -3.4277248541 -4.0391047964  1.5795149411
C   -4.3113118585 -5.0591288063  1.8763510208
C   -5.1552627956 -5.5531559103  0.8946445758
H   -5.8413889986 -6.3564999436  1.1250379661
C   -5.1226519322 -5.0112822598 -0.3788344504
C   -4.2505712317 -3.9797625388 -0.6757623881
Fe  -0.0021062469  0.0121789949  0.2392066053
C    3.4813463355 -3.4526295949 -0.0786010034
C    3.3303394378 -4.5379124280  0.7875050803
C    4.6177844038 -3.3953897725 -0.8880011212
C    4.2835594025 -5.5363698078  0.8381412019
C    5.5660181075 -4.4001937503 -0.8391677544
H    4.1527765141 -6.3677712028  1.5159656687
C    5.4025907983 -5.4749200649  0.0209611957
H    6.4355216496 -4.3484776403 -1.4785218694
H    6.1429997299 -6.2605695996  0.0567585181
C   -3.4546930356  3.4872754370 -0.2190375593
C   -3.2534457124  4.5734121117  0.6374355926
C   -4.6128795362  3.4598519868 -0.9988896394
C   -4.1910440836  5.5863762340  0.7295070445
C   -5.5469046593  4.4773143619 -0.9066114521
H   -4.0235053613  6.4135634550  1.4052106769
C   -5.3438904068  5.5399429311 -0.0395285098
H   -6.4369655851  4.4431338299 -1.5186008542
H   -6.0757306767  6.3309623730  0.0319114800
H    3.8084890124  6.5236842282  1.5487455187
H    6.5164599892  4.4195545929 -0.9958130298
H   -4.3376775526 -5.4729051863  2.8738645648
H   -5.7794169591 -5.3975229923 -1.1456742836
H   -2.3642670125  4.5992360777  1.2511288985
H   -4.7635540537  2.6497243498 -1.6986117449
H    2.4677734467 -4.5773077572  1.4365427475
H    4.7351381603 -2.5698289826 -1.5753764732
H   -2.7622594297 -3.6486593476  2.3364434081
H   -4.2223155318 -3.5615914467 -1.6713444052
H    2.1796520978  4.6914220510  1.3259996871
H    4.8597426973  2.6198113686 -1.2713884548
Cl  -0.0196996514  0.0082420704  2.3790529782
78
aligned d3map frame 83
N   -0.0071079027  2.0661113125 -0.1595907805
N    2.0148412110  0.0274109290 -0.0892822656
C   -2.4393767610  2.4217511747 -0.2173380701
C   -1.1092854717  2.8619262380 -0.2742357013
C   -0.7171508854  4.2120360077 -0.4665248868
H   -1.3834124182  5.0365872067 -0.6149774060
C    0.6509882574  4.2250735554 -0.4700678352
H    1.2903754431  5.0722284884 -0.6226070490
C    1.0760442939  2.8850894499 -0.2526748384
C    2.4221923740  2.4674828889 -0.1909587289
C    2.8291591471  1.1257492644 -0.0974540352
C    4.1907315713  0.7189839007  0.0235466842
H    5.0305904109  1.3824766095  0.0838725867
C    4.1958096287 -0.6423047838  0.0833919692
H    5.0412414888 -1.2929447203  0.1855339163
C    2.8389067204 -1.0675583640  0.0025527378
C    3.4470300522  3.5158288490 -0.2704493630
C    3.4385789944  4.5902527364  0.6215783752
C    4.3640796524  5.6106887385  0.5039794848
C    5.3112421512  5.5786534587 -0.5061622787
H    6.0268961649  6.3819791130 -0.6079478810
C    5.3371779023  4.5095945691 -1.3895156580
C    4.4164561103  3.4864177170 -1.2737521017
N    0.0030841572 -2.0498971427 -0.0949175036
N   -2.0148019951 -0.0113937777 -0.1090232015
C    2.4392803126 -2.4063916841  0.0414443620
C    1.1063587853 -2.8506554257 -0.0228867840
C    0.7131418547 -4.2162917353 -0.0538374634
H    1.3753828536 -5.0593253337 -0.0296778105
C   -0.6527744807 -4.2324550932 -0.1230053506
H   -1.2928249049 -5.0910107715 -0.1387049986
C   -1.0792222482 -2.8753697979 -0.1481562127
C   -2.4227212280 -2.4529459336 -0.1635107165
C   -2.8248586890 -1.1064182841 -0.1688289373
C   -4.1854168401 -0.6947939761 -0.3114494449
H   -5.0263398875 -1.3479400163 -0.4336715435
C   -4.1928878257  0.6673215830 -0.3013327911
H   -5.0370453267  1.3232370039 -0.3994385688
C   -2.8363266244  1.0856982567 -0.1791779686
C   -3.4847334146 -3.4659117948 -0.1330931382
C   -4.4359381625 -3.4304979729  0.8897634449
C   -5.4646751146 -4.3499518884  0.9267501318
C   -5.5636247937 -5.3249811780 -0.0542903454
H   -6.3809782442 -6.0330506819 -0.0282593052
C   -4.6213211786 -5.3769028366 -1.0678982639
C   -3.5890832330 -4.4555288455 -1.1080831806
Fe  -0.0021062469  0.0121789949  0.2392066053
C    3.4744471100 -3.4505979571  0.1490147879
C    3.5105342057 -4.2841350655  1.2651502301
C    4.4027029358 -3.6475888083 -0.8708144178
C    4.4509227258 -5.2931275940  1.3544364880
C    5.3364996330 -4.6650719871 -0.7820545740
H    4.4739909905 -5.9324227025  2.2264091782
C    5.3624328224 -5.4910972951  0.3289919736
H    6.0412567422 -4.8165068507 -1.5869767510
H    6.0896297987 -6.2878583164  0.3982346402
C   -3.5109686106  3.4429293234 -0.2083301529
C   -4.0965114405  3.7998993102  1.0013777923
C   -3.9570655396  4.0390891941 -1.3825471834
C   -5.1133570702  4.7366688335  1.0372286464
C   -4.9795730600  4.9701923052 -1.3437925244
H   -5.5591978605  5.0073248896  1.9834618994
C   -5.5594110661  5.3213424495 -0.1355517403
H   -5.3284943006  5.4222759095 -2.2610488718
H   -6.3575353159  6.0484532198 -0.1117733125
H    4.3401285086  6.4396279094  1.1978141650
H    6.0726902815  4.4807138351 -2.1804276718
H   -6.1959214878 -4.3056898317  1.7206033487
H   -4.6965109133 -6.1321968949 -1.8360316001
H   -3.7464070840  3.3378391149  1.9129688441
H   -3.5073901449  3.7604023473 -2.3247311657
H    2.8021889012 -4.1228081357  2.0649325806
H    4.3703345904 -3.0124729134 -1.7444640820
H   -4.3487449016 -2.6786109857  1.6607810012
H   -2.8754185338 -4.4758974527 -1.9195312992
H    2.7076142332  4.6086727339  1.4167390863
H    4.4172749266  2.6688023298 -1.9804763988
Cl  -0.0182859933  0.0234801737  2.3785213656
78
aligned d3map frame 84
N   -0.0142023489  2.0664878026 -0.1418243462
N    2.0108285940  0.0215974833 -0.1074696463
C   -2.4573155936  2.4269684093 -0.0651960267
C   -1.1125210744  2.8700347566 -0.1721171226
C   -0.7236128086  4.2143133686 -0.3893506627
H   -1.3926969084  5.0470063515 -0.4994175426
C    0.6483958961  4.2194799855 -0.4749198362
H    1.2934062397  5.0604381908 -0.6400055021
C    1.0723273936  2.8777359491 -0.3076730309
C    2.4141414036  2.4476279532 -0.3322428280
C    2.8219422692  1.1189537263 -0.2225117989
C    4.1950116195  0.7112935595 -0.1811139567
H    5.0337625393  1.3773040044 -0.2487410053
C    4.2060511227 -0.6387276885 -0.0345221490
H    5.0515638308 -1.2954785303  0.0309032581
C    2.8381811677 -1.0666770678  0.0027546868
C    3.4447238464  3.4997327435 -0.4585828426
C    3.6641440487  4.3863358451  0.5932636216
C    4.6077602345  5.3895989510  0.4803089975
C    5.3295560738  5.5362122312 -0.6936799202
H    6.0540000746  6.3323920712 -0.7908848967
C    5.1127283294  4.6632276448 -1.7465333515
C    4.1844086822  3.6446312799 -1.6283573607
N    0.0146128044 -2.0508810363 -0.0760046425
N   -2.0131552048  0.0017843452 -0.1269663248
C    2.4503518594 -2.4002618415  0.0478738151
C    1.1117551104 -2.8539272202 -0.0549564989
C    0.7202025135 -4.2137699635 -0.1403238382
H    1.3844651693 -5.0555325307 -0.1399194367
C   -0.6506637008 -4.2247265662 -0.2225405255
H   -1.2969804365 -5.0751321961 -0.3156211936
C   -1.0728852015 -2.8726461077 -0.1647514305
C   -2.4122614029 -2.4387563507 -0.1953124268
C   -2.8190889879 -1.1056067861 -0.1377006477
C   -4.1900720095 -0.7085171441 -0.0291783628
H   -5.0222571784 -1.3843404172  0.0143137843
C   -4.2059847926  0.6464432799  0.0474984405
H   -5.0582845061  1.2852878326  0.1709420734
C   -2.8450394840  1.0882685694 -0.0454978664
C   -3.4679345057 -3.4616189770 -0.3396324182
C   -3.7629791289 -4.3673529941  0.6739788931
C   -4.7611782549 -5.3093754859  0.4940141953
C   -5.4571343982 -5.3740745477 -0.7009135409
H   -6.2203360547 -6.1248284374 -0.8420430913
C   -5.1710752918 -4.4733300785 -1.7145929508
C   -4.1920616442 -3.5164046523 -1.5292533701
Fe  -0.0021062469  0.0121789949  0.2392066053
C    3.4913728290 -3.4329327787  0.2354327582
C    4.0657529674 -3.5955853481  1.4935833605
C    3.8860034613 -4.2702229839 -0.8027408363
C    5.0011715919 -4.5904100608  1.7121086849
C    4.8311848478 -5.2578656532 -0.5823692875
H    5.4277784935 -4.7121718953  2.6972619446
C    5.3838954373 -5.4270801559  0.6766289419
H    5.1322843651 -5.9014770862 -1.3963074210
H    6.1090779840 -6.2094456059  0.8502853489
C   -3.4960174003  3.4632066582  0.0010878204
C   -3.4454132173  4.4359452727  1.0005379033
C   -4.5394501434  3.5052592652 -0.9228644688
C   -4.4192899644  5.4120689280  1.0797295067
C   -5.5078831908  4.4882861827 -0.8443823216
H   -4.3730633537  6.1540717002  1.8640900639
C   -5.4548874184  5.4418940111  0.1590583480
H   -6.3077968067  4.5121366657 -1.5703838205
H   -6.2146993127  6.2065752973  0.2238772093
H    4.7793270990  6.0648855647  1.3059462374
H    5.6676637670  4.7813701290 -2.6665909088
H   -4.9978673762 -5.9987659250  1.2928392710
H   -5.7121789848 -4.5166376377 -2.6485001530
H   -2.6460530829  4.3990808429  1.7258727576
H   -4.5755626533  2.7741731816 -1.7192995848
H    3.7599393374 -2.9490957725  2.3033286279
H    3.4523436797 -4.1353245356 -1.7836107140
H   -3.2294340697 -4.3175945678  1.6144883243
H   -3.9618839567 -2.8035451472 -2.3095094819
H    3.0894533546  4.2729479641  1.5023231151
H    4.0093668006  2.9706147603 -2.4557018968
Cl  -0.0081404220  0.0280405180  2.3797855688
78
aligned d3map frame 85
N    0.0001040541  2.0626074251 -0.1771794697
N    2.0122601649  0.0377295060 -0.0858820745
C   -2.4126784071  2.4097724407 -0.4543389022
C   -1.1011210503  2.8578534930 -0.2970195261
C   -0.7062404286  4.2347264346 -0.2260433506
H   -1.3741257770  5.0713999369 -0.2491730913
C    0.6434089124  4.2550933470 -0.0908830151
H    1.2828152601  5.1107872722 -0.0253056254
C    1.0805846997  2.8908529311 -0.0573226872
C    2.4096183465  2.4834360270 -0.0119729768
C    2.8310693799  1.1322245112 -0.0573335586
C    4.1865409727  0.7239513952 -0.1037951565
H    5.0357717402  1.3761678265 -0.0592717670
C    4.1855546589 -0.6442640716 -0.2050842478
H    5.0311210351 -1.2994473711 -0.2700352582
C    2.8305125916 -1.0531985771 -0.1900665743
C    3.4513553064  3.5269800796 -0.0257831099
C    3.5782263598  4.4349865003  1.0233647840
C    4.5511487330  5.4184214109  0.9851213821
C    5.3995494058  5.5196335851 -0.1102062599
H    6.1560187856  6.2904936331 -0.1404678838
C    5.2749397777  4.6246894367 -1.1600214886
C    4.3126081236  3.6332068719 -1.1167271023
N   -0.0086574005 -2.0488212872 -0.1128834458
N   -2.0117613718 -0.0203351055 -0.1061367046
C    2.4165981236 -2.4001106871 -0.2743299171
C    1.1025108086 -2.8375851408 -0.1762740896
C    0.7286594980 -4.2132192842 -0.0279500224
H    1.4166789631 -5.0354929911 -0.0338608737
C   -0.6139409177 -4.2379608280  0.1657478162
H   -1.2295502360 -5.0906184296  0.3715936287
C   -1.0768534159 -2.8830712868  0.0657609570
C   -2.4085481656 -2.4730565030  0.0777401718
C   -2.8132889954 -1.1249597562 -0.1333104486
C   -4.1267604376 -0.7582189533 -0.5052557672
H   -4.9481717087 -1.4337610129 -0.6468590367
C   -4.1221206696  0.6033233050 -0.6933086098
H   -4.9380858283  1.2198105695 -1.0157760270
C   -2.8088773471  1.0507222831 -0.4158954387
C   -3.4767576119 -3.4627915457  0.2517531173
C   -4.4707840787 -3.2460858881  1.2097017468
C   -5.4762612749 -4.1711585343  1.4067336047
C   -5.5124052461 -5.3336163073  0.6538310785
H   -6.2927126447 -6.0624654806  0.8116397025
C   -4.5439431088 -5.5507558807 -0.3139140724
C   -3.5397263751 -4.6245827258 -0.5187001391
Fe  -0.0021062469  0.0121789949  0.2392066053
C    3.4723955298 -3.4093285429 -0.5087660247
C    4.2974840463 -3.8581295687  0.5162174265
C    3.6651029407 -3.8920420513 -1.8000896525
C    5.3027383381 -4.7716497039  0.2492219641
C    4.6819083275 -4.7917042535 -2.0655308835
H    5.9377128118 -5.1207857873  1.0507275970
C    5.5038391475 -5.2326209819 -1.0417108838
H    4.8364560039 -5.1461336795 -3.0751400538
H    6.2979327158 -5.9342795035 -1.2521584821
C   -3.4610866553  3.4176169036 -0.6633313268
C   -4.5718179845  3.4824559058  0.1790471342
C   -3.3563177405  4.3384137321 -1.7063115945
C   -5.5383663889  4.4511920378 -0.0100170967
C   -4.3290232913  5.3022532203 -1.8953657791
H   -6.3871562929  4.5002048166  0.6573161104
C   -5.4209593702  5.3667511621 -1.0456880112
H   -4.2330836721  6.0060604499 -2.7095904471
H   -6.1760826754  6.1257385428 -1.1884820265
H    4.6433135119  6.1142348679  1.8049888613
H    5.9316629902  4.6982740294 -2.0131547234
H   -6.2304295101 -3.9869562942  2.1568707105
H   -4.5754159124 -6.4488042093 -0.9147659820
H   -4.6527933291  2.7824567610  0.9983404296
H   -2.5122818934  4.2804415535 -2.3782223189
H    4.1400911670 -3.4875036475  1.5195202727
H    3.0239752429 -3.5410844206 -2.5953829137
H   -4.4335694467 -2.3497478020  1.8105433359
H   -2.8142854298 -4.7827721111 -1.3032227961
H    2.9177417577  4.3554771565  1.8705438157
H    4.2099258178  2.9417793257 -1.9390285728
Cl   0.0008369353  0.0565860676  2.3780818965
78
aligned d3map frame 86
N   -0.0257170933  2.0514463775 -0.2073545905
N    2.0111842875  0.0097313276 -0.0977448614
C   -2.4473081633  2.4128517987  0.0755756440
C   -1.1190088953  2.8559223512 -0.1654727628
C   -0.7410918171  4.1905905030 -0.4562054592
H   -1.4052786819  5.0305260546 -0.5128363764
C    0.6167360700  4.1825912234 -0.6605479052
H    1.2487433221  5.0189594325 -0.8877072591
C    1.0487500085  2.8429067787 -0.4941230454
C    2.3914334565  2.4140957346 -0.4984494825
C    2.8113496502  1.1099226811 -0.2250713469
C    4.1814624032  0.7243828158 -0.0535599436
H    5.0199357242  1.3898427220 -0.1222811424
C    4.1946474218 -0.6034345575  0.2220639860
H    5.0406768751 -1.2162193248  0.4607458542
C    2.8387155313 -1.0623030548  0.1263205123
C    3.4176097393  3.4259837115 -0.8147455773
C    4.3598389392  3.8365423215  0.1241297339
C    5.3264531081  4.7668373543 -0.2142645665
C    5.3710018937  5.2954330081 -1.4937102585
H    6.1327556098  6.0132293498 -1.7605735814
C    4.4289786563  4.9023800814 -2.4307661378
C    3.4533318425  3.9820864452 -2.0921954604
N    0.0079041223 -2.0369396423 -0.1447654192
N   -2.0114865071 -0.0049850528 -0.1206904514
C    2.4432213976 -2.3959633938  0.1099609100
C    1.1185291219 -2.8129980546 -0.2113326026
C    0.7815904714 -4.0935206831 -0.7067237921
H    1.4736545632 -4.8904560698 -0.9009353989
C   -0.5776051014 -4.0892130161 -0.9215241008
H   -1.1711001109 -4.8799951860 -1.3374931514
C   -1.0494050994 -2.8139830953 -0.5237464885
C   -2.4064238529 -2.4207918546 -0.4191484261
C   -2.8124205884 -1.1124152098 -0.1264360108
C   -4.1523537404 -0.7350225451  0.2091967661
H   -4.9701163788 -1.4158059344  0.3373604021
C   -4.1589675232  0.6122905321  0.3740584330
H   -4.9856283001  1.2332425392  0.6593185554
C   -2.8249573197  1.0734545619  0.1241330164
C   -3.4346321125 -3.4523425811 -0.5806970207
C   -3.3340156027 -4.6736059464  0.0903690333
C   -4.3108080406 -5.6397615003 -0.0557268914
C   -5.4098428364 -5.4074156971 -0.8707663903
H   -6.1745901738 -6.1621478293 -0.9796665587
C   -5.5192657774 -4.2015696023 -1.5468974005
C   -4.5432497977 -3.2345372674 -1.4055791881
Fe  -0.0021062469  0.0121789949  0.2392066053
C    3.3985468747 -3.4705379931  0.3967528094
C    3.0679882835 -4.4058511099  1.3797341740
C    4.6206284085 -3.6024177291 -0.2638713461
C    3.9494803613 -5.4127689290  1.7227713666
C    5.4963569514 -4.6176840142  0.0758646885
H    3.6842863322 -6.1233036918  2.4974046838
C    5.1718710174 -5.5188596069  1.0769540470
H    6.4383557177 -4.7074863987 -0.4422606525
H    5.8623769426 -6.3067047336  1.3473015999
C   -3.4906066768  3.4392855942  0.2037623954
C   -4.6137410163  3.4209332230 -0.6245928465
C   -3.3719896250  4.4560451489  1.1512099326
C   -5.5947725412  4.3863516877 -0.4995982355
C   -4.3582820048  5.4166201129  1.2756251052
H   -6.4565703903  4.3606184719 -1.1506587843
C   -5.4718660716  5.3845514902  0.4530274815
H   -4.2578272775  6.1932289893  2.0200184366
H   -6.2397361623  6.1370672886  0.5495194532
H    6.0510908057  5.0797807508  0.5234633901
H    4.4515633852  5.3127902759 -3.4299973986
H   -4.2215179933 -6.5764725968  0.4748778217
H   -6.3698946090 -4.0170400031 -2.1890140239
H   -4.6976220489  2.6560530186 -1.3822909219
H   -2.5113372137  4.4678160719  1.8031759539
H    2.1190541939 -4.3149060568  1.8878823125
H    4.8626277992 -2.9292315147 -1.0717078246
H   -2.4937767169 -4.8480624045  0.7482785438
H   -4.6181362274 -2.3081519925 -1.9561550140
H    4.3209659687  3.4346311969  1.1261925137
H    2.7231402737  3.6699660933 -2.8246086174
Cl  -0.0199566281  0.0813246639  2.3774726314
78
aligned d3map frame 87
N   -0.0179732872  2.0637753181 -0.1718290013
N    2.0120246159  0.0306091971 -0.0871622071
C   -2.4438581235  2.4327248265 -0.2192353444
C   -1.1178951357  2.8406517288 -0.3857435130
C   -0.7063360612  4.1459459396 -0.8095459438
H   -1.3679903140  4.9376093236 -1.1015555311
C    0.6517589858  4.1549578659 -0.8017347302
H    1.3054887448  4.9562472956 -1.0852016752
C    1.0770004173  2.8539893934 -0.3770623988
C    2.4059917781  2.4670250931 -0.2096261749
C    2.8166608027  1.1297779548  0.0213051399
C    4.1432625780  0.7308131753  0.3127840271
H    4.9657646041  1.3909536685  0.5053979290
C    4.1492730511 -0.6431433313  0.3246761321
H    4.9775376928 -1.2940113772  0.5261782850
C    2.8253806316 -1.0598728223  0.0464189766
C    3.4484334857  3.4947726403 -0.3115161910
C    3.3826687400  4.6519595699  0.4654414383
C    4.3619422441  5.6216989833  0.3654545205
C    5.4149869779  5.4616517997 -0.5205957814
H    6.1765780684  6.2225241336 -0.6040713960
C    5.4877919316  4.3184000596 -1.3008355566
C    4.5189607284  3.3394621310 -1.1935297852
N    0.0042818742 -2.0497679604 -0.1046939417
N   -2.0121221326  0.0041314550 -0.1089915547
C    2.4342091436 -2.4072559103 -0.1441946917
C    1.1099681278 -2.8335697979 -0.2546214717
C    0.7095864728 -4.1666895520 -0.5993374370
H    1.3784124095 -4.9794763971 -0.8041266186
C   -0.6465337698 -4.1745928333 -0.6430406723
H   -1.2902308399 -4.9946292237 -0.8932121907
C   -1.0858800558 -2.8499682499 -0.3137592030
C   -2.4140475944 -2.4371398267 -0.2452997186
C   -2.8119104951 -1.0953445475  0.0035219839
C   -4.1341250578 -0.7026383928  0.3146236836
H   -4.9526088036 -1.3664487478  0.5149412326
C   -4.1443036439  0.6725611820  0.3361633704
H   -4.9711498358  1.3179576254  0.5589075275
C   -2.8287197003  1.0932246332  0.0272057121
C   -3.4885596441 -3.3831107456 -0.5674736902
C   -3.6284992261 -4.6219105139  0.0546395425
C   -4.6358144123 -5.4893066472 -0.3317406316
C   -5.5148888897 -5.1398094557 -1.3425871854
H   -6.2929270923 -5.8231437333 -1.6491303864
C   -5.3942021862 -3.9032196988 -1.9589775419
C   -4.3968931637 -3.0329243779 -1.5721626645
Fe  -0.0021062469  0.0121789949  0.2392066053
C    3.5124865526 -3.3852460536 -0.3418923009
C    3.6122083476 -4.5444272884  0.4266384515
C    4.4587497352 -3.1600885207 -1.3429369371
C    4.6283047882 -5.4524416636  0.1937553292
C    5.4654890858 -4.0756324809 -1.5792220243
H    4.7014181677 -6.3441363551  0.7994284121
C    5.5540814577 -5.2259467394 -0.8120756246
H    6.1816640499 -3.8907949616 -2.3661595239
H    6.3419251338 -5.9408038925 -0.9966670350
C   -3.5141004443  3.4188982080 -0.4000550381
C   -3.5201384906  4.6313362328  0.2900927295
C   -4.5496682707  3.1573352398 -1.2996590405
C   -4.5291399765  5.5528867701  0.0809202921
C   -5.5515344595  4.0839070797 -1.5113136286
H   -4.5249160602  6.4851099844  0.6263110582
C   -5.5452201849  5.2863086101 -0.8229471971
H   -6.3393264365  3.8697688292 -2.2189888331
H   -6.3277923720  6.0116273841 -0.9890680846
H    4.3052820636  6.5067502908  0.9823386724
H    6.3039327073  4.1927800867 -1.9978717687
H   -4.7353562678 -6.4460937915  0.1598822267
H   -6.0789061460 -3.6225064968 -2.7458348525
H   -2.7417860446  4.8341212046  1.0106967274
H   -4.5454799936  2.2291872420 -1.8519116466
H    2.9016429853 -4.7135080273  1.2225416788
H    4.3802821613 -2.2694520168 -1.9488974665
H   -2.9637762844 -4.8919923021  0.8620724730
H   -4.2878932120 -2.0757769314 -2.0611293659
H    2.5699608554  4.7698831119  1.1668088193
H    4.5681337252  2.4551162142 -1.8119460507
Cl  -0.0108059167  0.0471736147  2.3789725722
78
aligned d3map frame 88
N   -0.0165899923  2.0433838831 -0.2453389410
N    2.0128941460  0.0108437013 -0.0828968227
C   -2.4603672167  2.4076421169 -0.2266895878
C   -1.1181874191  2.7931758051 -0.5140001773
C   -0.7310953576  4.0140536049 -1.1124275026
H   -1.3976333335  4.7733818888 -1.4712521913
C    0.6456228966  4.0110162676 -1.1651261564
H    1.2831535447  4.7622539333 -1.5885167707
C    1.0722632205  2.7924298379 -0.5901955836
C    2.4155477329  2.4243654117 -0.3115989665
C    2.7952974990  1.1261364394  0.0403719482
C    4.0916611639  0.7458665892  0.5227252378
H    4.8769781508  1.4260515870  0.7881515772
C    4.0996568443 -0.6081007134  0.6219033361
H    4.8934004643 -1.2335428310  0.9810996974
C    2.8106540523 -1.0700587191  0.1955468651
C    3.4436461696  3.4617355917 -0.3876840195
C    3.2391342360  4.7172801276  0.1889617102
C    4.2187451924  5.6897406784  0.1286570633
C    5.4230281723  5.4289337743 -0.5046441709
H    6.1921909190  6.1861613459 -0.5426266432
C    5.6366725549  4.1905544081 -1.0906018026
C    4.6575148047  3.2190070995 -1.0390168425
N    0.0222917661 -2.0303230590 -0.1820406299
N   -2.0138920446  0.0016437967 -0.1014021021
C    2.4487564443 -2.4037075692  0.0188012107
C    1.1240526130 -2.8171948485 -0.3026234026
C    0.7438517143 -4.1121687821 -0.7308761066
H    1.4148074875 -4.9171996533 -0.9579413815
C   -0.6284403295 -4.1142101487 -0.8188458830
H   -1.2700062746 -4.9277784022 -1.0938268939
C   -1.0597696947 -2.8141154772 -0.4586241905
C   -2.4016064608 -2.4149274283 -0.2753779281
C   -2.8068494260 -1.1113768851 -0.0117005238
C   -4.1576237773 -0.7144452187  0.2559024986
H   -4.9774085614 -1.3916943387  0.3986139625
C   -4.1726926171  0.6413321342  0.3029347921
H   -5.0061535353  1.2801073408  0.5199392385
C   -2.8379493855  1.0882940292  0.0174719465
C   -3.4367331605 -3.4653898542 -0.3795832928
C   -4.0359615448 -3.9877761169  0.7620386764
C   -4.9889719319 -4.9843429135  0.6551117176
C   -5.3617510658 -5.4616144051 -0.5909932830
H   -6.1055357768 -6.2388417868 -0.6707966015
C   -4.7753146396 -4.9391262559 -1.7312468201
C   -3.8137949347 -3.9501700183 -1.6275258055
Fe  -0.0021062469  0.0121789949  0.2392066053
C    3.4664433424 -3.4480305322  0.1513891878
C    3.2149927416 -4.5839300109  0.9257511050
C    4.6977947765 -3.3452056130 -0.4994234651
C    4.1654735061 -5.5775857255  1.0484800743
C    5.6451188119 -4.3435064034 -0.3763629288
H    3.9582211949 -6.4456293622  1.6556982945
C    5.3845157992 -5.4629059099  0.3969312853
H    6.5906414071 -4.2517966026 -0.8924033102
H    6.1242524229 -6.2442631536  0.4898329151
C   -3.4770934887  3.4609923489 -0.2571032202
C   -3.2729119410  4.6552473987  0.4385677615
C   -4.6539920856  3.3135510927 -0.9942890487
C   -4.2227144273  5.6576078030  0.4118524079
C   -5.6021510242  4.3184422523 -1.0175036585
H   -4.0532277541  6.5727623773  0.9590172899
C   -5.3928851137  5.4928140968 -0.3125383556
H   -6.5071971039  4.1855025614 -1.5945925975
H   -6.1354178012  6.2766265726 -0.3316330210
H    4.0451700774  6.6541243158  0.5829844570
H    6.5709276757  3.9849724385 -1.5924818393
H   -5.4408796022 -5.3923717573  1.5471385762
H   -5.0667674178 -5.3031157051 -2.7065379257
H   -2.3711126937  4.7773969579  1.0192659586
H   -4.8056437005  2.4160847121 -1.5774227421
H    2.2751785877 -4.6619652473  1.4506760982
H    4.8931330707 -2.4895423727 -1.1293873731
H   -3.7386951732 -3.6136212237  1.7307332706
H   -3.3540009016 -3.5400497261 -2.5152276492
H    2.3144425248  4.9126287482  0.7115421928
H    4.8121287182  2.2679088898 -1.5275977432
Cl  -0.0069962288  0.0331637882  2.3790665190
78
aligned d3map frame 89
N    0.0140357980  2.0528547113 -0.2199332477
N    2.0099379275  0.0405741267 -0.0762838746
C   -2.4034228019  2.3944764243 -0.4923834740
C   -1.0906087739  2.8350856568 -0.3940583566
C   -0.7117187688  4.2187314322 -0.3229540967
H   -1.3896555262  5.0439583010 -0.4264854741
C    0.6166379371  4.2523262798 -0.0544193061
H    1.2290924482  5.1153223836  0.1176565370
C    1.0737540083  2.8902829572 -0.0194917636
C    2.3914706447  2.4810638002  0.1734702847
C    2.8213902265  1.1281318427  0.0769609720
C    4.1740544604  0.7340763644 -0.0266028986
H    5.0239494896  1.3841945866  0.0397799710
C    4.1769029321 -0.6218047654 -0.2649051335
H    5.0282924629 -1.2626889456 -0.3861620232
C    2.8253545650 -1.0337488114 -0.2958221293
C    3.4252828181  3.4939132325  0.4238977709
C    4.2171665535  3.4059131036  1.5699563289
C    5.1780648951  4.3628654282  1.8344127248
C    5.3765691145  5.4141500894  0.9539318038
H    6.1298232327  6.1623706261  1.1592019676
C    4.6106289847  5.4998987539 -0.1967771106
C    3.6410141804  4.5500844807 -0.4605920382
N    0.0051494961 -2.0389850826 -0.1549824132
N   -2.0133276655 -0.0174047514 -0.0916573948
C    2.4104546174 -2.3774915419 -0.4764111094
C    1.0992815787 -2.8264415283 -0.3695257544
C    0.6881466711 -4.2011752177 -0.4435448861
H    1.3439006319 -5.0280231293 -0.6358263520
C   -0.6488269605 -4.2293115679 -0.2187709996
H   -1.2941732330 -5.0849626779 -0.1774983889
C   -1.0759587514 -2.8676079673 -0.0639087424
C   -2.3946283112 -2.4570894764  0.0920090239
C   -2.8260113177 -1.1092356301  0.0159395339
C   -4.1776120397 -0.7215131373 -0.1337011427
H   -5.0211671741 -1.3828590682 -0.0988899188
C   -4.1776426048  0.6352646320 -0.3602832638
H   -5.0219188903  1.2709233965 -0.5392549941
C   -2.8277001315  1.0553550716 -0.3226689300
C   -3.4383995533 -3.4913572397  0.2405191778
C   -4.0856672783 -3.6532124868  1.4622395764
C   -5.0472226068 -4.6347897469  1.6174874464
C   -5.3884320814 -5.4523463479  0.5514219402
H   -6.1409173220 -6.2168551218  0.6752500482
C   -4.7613777145 -5.2854572341 -0.6713701141
C   -3.7866735686 -4.3150769362 -0.8255793150
Fe  -0.0021062469  0.0121789949  0.2392066053
C    3.4608993165 -3.3564596762 -0.8138795529
C    3.7975575747 -4.3985284318  0.0459458920
C    4.1279233949 -3.2435817174 -2.0318037308
C    4.7772210944 -5.3079283775 -0.3097361552
C    5.0953413682 -4.1636226009 -2.3907356141
H    5.0396271760 -6.1067144923  0.3689161480
C    5.4236428530 -5.1981408808 -1.5301411914
H    5.5930198863 -4.0712112102 -3.3451747120
H    6.1827380353 -5.9138907348 -1.8093349281
C   -3.4472671044  3.4078484605 -0.7600884402
C   -4.2883572712  3.8590467546  0.2507019669
C   -3.5907750491  3.9220748592 -2.0454191947
C   -5.2512193106  4.8151986718 -0.0198270780
C   -4.5676137703  4.8628266113 -2.3160640794
H   -5.8904341247  5.1710988290  0.7749774201
C   -5.3969628552  5.3150036884 -1.3030403792
H   -4.6810507110  5.2449615622 -3.3208869440
H   -6.1540126525  6.0557732163 -1.5148508934
H    5.7730530809  4.2878625625  2.7328917426
H    4.7704264508  6.3090943076 -0.8951762142
H   -5.5324687569 -4.7647039879  2.5735234801
H   -5.0285726131 -5.9128885159 -1.5093639737
H   -4.1733644403  3.4661056054  1.2502469997
H   -2.9389090931  3.5693801369 -2.8314091492
H    3.3000914641 -4.4795076707  1.0015122357
H    3.8678745272 -2.4368247425 -2.7017880725
H   -3.8164903650 -3.0147194078  2.2910921159
H   -3.2985376498 -4.1794964355 -1.7799057960
H    4.0519622691  2.5919155319  2.2612504098
H    3.0622689202  4.6042618631 -1.3713733397
Cl  -0.0126995394  0.0602153429  2.3783457659
78
aligned d3map frame 90
N   -0.0169252727  2.0582439054 -0.1792804945
N    2.0095393067  0.0109886337 -0.1169654426
C   -2.4271461722  2.3985275153 -0.5070480621
C   -1.0871303219  2.8476531377 -0.4824381243
C   -0.6475582062  4.1768349020 -0.7098460217
H   -1.2679754928  4.9994087305 -1.0088220829
C    0.7080682180  4.1917077977 -0.4819361027
H    1.3772742833  5.0275402064 -0.5528221458
C    1.0783618806  2.8650072192 -0.1599480015
C    2.3985393556  2.4294581800  0.1189197257
C    2.8069604481  1.1069598932  0.1104896552
C    4.1731761295  0.6866963894  0.2238828499
H    4.9993595643  1.3455174537  0.4094019874
C    4.1925088020 -0.6553168233  0.0308960268
H    5.0405149900 -1.3100809844  0.0542799457
C    2.8349423658 -1.0735882323 -0.1822132673
C    3.3824211731  3.4851175904  0.4496412716
C    4.0980565330  4.1704803938 -0.5243783354
C    4.9706078645  5.1832746544 -0.1637198371
C    5.1309750911  5.5237184172  1.1693927929
H    5.8059448766  6.3182385470  1.4526650194
C    4.4256513977  4.8375459510  2.1442741833
C    3.5569007285  3.8213076600  1.7886247642
N    0.0102814982 -2.0415557602 -0.1167432224
N   -2.0097355032 -0.0103255315 -0.1375669816
C    2.4392475122 -2.4015821259 -0.3762231461
C    1.0865344494 -2.8271437041 -0.4092911938
C    0.6478835356 -4.1447057286 -0.6847418377
H    1.2683489571 -4.9597194075 -1.0010705942
C   -0.7151201116 -4.1573814909 -0.4948959394
H   -1.3825059344 -4.9863265751 -0.6231298240
C   -1.0874511774 -2.8432604644 -0.1357586583
C   -2.4252693926 -2.4201096229  0.0994800794
C   -2.8277530385 -1.0900579029  0.0963859965
C   -4.1815195113 -0.6399089912  0.2274436655
H   -5.0165066819 -1.2620442273  0.4777259145
C   -4.1805695253  0.6961545889 -0.0131134260
H   -5.0168241038  1.3679041185  0.0010531075
C   -2.8200227514  1.0822878727 -0.2446486458
C   -3.4243852772 -3.4806967042  0.2796060811
C   -3.2357959796 -4.4454068849  1.2692862458
C   -4.1682823298 -5.4455507869  1.4621923060
C   -5.2938467338 -5.5125241761  0.6572034408
H   -6.0207764025 -6.2968419784  0.8052765610
C   -5.4794340542 -4.5742201465 -0.3457991071
C   -4.5551633696 -3.5638286815 -0.5326486700
Fe  -0.0021062469  0.0121789949  0.2392066053
C    3.4631802398 -3.4448861558 -0.5012394470
C    3.4080446594 -4.5828733018  0.3067293840
C    4.4891416083 -3.3466218709 -1.4429563769
C    4.3340522293 -5.5970512801  0.1623989390
C    5.4150712884 -4.3635974768 -1.5834895925
H    4.2714499808 -6.4734256305  0.7899165260
C    5.3379487053 -5.4950470927 -0.7881932524
H    6.1973009140 -4.2798608265 -2.3244450879
H    6.0536866886 -6.2929126356 -0.9119617634
C   -3.4808121016  3.3657958142 -0.8474684957
C   -3.6747124326  4.5426615800 -0.1260412036
C   -4.3027241715  3.1071849466 -1.9454140547
C   -4.6604819428  5.4377713823 -0.4989369237
C   -5.2714180967  4.0150942230 -2.3294481270
H   -4.8097866487  6.3410651418  0.0750729360
C   -5.4514703007  5.1853583114 -1.6101758244
H   -5.8853718321  3.8109529161 -3.1960818992
H   -6.2093151452  5.8926275908 -1.9119827322
H    5.5230962169  5.7115130112 -0.9272083228
H    4.5495516204  5.0994382969  3.1864554966
H   -4.0184639117 -6.1790011545  2.2407435257
H   -6.3478911653 -4.6337663064 -0.9858467350
H   -3.0636830308  4.7358241757  0.7435386400
H   -4.1553101948  2.1970744371 -2.5084621606
H    2.6365083192 -4.6535935890  1.0578763777
H    4.5333595673 -2.4811900915 -2.0875191797
H   -2.3601196415 -4.3865206236  1.8984564348
H   -4.6860320077 -2.8462574059 -1.3290025274
H    3.9674432637  3.9060832805 -1.5640157860
H    3.0007813951  3.2840643689  2.5430497749
Cl   0.0105764307  0.0598693768  2.3809274408
78
aligned d3map frame 91
N   -0.0243870479  2.0726286607 -0.1214244034
N    2.0110883241  0.0131616696 -0.1031536053
C   -2.4451959489  2.4470091288 -0.1857197351
C   -1.1227960661  2.8788563712 -0.1243294629
C   -0.7132441687  4.2521286671 -0.1563854638
H   -1.3790226532  5.0900647157 -0.1762524210
C    0.6430745376  4.2603921449 -0.1774292911
H    1.3001558772  5.1069298810 -0.2209516889
C    1.0691753912  2.8900892208 -0.1412773040
C    2.3930454439  2.4700409220 -0.1660488867
C    2.8160444032  1.1173950101 -0.1383569396
C    4.1754023108  0.7305416229 -0.0850723921
H    5.0154724967  1.3967018656 -0.0731041518
C    4.1952305082 -0.6415092089 -0.0211732416
H    5.0544486123 -1.2775305937  0.0579250739
C    2.8464709701 -1.0733445625 -0.0520716945
C    3.4447554541  3.5018827026 -0.2307925578
C    3.6500493917  4.3784754399  0.8312282135
C    4.6329816218  5.3490511604  0.7548594498
C    5.4117825429  5.4662023402 -0.3846658476
H    6.1733642936  6.2296436263 -0.4466946977
C    5.2113613682  4.5980873169 -1.4460341571
C    4.2410708438  3.6169125678 -1.3684860588
N    0.0179746535 -2.0565191313 -0.0558327024
N   -2.0120101330  0.0070447468 -0.1239703886
C    2.4452803774 -2.4289940029  0.0130239388
C    1.1171825708 -2.8596153716  0.0221803164
C    0.7056028942 -4.2306825550  0.1003093707
H    1.3669938181 -5.0734734585  0.1355810058
C   -0.6517004500 -4.2378262488  0.1198765890
H   -1.3037710105 -5.0847192142  0.2052968017
C   -1.0787011785 -2.8734458461  0.0056497302
C   -2.4029024566 -2.4470155826 -0.0136252193
C   -2.8143162981 -1.0946074366 -0.1629813994
C   -4.1601659071 -0.7107303961 -0.3703827276
H   -4.9893778340 -1.3800852755 -0.4823813857
C   -4.1775930433  0.6620232429 -0.4113299022
H   -5.0281490370  1.3029916206 -0.5319481224
C   -2.8391710110  1.0932991364 -0.2523284385
C   -3.4752085269 -3.4278993457  0.2089381553
C   -4.3412418078 -3.2357590188  1.2870376262
C   -5.3488256733 -4.1435393091  1.5507998081
C   -5.5150911172 -5.2532464530  0.7397824022
H   -6.2994791917 -5.9658635468  0.9491312567
C   -4.6703486886 -5.4445769691 -0.3421393392
C   -3.6580946999 -4.5419740805 -0.6087576131
Fe  -0.0021062469  0.0121789949  0.2392066053
C    3.5085893947 -3.4429847050  0.1038801828
C    3.5791062185 -4.2972360927  1.2044207670
C    4.4783109488 -3.5535421630 -0.8914701936
C    4.6044287087 -5.2187151076  1.3150378132
C    5.4979491703 -4.4810504542 -0.7819922863
H    4.6530252343 -5.8622193693  2.1815072515
C    5.5703525911 -5.3126674015  0.3255504218
H    6.2426328929 -4.5534494734 -1.5614298237
H    6.3713048575 -6.0272223325  0.4188450541
C   -3.5160909846  3.4622584869 -0.1334174785
C   -3.7228382721  4.1707894541  1.0479047707
C   -4.3493857770  3.7056811824 -1.2224935078
C   -4.7569827994  5.0842370440  1.1465617873
C   -5.3734561682  4.6309257557 -1.1243004086
H   -4.9202684304  5.6129290726  2.0746914016
C   -5.5871153023  5.3146581429  0.0621002061
H   -6.0126290812  4.8149575244 -1.9762680991
H   -6.3990228856  6.0235570724  0.1382859515
H    4.7884071841  6.0151779620  1.5903005665
H    5.8115755734  4.6878419030 -2.3410697506
H   -6.0075207750 -3.9832265993  2.3921917509
H   -4.8027179097 -6.3036238977 -0.9836028903
H   -3.0799461491  3.9797202634  1.8947709791
H   -4.1810038461  3.1714339482 -2.1459723291
H    2.8422245974 -4.2076765599  1.9887787244
H    4.4231804353 -2.9104720136 -1.7581470623
H   -4.2005198006 -2.3760547307  1.9266348520
H   -3.0195019419 -4.6800642060 -1.4693938431
H    3.0453055500  4.2793871436  1.7215889728
H    4.0816867985  2.9404719174 -2.1953230259
Cl  -0.0116086713  0.0559017842  2.3807180272
78
aligned d3map frame 92
N    0.0069469969  2.0556164548 -0.1998561238
N    1.9952768089  0.0315240935 -0.1570840756
C   -2.3773991487  2.3798449856 -0.6719692208
C   -1.1066481923  2.8229595078 -0.2714018761
C   -0.7953526222  4.1609948081  0.1452164563
H   -1.5070628778  4.9597600045  0.2299235725
C    0.5232385438  4.1806115942  0.4678283334
H    1.0825542525  4.9967106137  0.8805773601
C    1.0439132140  2.8726545430  0.1792820324
C    2.3728360405  2.4782980050  0.1246494502
C    2.7474238393  1.1545469890 -0.2922982703
C    3.9659211427  0.8453883627 -0.9299256318
H    4.7238959510  1.5525030714 -1.2054579116
C    3.9619774449 -0.5132116349 -1.1573088898
H    4.7127551651 -1.0884348773 -1.6621839278
C    2.7482474444 -1.0127332843 -0.6312113431
C    3.4721823600  3.3994349125  0.3952502081
C    4.5733244566  2.9467385865  1.1310934940
C    5.6428489354  3.7784533696  1.3918768943
C    5.6410914615  5.0843016560  0.9276336387
H    6.4791051804  5.7345778733  1.1296476189
C    4.5617701105  5.5448865896  0.1921576370
C    3.4919344609  4.7129059623 -0.0787122238
N    0.0139593439 -2.0413547413 -0.1345268467
N   -1.9978537683 -0.0101820519 -0.1722080670
C    2.4066535450 -2.3812134122 -0.5072843335
C    1.1286022709 -2.8162279791 -0.1320179451
C    0.7922359156 -4.1382154894  0.3167476279
H    1.4932867933 -4.9349864978  0.4675881978
C   -0.5409822938 -4.1473187133  0.5655600870
H   -1.1303670930 -4.9536245189  0.9568790980
C   -1.0382812985 -2.8404393177  0.2320967071
C   -2.3666835613 -2.4455250155  0.1828759002
C   -2.7691365433 -1.1289610890 -0.2126000119
C   -4.0249001950 -0.8302058478 -0.7826570461
H   -4.8120625476 -1.5360710772 -0.9626881844
C   -4.0114382793  0.5103306871 -1.0934923870
H   -4.7839564722  1.0670165562 -1.5852608669
C   -2.7594840245  1.0184887897 -0.6704405477
C   -3.4285309558 -3.4168592538  0.4518299995
C   -4.4632911411 -3.0906205228  1.3312365439
C   -5.4540838815 -4.0077960439  1.6220034348
C   -5.4429052640 -5.2605515025  1.0291375354
H   -6.2167381399 -5.9773310923  1.2589387449
C   -4.4372524872 -5.5852246689  0.1335479496
C   -3.4385494121 -4.6743410293 -0.1539104330
Fe  -0.0021062469  0.0121789949  0.2392066053
C    3.4378195113 -3.3852480794 -0.7637634641
C    3.1474617704 -4.5076218652 -1.5450509424
C    4.7311576441 -3.2490312557 -0.2522375047
C    4.1185663089 -5.4523153270 -1.8127010900
C    5.7007851337 -4.1932046929 -0.5271557017
H    3.8762683937 -6.3112654651 -2.4218026421
C    5.4011268521 -5.2975140741 -1.3094269676
H    6.6962664627 -4.0696529440 -0.1274634360
H    6.1619562296 -6.0324995925 -1.5252128956
C   -3.3202563593  3.3975215501 -1.1387739149
C   -2.8744513971  4.3463486806 -2.0645303300
C   -4.6513828602  3.4509140135 -0.7230858403
C   -3.7362394144  5.2944881628 -2.5782748034
C   -5.5111269547  4.4012573928 -1.2408866951
H   -3.3746418349  6.0115861253 -3.3005485306
C   -5.0618211739  5.3207140224 -2.1755005603
H   -6.5404609353  4.4273920850 -0.9134422802
H   -5.7389742571  6.0554241336 -2.5848844110
H    6.4849998758  3.4077282065  1.9575007141
H    4.5598232065  6.5581733771 -0.1830326714
H   -6.2395810733 -3.7470671659  2.3158303484
H   -4.4331359684 -6.5519402692 -0.3453415026
H   -1.8478568481  4.3117766127 -2.3981938388
H   -4.9994986401  2.7598129293  0.0297503749
H    2.1580540892 -4.6154314628 -1.9643862603
H    4.9608761508 -2.4071417431  0.3834964633
H   -4.4647061739 -2.1190491528  1.8028411347
H   -2.6747700901 -4.9193302003 -0.8769692911
H    4.5692555429  1.9359978437  1.5104219853
H    2.6834952499  5.0654309461 -0.7005040966
Cl  -0.0232262709  0.0387090106  2.3783836691
78
aligned d3map frame 93
N   -0.0038529515  2.0616216622 -0.1662465525
N    2.0071539511  0.0379612416 -0.1060570417
C   -2.3932372225  2.3935984615 -0.5870923538
C   -1.0878188223  2.8455480265 -0.4371578250
C   -0.6698370538  4.2164333587 -0.5251837409
H   -1.3170108638  5.0397756768 -0.7563402829
C    0.6635260718  4.2406424198 -0.2639198703
H    1.3145415472  5.0911310379 -0.2472740958
C    1.0746656619  2.8830545612 -0.0456079708
C    2.3970331149  2.4721887601  0.1331991994
C    2.8252704968  1.1214599085  0.0655943679
C    4.1754872327  0.6995404162  0.0944853883
H    5.0261905160  1.3281748446  0.2656975407
C    4.1731089917 -0.6592725905 -0.1180376230
H    5.0181357086 -1.3186737122 -0.1638281525
C    2.8200638554 -1.0529938311 -0.2345022598
C    3.4048911529  3.5221277714  0.3394766222
C    3.2778788297  4.3887020504  1.4254925192
C    4.2163591826  5.3785847008  1.6486774021
C    5.2874055980  5.5308710520  0.7838939457
H    6.0215021260  6.3019600496  0.9607046369
C    5.4126229359  4.6873531174 -0.3089709915
C    4.4817851858  3.6901677176 -0.5301078831
N   -0.0074815328 -2.0470963229 -0.1008708278
N   -2.0067333942 -0.0148138783 -0.1269196109
C    2.4025595063 -2.4004220529 -0.3685677462
C    1.0901709725 -2.8445983904 -0.2452665697
C    0.6840386490 -4.2209480237 -0.2223623929
H    1.3451511407 -5.0579935604 -0.3351517251
C   -0.6559393184 -4.2350012952 -0.0096922832
H   -1.2938186045 -5.0885444733  0.0885154878
C   -1.0880531935 -2.8677750162  0.0401915012
C   -2.4055569736 -2.4402262822  0.1891789917
C   -2.8263717378 -1.0951295518  0.0374199782
C   -4.1763175213 -0.7020508630 -0.1112323144
H   -5.0267492453 -1.3523841804 -0.0449296698
C   -4.1676264156  0.6444752743 -0.3917194154
H   -5.0116254865  1.2833959431 -0.5610873384
C   -2.8139757936  1.0536613754 -0.3934119364
C   -3.4495795889 -3.4369221999  0.4794209753
C   -4.1244998302 -3.3704608763  1.6980570099
C   -5.0849725861 -4.3111178161  2.0194792991
C   -5.4011438080 -5.3194277923  1.1236215232
H   -6.1556818782 -6.0526723502  1.3752836097
C   -4.7534633948 -5.3768261721 -0.1020650323
C   -3.7780236158 -4.4481822667 -0.4192477760
Fe  -0.0021062469  0.0121789949  0.2392066053
C    3.4581997324 -3.3977032593 -0.6359684996
C    4.0844252746 -3.3973231179 -1.8820407821
C    3.8373510771 -4.3421998784  0.3127093656
C    5.0589764430 -4.3326983178 -2.1750550830
C    4.8284575564 -5.2653691818  0.0219368347
H    5.5248440023 -4.3339001356 -3.1509217591
C    5.4365249719 -5.2671807685 -1.2224922492
H    5.1224898723 -5.9857500101  0.7715325546
H    6.2029541977 -5.9927119739 -1.4531315846
C   -3.4236102346  3.3722790054 -0.9811977723
C   -4.0049892345  3.2738267942 -2.2435693834
C   -3.8091888071  4.4105154792 -0.1373429542
C   -4.9313911514  4.2107901141 -2.6654643245
C   -4.7517947871  5.3323673884 -0.5560898764
H   -5.3592862075  4.1346678969 -3.6554280778
C   -5.3060856538  5.2448614116 -1.8249523430
H   -5.0534838793  6.1309370482  0.1046824900
H   -6.0305928697  5.9785746843 -2.1533952008
H    4.1105596023  6.0326499358  2.5016375246
H    6.2391005173  4.8126172182 -0.9928362291
H   -5.5888522332 -4.2608128984  2.9758773663
H   -5.0079484192 -6.1504781452 -0.8114886105
H   -3.7082811402  2.4672629031 -2.8978426880
H   -3.3774648626  4.4768206413  0.8516830336
H    3.7885059861 -2.6663655761 -2.6213783947
H    3.3679144174 -4.3375659387  1.2864819592
H   -3.8720409803 -2.5872653229  2.3968961342
H   -3.2803853274 -4.4856759418 -1.3786214415
H    2.4470048820  4.2609436766  2.1040876932
H    4.5664353470  3.0484337460 -1.3952134210
Cl   0.0022793257  0.0813050894  2.3792375688
78
aligned d3map frame 94
N   -0.0127419029  2.0569988480 -0.1836963258
N    2.0089311402  0.0238277767 -0.1165033532
C   -2.4246962525  2.3765963486 -0.5758317917
C   -1.0812104227  2.8216170754 -0.5522393420
C   -0.6389177729  4.1333678083 -0.8597183512
H   -1.2468462028  4.9298847334 -1.2405888094
C    0.7124099073  4.1650684642 -0.6149395886
H    1.3793816829  4.9945416276 -0.7416442735
C    1.0818998030  2.8629218172 -0.1983407120
C    2.4228255122  2.4468706892  0.0137731610
C    2.8313050003  1.1155201083  0.0058108573
C    4.1976346612  0.6859743811 -0.0169499418
H    5.0507450109  1.3226457834  0.1110561902
C    4.1898257153 -0.6527393836 -0.2442710896
H    5.0322841854 -1.3048334521 -0.3667245877
C    2.8182317585 -1.0655183334 -0.2829255124
C    3.4210061234  3.5237234717  0.1026664256
C    3.3087251262  4.4850427518  1.1071725294
C    4.2128718306  5.5269214536  1.1878183792
C    5.2326126498  5.6387719309  0.2559085937
H    5.9303621156  6.4608151138  0.3098657749
C    5.3465596621  4.6950644182 -0.7514194011
C    4.4523324292  3.6428899611 -0.8272060862
N   -0.0064565359 -2.0413675212 -0.1208042844
N   -2.0079507176 -0.0187997955 -0.1390678326
C    2.4051251860 -2.3848732633 -0.4760766196
C    1.0714503833 -2.8361785550 -0.3637330137
C    0.6697278072 -4.1961668275 -0.3799461243
H    1.3169279424 -5.0364782803 -0.5371445393
C   -0.6806348914 -4.2127214077 -0.1282517416
H   -1.3259929449 -5.0670414208 -0.0689253877
C   -1.0824031591 -2.8638729097  0.0227832377
C   -2.4171744711 -2.4255740741  0.1891452968
C   -2.8211693820 -1.0989885973  0.1007107550
C   -4.1834004863 -0.6642132286  0.1704549841
H   -5.0199238703 -1.2995609168  0.3869335647
C   -4.1853915791  0.6698163856 -0.0818686396
H   -5.0254138512  1.3365671002 -0.0920545177
C   -2.8236792930  1.0645301655 -0.2876805119
C   -3.4493148831 -3.4678589836  0.3486885395
C   -3.5147467914 -4.2306697568  1.5112583359
C   -4.4856884994 -5.2055580684  1.6503475137
C   -5.3866856871 -5.4469753887  0.6260463408
H   -6.1383424554 -6.2147602567  0.7347276402
C   -5.3177160173 -4.7022843395 -0.5398372026
C   -4.3609314206 -3.7133887506 -0.6752358881
Fe  -0.0021062469  0.0121789949  0.2392066053
C    3.4105705820 -3.4025654329 -0.8363827012
C    4.4200413584 -3.7944999145  0.0367948810
C    3.3356534591 -3.9975232839 -2.0947865070
C    5.3367459053 -4.7584107825 -0.3448706885
C    4.2627856061 -4.9479731260 -2.4777147980
H    6.1100648775 -5.0649466280  0.3447449377
C    5.2657325529 -5.3328383486 -1.6031197384
H    4.1988578945 -5.3901018068 -3.4616127948
H    5.9862142789 -6.0801602134 -1.9004646012
C   -3.4722192782  3.3453472680 -0.9151665341
C   -3.5709046095  4.5766114314 -0.2662260045
C   -4.3993907274  3.0415162902 -1.9160741960
C   -4.5625398815  5.4756295844 -0.6109711214
C   -5.3910469618  3.9404105350 -2.2542051412
H   -4.6268636734  6.4266238056 -0.1017567118
C   -5.4762278880  5.1617323360 -1.6041449055
H   -6.1010162621  3.6921799750 -3.0308091393
H   -6.2531520461  5.8655541434 -1.8694571219
H    4.1181477146  6.2582221812  1.9769667620
H    6.1319853702  4.7837845576 -1.4878251639
H   -4.5388665530 -5.7829256927  2.5619818511
H   -6.0098716393 -4.8930496380 -1.3472775094
H   -2.8817213761  4.8092105656  0.5317775043
H   -4.3172324696  2.1000532278 -2.4395554084
H    4.4706388224 -3.3575550275  1.0234169557
H    2.5510440142 -3.6956240247 -2.7730427562
H   -2.8109403952 -4.0401818137  2.3080683736
H   -4.3014839166 -3.1330095534 -1.5847933216
H    2.5119656338  4.3975829494  1.8312650696
H    4.5262710266  2.9250408027 -1.6310356101
Cl  -0.0158806587  0.0336212823  2.3787980932
78
aligned d3map frame 95
N   -0.0072816206  2.0685288548 -0.1560083998
N    2.0133484235  0.0159535668 -0.0693995704
C   -2.4325820472  2.4296736493 -0.1681470379
C   -1.1152256620  2.8654062019 -0.1282125668
C   -0.7179572705  4.2423473034 -0.0299380833
H   -1.3949300782  5.0752837857 -0.0011927582
C    0.6356000577  4.2592848352  0.0323288236
H    1.2791046380  5.1125665668  0.1275041873
C    1.0770358998  2.8945434429 -0.0504851795
C    2.3986805289  2.4740248637  0.0045692575
C    2.8158248077  1.1203677565 -0.1099931024
C    4.1532066030  0.7386303714 -0.3437247126
H    4.9845977536  1.4066286267 -0.4542739986
C    4.1627386380 -0.6348843884 -0.4356104393
H    5.0037887152 -1.2678175733 -0.6362983488
C    2.8325479235 -1.0663879646 -0.2376158490
C    3.4628582978  3.4640784376  0.2366323188
C    4.2508205288  3.3407535742  1.3834389948
C    5.2473678925  4.2582580130  1.6510786786
C    5.4912935233  5.2987405089  0.7671092231
H    6.2773882297  6.0106363809  0.9729248502
C    4.7259060554  5.4193465406 -0.3825787781
C    3.7116025329  4.5148936451 -0.6434540091
N    0.0130704210 -2.0503757257 -0.0929057429
N   -2.0151048242 -0.0125149810 -0.0876046967
C    2.4337924263 -2.4283620905 -0.2098062044
C    1.1112718616 -2.8566944476 -0.1201780794
C    0.7059830641 -4.2269225151  0.0318487630
H    1.3710106346 -5.0678489464  0.0609068445
C   -0.6434982751 -4.2287226644  0.1605681504
H   -1.2974440753 -5.0695359089  0.2848870471
C   -1.0720263219 -2.8611348873  0.0869421886
C   -2.3946448670 -2.4484970240  0.1517028882
C   -2.8285275227 -1.1093883652 -0.0083966955
C   -4.1823275530 -0.7117814017 -0.0700845890
H   -5.0309538236 -1.3643580214 -0.0182739825
C   -4.1898849059  0.6573487837 -0.1914319844
H   -5.0455096343  1.3008745358 -0.2568851876
C   -2.8389805781  1.0729547979 -0.1868491131
C   -3.4299634342 -3.4549824642  0.4703356384
C   -3.4771460711 -3.9845448964  1.7591909474
C   -4.4733997954 -4.8772918979  2.1132896390
C   -5.4230590457 -5.2654190275  1.1810108819
H   -6.2052804065 -5.9570665804  1.4593948824
C   -5.3664794412 -4.7627750489 -0.1106807032
C   -4.3802526556 -3.8563326371 -0.4645945095
Fe  -0.0021062469  0.0121789949  0.2392066053
C    3.5045198451 -3.4361836605 -0.2208469032
C    4.5007162416 -3.4089478395  0.7554598394
C    3.5515084217 -4.4261296204 -1.2033039538
C    5.5135168045 -4.3496651402  0.7496870131
C    4.5738543484 -5.3576456193 -1.2124914759
H    6.2766365870 -4.3195524615  1.5149421434
C    5.5573617674 -5.3247702677 -0.2362772012
H    4.6064598867 -6.1102687512 -1.9884750120
H    6.3563964817 -6.0530220986 -0.2414199635
C   -3.5056131501  3.4410456986 -0.0472097388
C   -3.7272452679  4.0444272225  1.1876624711
C   -4.3164059434  3.7829240798 -1.1255120188
C   -4.7475952918  4.9660281350  1.3437545733
C   -5.3294198060  4.7119586882 -0.9686469230
H   -4.9167511950  5.4172902726  2.3112525058
C   -5.5507531487  5.3011708339  0.2662897960
H   -5.9524861659  4.9747011657 -1.8114880493
H   -6.3476820316  6.0204565178  0.3895620882
H    5.8374484628  4.1627456869  2.5520095123
H    4.9222972890  6.2217561155 -1.0797891134
H   -4.5112751907 -5.2663924988  3.1210375599
H   -6.0981970033 -5.0732118690 -0.8441655333
H   -3.1059667900  3.7696465376  2.0289091330
H   -4.1415536779  3.3210625824 -2.0870475383
H    4.4626770071 -2.6539225226  1.5273112648
H    2.7956848921 -4.4404059925 -1.9745571980
H   -2.7392286270 -3.6707619595  2.4837870574
H   -4.3365815983 -3.4629676227 -1.4713027406
H    4.0538022160  2.5298271129  2.0703307526
H    3.1230868841  4.6011321539 -1.5464673126
Cl  -0.0371420073  0.0374339455  2.3795879979
78
aligned d3map frame 96
N   -0.0135667608  2.0709014481 -0.1488988719
N    2.0122409947  0.0175946871 -0.0824017483
C   -2.4326913938  2.4319300971 -0.0181016427
C   -1.1161981707  2.8661627868  0.0193837886
C   -0.6982563856  4.2183591149  0.2677284108
H   -1.3525083856  5.0436233815  0.4670811830
C    0.6556998611  4.2285037984  0.2264728484
H    1.3100090392  5.0620313580  0.3900722940
C    1.0793156235  2.8807303209 -0.0337183088
C    2.4075526735  2.4672407378 -0.0900674300
C    2.8167731456  1.1156211075 -0.2154640838
C    4.1531236139  0.7065730953 -0.4281544758
H    4.9885874108  1.3539943182 -0.6095535144
C    4.1646657565 -0.6669437582 -0.3647000215
H    5.0159634112 -1.3103734598 -0.4626481367
C    2.8302214583 -1.0732634109 -0.1413138366
C    3.4757119715  3.4611219495  0.0820489361
C    4.4223020414  3.2769144483  1.0921574795
C    5.4375414529  4.1941303817  1.2829005947
C    5.5318417485  5.3091237155  0.4653870830
H    6.3321707958  6.0205650621  0.6111869590
C    4.5968049980  5.5035718100 -0.5400339803
C    3.5755870105  4.5908440129 -0.7306625674
N    0.0031462212 -2.0531444015 -0.0858114805
N   -2.0113825663 -0.0146306886 -0.1033492629
C    2.4217685893 -2.4125013072  0.1103315622
C    1.1024025931 -2.8355832043  0.1402310714
C    0.6902043895 -4.1968247338  0.3490891242
H    1.3544381998 -5.0195615882  0.5298507196
C   -0.6614939011 -4.2187706934  0.2578214849
H   -1.3182343085 -5.0576808102  0.3832158986
C   -1.0861221705 -2.8735440826 -0.0151407113
C   -2.4107507727 -2.4658956763 -0.1579809138
C   -2.8038430706 -1.1114280272 -0.3162043659
C   -4.1100208271 -0.6981101051 -0.6571265803
H   -4.9188478265 -1.3484331218 -0.9286259896
C   -4.1200226383  0.6791190326 -0.5995558851
H   -4.9392646323  1.3341984935 -0.8102529846
C   -2.8173974363  1.0753555911 -0.2334085338
C   -3.4915987864 -3.4548298797 -0.0616819520
C   -4.5116133183 -3.2615800084  0.8735963545
C   -5.5493599204 -4.1654964786  0.9786826913
C   -5.5927050539 -5.2731982182  0.1457970958
H   -6.4119925010 -5.9719931864  0.2167791907
C   -4.5846891657 -5.4790553241 -0.7820695035
C   -3.5381323395 -4.5807214056 -0.8836645209
Fe  -0.0021062469  0.0121789949  0.2392066053
C    3.4713699524 -3.3690410028  0.5078657154
C    4.4836220492 -3.7938859008 -0.3474511420
C    3.4660870722 -3.8199541774  1.8270278599
C    5.4790145933 -4.6362347868  0.1157454133
C    4.4680928379 -4.6517507499  2.2876124973
H    6.2621079031 -4.9568622878 -0.5506279602
C    5.4830797149 -5.0590094391  1.4347022110
H    4.4590569097 -4.9766072218  3.3177377949
H    6.2711816503 -5.7006706007  1.7960604256
C   -3.5242356919  3.3837627086  0.2197409872
C   -4.4407780669  3.1183666477  1.2403139193
C   -3.6783182669  4.5502309622 -0.5294949714
C   -5.4625040219  4.0049641851  1.5192839985
C   -4.7125731918  5.4282403646 -0.2579867882
H   -6.1510094277  3.7918559851  2.3236529495
C   -5.6023806217  5.1638579342  0.7708457506
H   -4.8195250914  6.3227014163 -0.8533117609
H   -6.4032057293  5.8547967655  0.9885149820
H    6.1599682993  4.0384090502  2.0700179697
H    4.6702967028  6.3695946852 -1.1821100681
H   -6.3296965598 -4.0112621244  1.7101878668
H   -4.6191156415 -6.3402360125 -1.4332756851
H   -4.3241355035  2.2209370796  1.8313926056
H   -2.9989443163  4.7508050498 -1.3456997388
H    4.4802184090 -3.4740439847 -1.3786840193
H    2.6810059144 -3.4880140621  2.4912645272
H   -4.4679866123 -2.4034601149  1.5279363451
H   -2.7641041400 -4.7265748242 -1.6229906963
H    4.3375362251  2.4151073668  1.7385994658
H    2.8625149194  4.7319445087 -1.5299711626
Cl  -0.0309509873  0.0242925824  2.3783744340
78
aligned d3map frame 97
N   -0.0082332039  2.0496052411 -0.1965128747
N    2.0039615474  0.0288833979 -0.1404162667
C   -2.4048907724  2.4016000448 -0.5638324271
C   -1.0576570059  2.8169282119 -0.6116591248
C   -0.5793064005  4.1050617925 -0.9648694625
H   -1.1668822583  4.8951479776 -1.3897542995
C    0.7665655792  4.1194668014 -0.6840834227
H    1.4610541120  4.9247247992 -0.8235142348
C    1.0919416847  2.8341111166 -0.1954067258
C    2.3971659913  2.4180725167  0.2202990159
C    2.8102244032  1.0964314246  0.1936098280
C    4.1488205334  0.6269896352  0.3996487116
H    4.9743353678  1.2291193781  0.7238071400
C    4.1561417804 -0.6963763126  0.0959948030
H    4.9877510761 -1.3727779979  0.1302534045
C    2.8097623397 -1.0646568352 -0.2285787477
C    3.2694375200  3.5027886549  0.6862118359
C    2.7750088277  4.3137107778  1.7121718817
C    3.5214678586  5.3647492492  2.2055211565
C    4.7678665347  5.6432477971  1.6641986784
H    5.3485658994  6.4745716226  2.0366507864
C    5.2628465310  4.8528305815  0.6390665333
C    4.5260415024  3.7846058207  0.1549545664
N    0.0101541935 -2.0352477439 -0.1304354793
N   -2.0049819737 -0.0012180936 -0.1592828235
C    2.4076351357 -2.3727610408 -0.5369407929
C    1.0653056901 -2.8037649484 -0.5333143335
C    0.5975511038 -4.1006417202 -0.8606065424
H    1.1942227540 -4.8997645281 -1.2529371493
C   -0.7531961272 -4.1135570616 -0.5979890502
H   -1.4434875562 -4.9221181481 -0.7427636014
C   -1.0910274482 -2.8193082397 -0.1418556264
C   -2.4076466858 -2.3907417819  0.2116800106
C   -2.8120021788 -1.0649053857  0.1754428852
C   -4.1492304023 -0.5913173301  0.3917959875
H   -4.9768207507 -1.1889953860  0.7207215260
C   -4.1505637246  0.7358890485  0.1063413247
H   -4.9751961587  1.4202294215  0.1635425568
C   -2.8086444962  1.0990591874 -0.2391225673
C   -3.3469382333 -3.4502765783  0.5960105852
C   -2.9917311419 -4.3027239172  1.6426412776
C   -3.8537604863 -5.2965969136  2.0647911051
C   -5.0713599515 -5.4755446065  1.4287147576
H   -5.7464249317 -6.2526409990  1.7524198163
C   -5.4202929544 -4.6540437436  0.3684367821
C   -4.5711322456 -3.6436594403 -0.0422506929
Fe  -0.0021062469  0.0121789949  0.2392066053
C    3.4504691006 -3.3552162508 -0.8588988395
C    4.3413072785 -3.0980241961 -1.9008872759
C    3.5644996458 -4.5533150041 -0.1556808758
C    5.3061103080 -4.0257770300 -2.2433267899
C    4.5463019387 -5.4671061947 -0.4888924854
H    5.9779710796 -3.8209774061 -3.0644422976
C    5.4155177617 -5.2119936873 -1.5376199722
H    4.6368351291 -6.3825007196  0.0747522846
H    6.1735385729 -5.9336570008 -1.8027475539
C   -3.4334239692  3.4214282779 -0.8017156930
C   -4.4414421460  3.2144344905 -1.7421232268
C   -3.4036720138  4.6312961876 -0.1068624913
C   -5.3737119912  4.2038075801 -1.9988977666
C   -4.3423646832  5.6124104767 -0.3598031573
H   -6.1397266925  4.0374715487 -2.7423003730
C   -5.3248294418  5.4072550628 -1.3158196887
H   -4.3055933548  6.5412777878  0.1909496305
H   -6.0511523024  6.1787718953 -1.5242442283
H    3.1290297081  5.9712192358  3.0089266369
H    6.2276320438  5.0766102412  0.2079295243
H   -3.5723071446 -5.9320800746  2.8912372545
H   -6.3586839467 -4.8066298911 -0.1418924068
H   -4.4729100940  2.2832579966 -2.2883362629
H   -2.6492134611  4.7827106451  0.6504676159
H    4.2488057855 -2.1761177624 -2.4542975883
H    2.8937968667 -4.7470858961  0.6680526053
H   -2.0434332310 -4.1578120707  2.1389069439
H   -4.8364597231 -3.0178471559 -0.8823044926
H    1.8046315764  4.0887368322  2.1315920857
H    4.9086337405  3.1911324228 -0.6616795735
Cl  -0.0128513993  0.1013884369  2.3755731962
78
aligned d3map frame 98
N   -0.0040908909  2.0562476650 -0.2049840271
N    2.0160061898  0.0314307337 -0.0459405420
C   -2.4081960848  2.4379497972  0.1001303242
C   -1.0984906486  2.8631624131 -0.0680228369
C   -0.6950261937  4.2386850620 -0.1490588740
H   -1.3638713979  5.0750574167 -0.0804421026
C    0.6483924075  4.2445202425 -0.3266080449
H    1.2996344624  5.0918125080 -0.4127710585
C    1.0771919507  2.8706252547 -0.3438295254
C    2.4098532311  2.4608153754 -0.3641602915
C    2.8331708854  1.1160402595 -0.2056489125
C    4.1844006158  0.6992909324 -0.2167963485
H    5.0363723185  1.3333311950 -0.3633217438
C    4.1846063091 -0.6641049387 -0.0287695440
H    5.0319183598 -1.3205178320  0.0078262831
C    2.8317783926 -1.0612609121  0.0629542391
C    3.4383054230  3.5021689029 -0.4997319854
C    4.3924263749  3.6986690647  0.4988227190
C    5.3295617110  4.7080630198  0.3859776617
C    5.3444249703  5.5269712471 -0.7329713699
H    6.0786278464  6.3142080850 -0.8199702914
C    4.4103793288  5.3320560676 -1.7374358828
C    3.4597198651  4.3347266214 -1.6197084695
N    0.0101142516 -2.0431439873 -0.1394064529
N   -2.0187888918 -0.0031464973 -0.0641798578
C    2.4186036272 -2.4161284478  0.0939814715
C    1.1122285048 -2.8526683319 -0.1109120641
C    0.7058954532 -4.2185098503 -0.2656986879
H    1.3637673422 -5.0645301092 -0.2879554843
C   -0.6466939377 -4.2166111039 -0.3844382021
H   -1.2906087137 -5.0571580211 -0.5532101542
C   -1.0795625172 -2.8541306352 -0.2514391900
C   -2.4141852549 -2.4482850053 -0.1877859163
C   -2.8367510497 -1.0991197040 -0.0672654789
C   -4.1823035753 -0.6945185910  0.1044245994
H   -5.0314802969 -1.3437901236  0.1805247421
C   -4.1779570429  0.6778298065  0.1950088406
H   -5.0212050067  1.3256702552  0.3336188553
C   -2.8316885235  1.0881084895  0.0784693445
C   -3.4532062190 -3.4883579188 -0.1720700040
C   -3.4176076770 -4.4970682631  0.7929065493
C   -4.3987058732 -5.4695851075  0.8302616209
C   -5.4307537115 -5.4556753886 -0.0952426258
H   -6.1958454012 -6.2165667300 -0.0654197614
C   -5.4742102623 -4.4607392725 -1.0599037999
C   -4.4974049269 -3.4835917337 -1.0980805254
Fe  -0.0021062469  0.0121789949  0.2392066053
C    3.4602446688 -3.4180234638  0.3833897572
C    4.0611900136 -3.3963774762  1.6434528101
C    3.8465136324 -4.3932169148 -0.5321885787
C    5.0012887361 -4.3494959825  1.9891750513
C    4.8011504376 -5.3361061907 -0.1876084584
H    5.4452847853 -4.3319303437  2.9755651139
C    5.3719307649 -5.3246485130  1.0759272454
H    5.0970255222 -6.0856929910 -0.9080209096
H    6.1052715024 -6.0703253499  1.3491744316
C   -3.4352285845  3.4696790207  0.3477540431
C   -3.4739517138  4.0984944572  1.5905687153
C   -4.3671409927  3.8248723783 -0.6212678346
C   -4.4362513889  5.0536064620  1.8621112683
C   -5.3162674507  4.7950864903 -0.3522587906
H   -4.4650856148  5.5242997299  2.8345634364
C   -5.3588773397  5.4063798908  0.8914042525
H   -6.0263671783  5.0747831202 -1.1157492309
H   -6.1070311197  6.1556815177  1.1025656658
H    6.0494173426  4.8612794172  1.1763415955
H    4.4208030316  5.9613812582 -2.6164955801
H   -4.3607222511 -6.2390097343  1.5884648814
H   -6.2757297407 -4.4480125316 -1.7852181747
H   -2.7509600463  3.8219931500  2.3433915359
H   -4.3321048392  3.3456655784 -1.5898188902
H    3.7641593511 -2.6365547155  2.3520352648
H    3.4053350727 -4.3990107827 -1.5235160384
H   -2.6260376660 -4.4937872121  1.5288951699
H   -4.5242186510 -2.7186365135 -1.8606146711
H    4.3744107598  3.0680148989  1.3762788053
H    2.7331452835  4.1822257653 -2.4045670130
Cl  -0.0117103443  0.0470294899  2.3792195661
78
aligned d3map frame 99
N   -0.0128762940  2.0697195784 -0.1098642123
N    2.0100971585  0.0205035089 -0.1222493235
C   -2.4478422019  2.4133771770  0.0555666500
C   -1.1092049472  2.8709315289 -0.0474584250
C   -0.7217269953  4.2274555234 -0.1673379043
H   -1.3852550014  5.0699454356 -0.1707075638
C    0.6457651521  4.2371085309 -0.3014998620
H    1.2822215631  5.0908705993 -0.4292885258
C    1.0716786271  2.8854947339 -0.2466645644
C    2.4132412801  2.4488483946 -0.3078283737
C    2.8208893505  1.1165062562 -0.2234046455
C    4.1924624027  0.7141149622 -0.1099087137
H    5.0346096158  1.3775118420 -0.1552154534
C    4.1993588692 -0.6253676561  0.1038176613
H    5.0433565931 -1.2701492189  0.2525434731
C    2.8322735127 -1.0590297234  0.0813006676
C    3.4544995565  3.4916602242 -0.3698458399
C    3.6021407620  4.3887654633  0.6863135412
C    4.5758012420  5.3685002292  0.6424109229
C    5.4071978665  5.4749263307 -0.4604677884
H    6.1639657616  6.2445786039 -0.4967608596
C    5.2657681632  4.5892610545 -1.5162116731
C    4.3007426192  3.5991415159 -1.4700792665
N    0.0055201751 -2.0519317765 -0.0455662802
N   -2.0100414193 -0.0099638163 -0.1427391170
C    2.4344388123 -2.3795348257  0.2300030209
C    1.1063048233 -2.8426844260  0.0470202933
C    0.7424764256 -4.1990288530 -0.1120415367
H    1.4204455567 -5.0303121687 -0.1064478800
C   -0.6197555284 -4.2213604037 -0.3005042060
H   -1.2368889787 -5.0779081785 -0.4875712814
C   -1.0664577635 -2.8787427670 -0.2199600260
C   -2.4117941072 -2.4492997896 -0.2703982446
C   -2.8169804701 -1.1119043993 -0.1906437816
C   -4.1872703459 -0.7100303250 -0.0625462758
H   -5.0274661416 -1.3755079144 -0.0300203847
C   -4.1988251934  0.6406805720  0.0620881451
H   -5.0462177390  1.2820279252  0.2014010967
C   -2.8361229519  1.0801923841 -0.0096143790
C   -3.4531297712 -3.4853811572 -0.3225672100
C   -3.4983556336 -4.4842498689  0.6502366081
C   -4.4866288119 -5.4494280654  0.6211971942
C   -5.4413312907 -5.4414718052 -0.3831279584
H   -6.2134586342 -6.1959184701 -0.4052792952
C   -5.4020293235 -4.4582248834 -1.3587373104
C   -4.4199615979 -3.4856596623 -1.3280382835
Fe  -0.0021062469  0.0121789949  0.2392066053
C    3.4223559564 -3.3892147015  0.6621900749
C    4.4062225661 -3.9031032698 -0.1737925542
C    3.3452042512 -3.8379534093  1.9789914177
C    5.2974419652 -4.8494103536  0.3040187519
C    4.2466614005 -4.7708591711  2.4559620387
H    6.0540001200 -5.2516100704 -0.3548299724
C    5.2245509126 -5.2809867904  1.6175285403
H    4.1835144538 -5.0988663856  3.4835077921
H    5.9251729913 -6.0142869152  1.9900458515
C   -3.4874819405  3.4417484057  0.2325142259
C   -4.4870761877  3.6336847055 -0.7184945149
C   -3.4775390687  4.2402962401  1.3744115333
C   -5.4560832412  4.6021275397 -0.5288877032
C   -4.4558075409  5.1972834239  1.5667702142
H   -6.2219873242  4.7475059294 -1.2767592055
C   -5.4459765206  5.3827206995  0.6152666970
H   -4.4480912074  5.8014863235  2.4620457525
H   -6.2071821405  6.1340387807  0.7648166831
H    4.6871619950  6.0515062956  1.4719479909
H    5.9100170476  4.6717504584 -2.3794990106
H   -4.5176310689 -6.2105323528  1.3870754374
H   -6.1405318435 -4.4487244166 -2.1472931632
H   -4.4860816802  3.0305635944 -1.6147594340
H   -2.7079255715  4.0870069014  2.1164448804
H    4.4647725703 -3.5721846594 -1.2008262715
H    2.5801832131 -3.4333141002  2.6258654780
H   -2.7686356791 -4.4796673025  1.4461622664
H   -4.3835123409 -2.7284507860 -2.0975701411
H    2.9574335584  4.2958948705  1.5484500028
H    4.1857819430  2.9128567117 -2.2967798485
Cl   0.0126019982  0.0454788030  2.3799076113
78
aligned d3map frame 100
N   -0.0294325003  2.0571042446 -0.2052663907
N    2.0101939597  0.0134785400 -0.0673022358
C   -2.3954268334  2.4215083033  0.3074103482
C   -1.0940192868  2.8648286097  0.0949108392
C   -0.6463243554  4.2265463963  0.1735421837
H   -1.2608780369  5.0683629941  0.4240062531
C    0.6794372425  4.2266534659 -0.1128499851
H    1.3457795328  5.0665587802 -0.1378994394
C    1.0677852230  2.8587173139 -0.3158570638
C    2.3901112614  2.4319159023 -0.4512111794
C    2.8148240238  1.0826273975 -0.3487838423
C    4.1525675213  0.6440404255 -0.4825578266
H    4.9927855579  1.2548923637 -0.7469040167
C    4.1559872145 -0.7101453683 -0.2312060670
H    4.9956010534 -1.3767184747 -0.2489357229
C    2.8177927926 -1.0808853816  0.0183915637
C    3.4292574457  3.4580846951 -0.6205389388
C    4.4904187693  3.5550614653  0.2808908917
C    5.4653102943  4.5202799987  0.1175110220
C    5.4037837853  5.4005166002 -0.9518717784
H    6.1702592334  6.1504073130 -1.0806269582
C    4.3523470839  5.3161033332 -1.8496641534
C    3.3691409025  4.3581668897 -1.6841383934
N    0.0075340976 -2.0412619889 -0.1408063008
N   -2.0115468862  0.0020896766 -0.0911973624
C    2.3946566310 -2.4288132732  0.2015384521
C    1.0841654009 -2.8608875350  0.0493692298
C    0.6526171491 -4.2318997257  0.0186468049
H    1.2930287780 -5.0822660635  0.1539222292
C   -0.6795172072 -4.2205030100 -0.2366085245
H   -1.3427950710 -5.0584261036 -0.3451989385
C   -1.0838696777 -2.8445391048 -0.3019869386
C   -2.3958898117 -2.4105125650 -0.4633056946
C   -2.8206154603 -1.0698286351 -0.3496764248
C   -4.1721808853 -0.6505915136 -0.3695725336
H   -5.0192270522 -1.2805629652 -0.5579535035
C   -4.1731844761  0.6954503842 -0.0867157482
H   -5.0180946542  1.3519699245 -0.0236646872
C   -2.8218026801  1.0784391556  0.0822636039
C   -3.4496995204 -3.4302663891 -0.6740949902
C   -3.9687237968 -4.1423000316  0.4028943125
C   -4.9607679264 -5.0841920504  0.2032354777
C   -5.4393827198 -5.3323616991 -1.0722944222
H   -6.2129690976 -6.0728769776 -1.2248271135
C   -4.9247373285 -4.6292116348 -2.1492545262
C   -3.9398198532 -3.6781689189 -1.9511135431
Fe  -0.0021062469  0.0121789949  0.2392066053
C    3.4532875911 -3.4010564002  0.5200217068
C    3.8125731994 -4.4238124156 -0.3554821224
C    4.1335253836 -3.2765714436  1.7303879174
C    4.8336053101 -5.2977720472 -0.0293764664
C    5.1430334392 -4.1624121734  2.0600037749
H    5.1165479073 -6.0773216219 -0.7218202909
C    5.5012435886 -5.1706063368  1.1787265861
H    5.6539305357 -4.0622201661  3.0071647737
H    6.3044997752 -5.8473888077  1.4263717692
C   -3.4200211022  3.3328584520  0.8290444967
C   -3.7701482695  4.5388769753  0.2234414717
C   -4.0713007780  2.9608115769  2.0095879670
C   -4.7340737600  5.3539134808  0.7929522314
C   -5.0242121484  3.7812788793  2.5771898413
H   -4.9990082286  6.2851120943  0.3104779915
C   -5.3576680552  4.9843241873  1.9735879335
H   -5.5128302072  3.4829400086  3.4927858743
H   -6.1028439002  5.6282666568  2.4169885398
H    6.2772324252  4.5880366667  0.8270491329
H    4.3006549971  6.0002537978 -2.6847351540
H   -5.3616668548 -5.6263381495  1.0447190773
H   -5.2854318795 -4.8278306924 -3.1483317232
H   -3.3120505122  4.8202139435 -0.7152757144
H   -3.7986374300  2.0298920320  2.4857377255
H    3.3056934185 -4.5117528497 -1.3061488771
H    3.8508274042 -2.4886750831  2.4145903346
H   -3.5934742000 -3.9447327654  1.3963684538
H   -3.5387283796 -3.1268906439 -2.7897273441
H    4.5279873133  2.8807634490  1.1236638008
H    2.5558252063  4.2854629548 -2.3918830313
Cl  -0.0299643395  0.0978849498  2.3811302626
78
aligned d3map frame 101
N    0.0031361001  2.0633266465 -0.1755752492
N    2.0108704859  0.0352358652 -0.0966479417
C   -2.4180342032  2.4261702752 -0.3657800868
C   -1.0953912284  2.8509248405 -0.3825300181
C   -0.6839711588  4.2120535505 -0.5586567861
H   -1.3480791843  5.0345833850 -0.7398885183
C    0.6682056880  4.2335809355 -0.4491888237
H    1.3239974610  5.0763841010 -0.5464586103
C    1.0899947102  2.8858751444 -0.1944444473
C    2.4188086990  2.4795042266 -0.0581335894
C    2.8281873026  1.1259348556  0.0299308824
C    4.1720594296  0.7074521967  0.1752342642
H    5.0126709743  1.3490551149  0.3507579349
C    4.1740750637 -0.6627086047  0.0698614365
H    5.0163314637 -1.3230267289  0.1369486577
C    2.8294557170 -1.0598894890 -0.1156767779
C    3.4650355334  3.5087405617 -0.1218807311
C    3.4650420333  4.5939076483  0.7547461500
C    4.4359700552  5.5736765994  0.6608806688
C    5.4201857530  5.4914122745 -0.3107214704
H    6.1734340769  6.2612684819 -0.3885112232
C    5.4321729615  4.4161201366 -1.1848859000
C    4.4668868123  3.4328739373 -1.0907818864
N    0.0102679905 -2.0488553465 -0.1093270007
N   -2.0129566393 -0.0065959621 -0.1132006618
C    2.4289973782 -2.4047233162 -0.3092072901
C    1.1067633130 -2.8406057705 -0.3045384306
C    0.6874348000 -4.1924604570 -0.5335408925
H    1.3427872579 -5.0124617156 -0.7535711839
C   -0.6660832862 -4.2088522212 -0.4392482307
H   -1.3273669075 -5.0444589150 -0.5619612751
C   -1.0829136239 -2.8609431956 -0.1802053385
C   -2.4121268709 -2.4509759054 -0.1327454773
C   -2.8317231224 -1.0997048383 -0.0891935912
C   -4.1873377359 -0.6939177481 -0.1120178846
H   -5.0379120430 -1.3447041506 -0.0659597160
C   -4.1878563002  0.6761669993 -0.1975833311
H   -5.0386497876  1.3255423165 -0.2685882459
C   -2.8339137970  1.0866730428 -0.1989199976
C   -3.4613427059 -3.4747205315 -0.2803509589
C   -3.6475490212 -4.4688476626  0.6763964203
C   -4.6419711711 -5.4168653623  0.5148510807
C   -5.4499872382 -5.3969832250 -0.6102911607
H   -6.2240683521 -6.1390211277 -0.7369441185
C   -5.2613798867 -4.4202651074 -1.5743320754
C   -4.2799581285 -3.4619621511 -1.4087566469
Fe  -0.0021062469  0.0121789949  0.2392066053
C    3.4877864786 -3.3796605574 -0.6139472904
C    4.2961537516 -3.1678390239 -1.7322182703
C    3.6872684499 -4.5254184966  0.1527903062
C    5.2585709816 -4.0915470304 -2.0893311900
C    4.6622117398 -5.4410757240 -0.2014686893
H    5.8637560223 -3.9231976852 -2.9683133322
C    5.4432816863 -5.2340753383 -1.3265462335
H    4.8124378254 -6.3245635013  0.4023760971
H    6.1934795477 -5.9577196081 -1.6075234705
C   -3.4789315386  3.4260360579 -0.6053961214
C   -3.6273281527  3.9816090686 -1.8733813340
C   -4.3614647740  3.7981031269  0.4040015526
C   -4.6518463387  4.8740596045 -2.1308827571
C   -5.3758540569  4.7031206934  0.1461029812
H   -4.7655817399  5.2832455417 -3.1245175368
C   -5.5302308017  5.2361279667 -1.1231103107
H   -6.0529776460  4.9879991760  0.9378438323
H   -6.3320283696  5.9282846938 -1.3263386201
H    4.4239206348  6.4061285033  1.3490179807
H    6.1944817863  4.3476251978 -1.9474990243
H   -4.7891996043 -6.1740656023  1.2710283492
H   -5.8809195185 -4.4039800675 -2.4594067834
H   -2.9445694404  3.6930200559 -2.6593183661
H   -4.2435273238  3.3790131945  1.3925950702
H    4.1404365086 -2.2818320137 -2.3305276617
H    3.0885742759 -4.6830674830  1.0379542447
H   -3.0203622015 -4.4799903742  1.5561587244
H   -4.1256666440 -2.7039440916 -2.1630784031
H    2.7091067771  4.6505461239  1.5243417923
H    4.4637353752  2.6074057292 -1.7879918835
Cl  -0.0097796184  0.0438541223  2.3791646276
78
aligned d3map frame 102
N   -0.0078309102  2.0553578719 -0.2113217833
N    2.0188052479  0.0237719264 -0.0490928175
C   -2.4445139078  2.4211832004 -0.0631942275
C   -1.1104800065  2.8630399448 -0.2005813337
C   -0.7109353858  4.2214705690 -0.2479037253
H   -1.3678724022  5.0685492238 -0.2327842089
C    0.6596905307  4.2295743030 -0.2864021372
H    1.3053754973  5.0850423243 -0.2948566943
C    1.0783909884  2.8734411274 -0.2630410037
C    2.4301332352  2.4488644658 -0.2211393389
C    2.8359010836  1.1163145486 -0.1171522736
C    4.2051341668  0.6902005821 -0.1373181018
H    5.0530396924  1.3395892064 -0.2296300673
C    4.2031324982 -0.6649895644 -0.0513908524
H    5.0435247683 -1.3322322810 -0.0468497434
C    2.8344085344 -1.0777531148 -0.0164148911
C    3.4663658882  3.4896691038 -0.2804092328
C    4.4098467939  3.6129964361  0.7405772534
C    5.3736387448  4.6014129201  0.6913965472
C    5.4168594642  5.4810463657 -0.3787026519
H    6.1691215630  6.2548342590 -0.4147289760
C    4.4898775495  5.3638753643 -1.4013480900
C    3.5209751808  4.3793597371 -1.3531762582
N    0.0065728806 -2.0406091283 -0.1477032176
N   -2.0204887948 -0.0106139740 -0.0686602252
C    2.4377000196 -2.4084229914 -0.0910906347
C    1.1079362268 -2.8408586531 -0.2628325032
C    0.7109166912 -4.1742006439 -0.5259895953
H    1.3726043093 -5.0039325044 -0.6793978648
C   -0.6620676237 -4.1770565143 -0.5515708973
H   -1.3113046828 -5.0060733187 -0.7552621406
C   -1.0773187162 -2.8498549267 -0.2769010206
C   -2.4274105634 -2.4414974012 -0.1188165815
C   -2.8309307236 -1.1111084351 -0.0034353327
C   -4.1900184620 -0.6955573622  0.1835221861
H   -5.0255429476 -1.3537759353  0.3152148317
C   -4.1955200359  0.6614856582  0.1794690857
H   -5.0429533052  1.3123618524  0.2665899549
C   -2.8367437429  1.0873709139  0.0306227450
C   -3.4345328012 -3.5047379062 -0.0238844236
C   -3.2793166140 -4.5149598177  0.9282175696
C   -4.2232543408 -5.5147460980  1.0533330083
C   -5.3332628240 -5.5341099154  0.2231299365
H   -6.0698152151 -6.3175665857  0.3219290383
C   -5.4901249421 -4.5457900957 -0.7345986225
C   -4.5523316818 -3.5376178331 -0.8577626578
Fe  -0.0021062469  0.0121789949  0.2392066053
C    3.4680753890 -3.4613652650  0.0411408963
C    3.9456940980 -3.7730841223  1.3109561987
C    3.9360778905 -4.1758087557 -1.0558090351
C    4.8620764994 -4.7948130656  1.4809052621
C    4.8627954398 -5.1887472923 -0.8828370393
H    5.2135463513 -5.0381939153  2.4733163575
C    5.3214284416 -5.5061204660  0.3852121379
H    5.2251506286 -5.7376404018 -1.7399567789
H    6.0341431285 -6.3062472606  0.5199225303
C   -3.4979900414  3.4503760291 -0.0032283135
C   -4.2796711641  3.5931267509  1.1421356119
C   -3.7373210981  4.2872222213 -1.0899992812
C   -5.2797753902  4.5456237506  1.1927625607
C   -4.7459476829  5.2321593216 -1.0392495162
H   -5.8752401470  4.6488161684  2.0882291102
C   -5.5210319408  5.3636435278  0.1012102710
H   -4.9283039374  5.8688955631 -1.8945367076
H   -6.3087798470  6.1027195913  0.1383513428
H    6.0928696669  4.6901394079  1.4924305688
H    4.5213628136  6.0425318302 -2.2412177809
H   -4.0934283637 -6.2846109287  1.8027062682
H   -6.3498750360 -4.5601495493 -1.3905645357
H   -4.0823414410  2.9611258145  1.9956027680
H   -3.1407687118  4.1778903795 -1.9847804555
H    3.5780369154 -3.2172615086  2.1611456794
H    3.5749491086 -3.9293097187 -2.0440865703
H   -2.4210422422 -4.4901020111  1.5835842956
H   -4.6673414012 -2.7801505547 -1.6203725421
H    4.3585382541  2.9395955296  1.5836875326
H    2.8089802960  4.2775156215 -2.1593620636
Cl  -0.0244752335  0.0467323546  2.3788901973
78
aligned d3map frame 103
N   -0.0172850583  2.0624468835 -0.1812296480
N    2.0122764156  0.0240886666 -0.0825881842
C   -2.4417090664  2.4339127628 -0.2460067130
C   -1.1214901089  2.8648677002 -0.1394397060
C   -0.7179998737  4.2283196614  0.0693631450
H   -1.3886657664  5.0571380672  0.1804358522
C    0.6360748859  4.2369147586  0.1310980171
H    1.2816589435  5.0761329004  0.3037326256
C    1.0716973974  2.8785527199 -0.0337253858
C    2.4005854554  2.4745868515 -0.0421309561
C    2.8267109778  1.1217683159 -0.1162996536
C    4.1679485906  0.7242792862 -0.3144007869
H    5.0097628625  1.3831276491 -0.3982067708
C    4.1665039498 -0.6484454349 -0.4055686483
H    5.0051403336 -1.2992301294 -0.5569167666
C    2.8234458787 -1.0639082632 -0.2601511703
C    3.4374875282  3.5201021289 -0.0612853654
C    4.4040942470  3.6105671329  0.9379498580
C    5.3760389276  4.5937130680  0.8829593559
C    5.4083666463  5.4883458210 -0.1740783271
H    6.1759979693  6.2445075294 -0.2247783511
C    4.4461898019  5.4096262999 -1.1682607499
C    3.4640026736  4.4391314275 -1.1103297767
N    0.0023046960 -2.0484499243 -0.1165140537
N   -2.0123500031 -0.0051003670 -0.1046526221
C    2.4145167192 -2.4171346423 -0.2984010065
C    1.1027416424 -2.8512424823 -0.1788972982
C    0.7043792349 -4.2288144619 -0.0826590427
H    1.3800728995 -5.0622606552 -0.1032580164
C   -0.6428438457 -4.2404224370  0.0632146062
H   -1.2920361881 -5.0861465293  0.1849758948
C   -1.0803938205 -2.8725503781  0.0133580388
C   -2.3998384569 -2.4552420163  0.0211104604
C   -2.8101025576 -1.1105454524 -0.1677620319
C   -4.1344817818 -0.7395253012 -0.4846372515
H   -4.9475153782 -1.4227356808 -0.6257674567
C   -4.1432547925  0.6332799801 -0.5963798642
H   -4.9709706971  1.2625059457 -0.8606283867
C   -2.8281336763  1.0701950388 -0.3265513912
C   -3.4787283784 -3.4428267084  0.2200139703
C   -4.1598295195 -3.4582053012  1.4343292789
C   -5.1814318643 -4.3639969290  1.6467845273
C   -5.5500920477 -5.2450500571  0.6417607456
H   -6.3558610463 -5.9424255838  0.8106379912
C   -4.8856826156 -5.2263855028 -0.5723998764
C   -3.8475162351 -4.3354396511 -0.7808809095
Fe  -0.0021062469  0.0121789949  0.2392066053
C    3.4650330954 -3.4333277116 -0.5389628246
C    4.2043841203 -3.9889495459  0.4988144921
C    3.7194020781 -3.8357782414 -1.8462971254
C    5.1881056403 -4.9236968163  0.2267811207
C    4.7079018742 -4.7656878978 -2.1152658009
H    5.7597663429 -5.3542720515  1.0354607404
C    5.4466291729 -5.3096186172 -1.0787001013
H    4.8978107130 -5.0607894061 -3.1362110639
H    6.2226359150 -6.0315729657 -1.2821463021
C   -3.5160488738  3.4315501994 -0.1871014660
C   -4.5106942769  3.3155779889  0.7862825704
C   -3.5604157294  4.5130718217 -1.0663061494
C   -5.5056822079  4.2680686707  0.8913151947
C   -4.5642575976  5.4597884383 -0.9627571328
H   -6.2588660252  4.1729336350  1.6598967573
C   -5.5356760832  5.3447500873  0.0183802869
H   -4.5872149435  6.2902299088 -1.6521198702
H   -6.3128899200  6.0903692030  0.1051993846
H    6.1127401435  4.6626349499  1.6700829739
H    4.4647363187  6.1054757165 -1.9949433158
H   -5.6950875217 -4.3848027022  2.5950892665
H   -5.1772904589 -5.9038057221 -1.3621413674
H   -4.4751316657  2.4846084128  1.4752040546
H   -2.8141886725  4.5946252897 -1.8428481035
H    4.0047024413 -3.6850381981  1.5153490173
H    3.1393011948 -3.4076472008 -2.6514117915
H   -3.8702243860 -2.7636254510  2.2096318810
H   -3.3258545961 -4.3106880895 -1.7266088778
H    4.3739479639  2.9202106725  1.7661011267
H    2.7207457528  4.3731346259 -1.8906671394
Cl  -0.0315619583  0.0479647654  2.3754989678
78
aligned d3map frame 104
N   -0.0241925002  2.0670565157 -0.1354641762
N    2.0030393080  0.0034888863 -0.1464880609
C   -2.4564906130  2.4233167174  0.0101227894
C   -1.1222683813  2.8723734138 -0.0828375117
C   -0.7415028877  4.2212660803 -0.3023688950
H   -1.4077836870  5.0611690498 -0.3163364452
C    0.6111757732  4.2186462357 -0.5201876107
H    1.2372602795  5.0578051688 -0.7499235762
C    1.0443342874  2.8704445694 -0.3976627450
C    2.3715078224  2.4221197745 -0.5412673597
C    2.7931115643  1.0995335471 -0.3470049189
C    4.1697931276  0.7251916844 -0.2520063487
H    4.9995834803  1.3997137943 -0.3447103707
C    4.2038077516 -0.6073695825  0.0189757398
H    5.0684713651 -1.2166606275  0.1972330877
C    2.8476174786 -1.0638941909  0.0361792993
C    3.3938060867  3.3957460001 -0.9592551031
C    3.7106268122  4.5184937632 -0.1988396742
C    4.6653129792  5.4156479625 -0.6416446350
C    5.3055089642  5.2154957557 -1.8546974243
H    6.0449862227  5.9209074824 -2.2038699432
C    4.9982100467  4.1004612798 -2.6173426258
C    4.0569679912  3.1937017681 -2.1703135841
N    0.0242323805 -2.0494307682 -0.0713892781
N   -2.0038352780  0.0037180357 -0.1661246018
C    2.4614571906 -2.4024321651  0.1330905397
C    1.1245178830 -2.8505396423  0.0020522116
C    0.7493372034 -4.1974949430 -0.2308821764
H    1.4153920201 -5.0375615618 -0.2535178109
C   -0.6019480326 -4.2003139822 -0.4635580789
H   -1.2205396165 -5.0398928348 -0.7111895558
C   -1.0425395803 -2.8561566262 -0.3387279143
C   -2.3756103250 -2.4207583427 -0.4812675163
C   -2.7998569098 -1.0922657132 -0.3182265134
C   -4.1753998289 -0.7038769118 -0.2434294915
H   -5.0114815129 -1.3735431085 -0.2919141239
C   -4.1991687829  0.6430868196 -0.0572079225
H   -5.0560905822  1.2740571786  0.0680597942
C   -2.8408234398  1.0853454193 -0.0412035406
C   -3.4088094846 -3.4079285041 -0.8270705409
C   -3.6429957572 -4.5362463414 -0.0431607494
C   -4.6309971714 -5.4392416691 -0.3904779634
C   -5.3947681768 -5.2369699926 -1.5282765309
H   -6.1611508208 -5.9440763988 -1.8008312734
C   -5.1681257729 -4.1195458144 -2.3167248974
C   -4.1886390525 -3.2108157024 -1.9684625605
Fe  -0.0021062469  0.0121789949  0.2392066053
C    3.5009819461 -3.4361129449  0.2472468384
C    3.4543375235 -4.3681985572  1.2853914898
C    4.5314472220 -3.5289637822 -0.6879182378
C    4.4204350180 -5.3512275655  1.3922052752
C    5.4921065065 -4.5182752204 -0.5807880614
H    4.3717742700 -6.0628006847  2.2017765628
C    5.4434389727 -5.4312190926  0.4603009033
H    6.2778248347 -4.5805238721 -1.3216182838
H    6.1930164362 -6.2043478650  0.5399221602
C   -3.5145499535  3.4526483914 -0.0129357419
C   -3.7194940603  4.3023121236  1.0715347612
C   -4.3103259940  3.5972759582 -1.1465703224
C   -4.7074249209  5.2694461660  1.0229042092
C   -5.2820058004  4.5802436565 -1.2021344489
H   -4.8701637578  5.9134086360  1.8741860374
C   -5.4845693989  5.4160512332 -0.1163587326
H   -5.8800089929  4.6942065030 -2.0956856974
H   -6.2470616123  6.1803276670 -0.1571627979
H    4.9133550205  6.2786443424 -0.0405840650
H    5.4913307102  3.9343384153 -3.5653471021
H   -4.8071571743 -6.3033980707  0.2330884153
H   -5.7528216872 -3.9610115957 -3.2055077431
H   -3.1092361923  4.1877370303  1.9560741469
H   -4.1474390907  2.9447991786 -1.9923069266
H    2.6631118443 -4.3042235421  2.0172334763
H    4.5584623733 -2.8396851398 -1.5203271961
H   -3.0644899792 -4.6827677246  0.8570309901
H   -4.0043145216 -2.3440851338 -2.5854919270
H    3.2292739997  4.6697262757  0.7543456149
H    3.8111109783  2.3243133034 -2.7635608824
Cl  -0.0293564245  0.0458518612  2.3795034982
78
aligned d3map frame 105
N   -0.0061287386  2.0665081362 -0.1645404272
N    2.0126371979  0.0169470502 -0.0869268732
C   -2.4316756775  2.4470608097 -0.2078368608
C   -1.1060609913  2.8712735428 -0.2416685590
C   -0.6931306241  4.2418907993 -0.3302251170
H   -1.3507399281  5.0870856523 -0.3766737434
C    0.6634718161  4.2460009217 -0.3312951078
H    1.3138197955  5.0938970521 -0.4119236262
C    1.0869136554  2.8842708943 -0.1979287003
C    2.4149937484  2.4660728975 -0.1235463938
C    2.8215154394  1.1184949710  0.0113085941
C    4.1605483339  0.7179313652  0.2198656344
H    4.9916161895  1.3748727545  0.3908461452
C    4.1711254421 -0.6564922620  0.1989215798
H    5.0139325942 -1.3050082562  0.3444042406
C    2.8367983620 -1.0700217298 -0.0246069913
C    3.4742467358  3.4737716219 -0.2843970291
C    3.5751902124  4.5819062354  0.5561021674
C    4.5504681742  5.5383122721  0.3383576414
C    5.4380259214  5.4073793962 -0.7175381487
H    6.1928533989  6.1599298273 -0.8933053972
C    5.3542010122  4.3016901488 -1.5495961555
C    4.3870186812  3.3408879410 -1.3315570355
N    0.0307762565 -2.0509060056 -0.0989058915
N   -2.0154233222  0.0054063419 -0.1018310082
C    2.4503837016 -2.4263295592 -0.1953022454
C    1.1244245919 -2.8565000507 -0.2317537100
C    0.6998418628 -4.2104445893 -0.4429157296
H    1.3507398713 -5.0426220803 -0.6208348110
C   -0.6559305760 -4.2124338746 -0.3924674120
H   -1.3248740038 -5.0432065865 -0.5086150407
C   -1.0688405809 -2.8560723997 -0.1866985091
C   -2.3959483490 -2.4411406492 -0.1819930779
C   -2.8252782546 -1.0980395979 -0.1605243851
C   -4.1803203304 -0.6992616902 -0.2347846653
H   -5.0271830953 -1.3562715046 -0.2840332017
C   -4.1905684711  0.6729488008 -0.2352344565
H   -5.0430381680  1.3182628413 -0.3079800299
C   -2.8407185959  1.0915184457 -0.1478285441
C   -3.4337128702 -3.4911034783 -0.2564843449
C   -3.6775655383 -4.3080402156  0.8437088307
C   -4.6366603682 -5.3021400994  0.7798185178
C   -5.3463351978 -5.5046109928 -0.3926028444
H   -6.0868566017 -6.2893588859 -0.4484002510
C   -5.1055343231 -4.7007307243 -1.4946312717
C   -4.1630925348 -3.6914292540 -1.4245180450
Fe  -0.0021062469  0.0121789949  0.2392066053
C    3.5321579688 -3.3902146713 -0.4263609155
C    4.4690878496 -3.1281262179 -1.4310974831
C    3.6618544458 -4.5652473036  0.3151364952
C    5.4919398689 -4.0171761295 -1.6936179059
C    4.6880340323 -5.4530968281  0.0475622142
H    6.2033517175 -3.7961264003 -2.4762046366
C    5.6031575185 -5.1877990524 -0.9581641701
H    4.7799642157 -6.3598454413  0.6287675478
H    6.3977772663 -5.8881266244 -1.1672830645
C   -3.4826638256  3.4761415027 -0.2663531341
C   -3.5742979616  4.3413157669 -1.3555939113
C   -4.3942908730  3.6107348625  0.7799325548
C   -4.5449644955  5.3237105932 -1.3904292545
C   -5.3578979298  4.6006923055  0.7435405204
H   -4.6059230949  5.9871820105 -2.2408892887
C   -5.4352110973  5.4625295101 -0.3383922302
H   -6.0507031929  4.7043627270  1.5660906267
H   -6.1869858085  6.2371321098 -0.3628223165
H    4.6135503400  6.3954940313  0.9936906485
H    6.0431332658  4.1911748816 -2.3747379697
H   -4.8290762270 -5.9226119509  1.6438516109
H   -5.6521606196 -4.8606956119 -2.4120454585
H   -2.8869453492  4.2250330418 -2.1813071823
H   -4.3213859704  2.9483125815  1.6300147700
H    4.3703758009 -2.2238973618 -2.0158394872
H    2.9724894394 -4.7632723315  1.1225476960
H   -3.1156041256 -4.1481218239  1.7519436909
H   -3.9710398953 -3.0616748914 -2.2818117603
H    2.8969145991  4.6762089107  1.3919718613
H    4.3101545161  2.4857248724 -1.9881084478
Cl   0.0260488426  0.0908168997  2.3759660716
78
aligned d3map frame 106
N   -0.0048867552  2.0675806387 -0.1526111444
N    2.0059115141  0.0204636529 -0.1214077204
C   -2.4213905729  2.4413205486 -0.0908256031
C   -1.1019624519  2.8752037682 -0.0269464945
C   -0.6780833327  4.2444484484  0.0471028026
H   -1.3220789354  5.0860010293  0.2094073838
C    0.6663868898  4.2519190256 -0.1283158174
H    1.3142852612  5.1047848051 -0.1737469097
C    1.0857470720  2.8823670533 -0.2276847317
C    2.4001891739  2.4545387190 -0.4045257599
C    2.8155739375  1.1017553566 -0.3276529714
C    4.1727311547  0.6945753502 -0.3331740749
H    5.0188813068  1.3421569347 -0.4522548843
C    4.1826694940 -0.6631226703 -0.1224732059
H    5.0316776295 -1.3161039098 -0.0535648202
C    2.8323721211 -1.0635986040 -0.0065375474
C    3.4385743187  3.4510498056 -0.7169309159
C    3.7521843019  4.5015265632  0.1467137348
C    4.7283301116  5.4240011602 -0.1929164715
C    5.4011581552  5.3176961756 -1.4008744539
H    6.1663727111  6.0405775212 -1.6601484168
C    5.0974131647  4.2758354423 -2.2661537070
C    4.1290385011  3.3472153866 -1.9258535769
N    0.0091036874 -2.0508300319 -0.0891188828
N   -2.0070166994 -0.0144243445 -0.1397274854
C    2.4179996402 -2.4065158007  0.1683213569
C    1.1051233772 -2.8417519929  0.1310550337
C    0.6918779260 -4.2100948738  0.2566651396
H    1.3527203960 -5.0348977924  0.4412391780
C   -0.6548743105 -4.2306554661  0.1012097804
H   -1.3089757109 -5.0780087269  0.1625685138
C   -1.0725031232 -2.8754007184 -0.1300516641
C   -2.3873507612 -2.4637291200 -0.3544213798
C   -2.7782904875 -1.1013865662 -0.4516306380
C   -4.0563365301 -0.6751391102 -0.8810068272
H   -4.8412320566 -1.3087220184 -1.2461191514
C   -4.0733227357  0.6976164904 -0.7777153197
H   -4.8742309916  1.3610188692 -1.0434067513
C   -2.8016197830  1.0844660898 -0.3006881347
C   -3.4304676629 -3.4806984344 -0.5165923496
C   -4.6153095201 -3.4248067337  0.2194527634
C   -5.5984001318 -4.3795704927  0.0426434463
C   -5.4238597792 -5.4033722787 -0.8745339788
H   -6.1954244780 -6.1450924871 -1.0164814208
C   -4.2530271509 -5.4680157775 -1.6138843392
C   -3.2647832071 -4.5207182634 -1.4348003456
Fe  -0.0021062469  0.0121789949  0.2392066053
C    3.4881894041 -3.4148837317  0.3481597081
C    4.1229493021 -3.9720817372 -0.7576975440
C    3.8799794841 -3.7986024523  1.6252007567
C    5.1406084526 -4.8925399006 -0.5856416596
C    4.8974307523 -4.7231572927  1.7928172415
H    5.6332629260 -5.3179477662 -1.4475955778
C    5.5315567233 -5.2688885291  0.6899178474
H    5.1974052736 -5.0134277599  2.7894168726
H    6.3297972491 -5.9857725989  0.8188250477
C   -3.5181803680  3.4138564123 -0.0319890986
C   -3.5674564954  4.5189934672 -0.8825993847
C   -4.5668090563  3.2117845437  0.8693675683
C   -4.6331601098  5.3977165502 -0.8278143304
C   -5.6263413294  4.0964495735  0.9249561347
H   -4.6615736177  6.2432001457 -1.4973107842
C   -5.6664728703  5.1888341184  0.0733460210
H   -6.4282644174  3.9296734116  1.6323772485
H   -6.5008999706  5.8731490548  0.1075517961
H    4.9682532197  6.2283092466  0.4903129627
H    5.6193787413  4.1846526924 -3.2084628491
H   -6.5080393852 -4.3252438072  0.6233363686
H   -4.1127871269 -6.2577391027 -2.3383457376
H   -2.7829658023  4.6627886617 -1.6115744199
H   -4.5289790371  2.3612635581  1.5363522705
H    3.8152720712 -3.6755347416 -1.7502855813
H    3.3865443395 -3.3655907656  2.4835424282
H   -4.7503089975 -2.6380899788  0.9457915725
H   -2.3644038950 -4.5568433880 -2.0298976741
H    3.2509864366  4.5715083479  1.1017377761
H    3.8882215420  2.5363864720 -2.6002824832
Cl   0.0170137119  0.0300873881  2.3803545402
78
aligned d3map frame 107
N   -0.0032131357  2.0579037659 -0.1840722252
N    1.9971595121  0.0338332245 -0.1517482368
C   -2.3983038359  2.4636227023 -0.0184136761
C   -1.0733396221  2.8524739942  0.1287415889
C   -0.5991361274  4.1607320072  0.4860535006
H   -1.2105007303  4.9575985155  0.8622701837
C    0.7447752793  4.1599298851  0.2913461849
H    1.4383682228  4.9573337528  0.4778295856
C    1.1023597781  2.8448257947 -0.1574733202
C    2.3809759225  2.4344351357 -0.5635509831
C    2.7435158396  1.0701281373 -0.6591647755
C    3.9650214598  0.5634975640 -1.1596385599
H    4.7108376231  1.1239413576 -1.6881811448
C    3.9859289217 -0.7842825043 -0.8711278308
H    4.7577811681 -1.4928969900 -1.1011823014
C    2.7643334481 -1.0812645626 -0.2358420578
C    3.3497148054  3.4660473106 -0.9260264736
C    4.6918973726  3.4040405940 -0.5394523085
C    5.5898127536  4.3664769940 -0.9574169569
C    5.1709004208  5.4202844356 -1.7521417175
H    5.8786678265  6.1656063814 -2.0830552083
C    3.8371850357  5.5113003398 -2.1190618180
C    2.9371401271  4.5460558958 -1.7147403382
N    0.0291261171 -2.0465579998 -0.1145892434
N   -1.9994053823  0.0178921388 -0.1661865029
C    2.4074061983 -2.3891163115  0.2441008362
C    1.0909597925 -2.8224607008  0.2774775686
C    0.6111782187 -4.1305056981  0.6319513075
H    1.2071967208 -4.9222893319  1.0395192054
C   -0.7193383418 -4.1483733377  0.3719826832
H   -1.4082943585 -4.9571737940  0.5204659804
C   -1.0778786766 -2.8342015885 -0.0851550737
C   -2.3760156477 -2.4185580023 -0.3964726867
C   -2.7579549938 -1.0622497644 -0.5344911865
C   -4.0192184622 -0.6186762841 -0.9968963549
H   -4.7921653742 -1.2424965906 -1.4001795577
C   -4.0357590971  0.7504448374 -0.8587888055
H   -4.8260718582  1.4243136897 -1.1258919611
C   -2.7824563440  1.1220607744 -0.3252551867
C   -3.4120663864 -3.4473141863 -0.5328884517
C   -4.6086133069 -3.3567109675  0.1796991958
C   -5.5697139377 -4.3429894432  0.0669732459
C   -5.3607716048 -5.4303696356 -0.7663936180
H   -6.1132134430 -6.2001898511 -0.8526627951
C   -4.1806582577 -5.5261008649 -1.4866756917
C   -3.2117582407 -4.5478948729 -1.3681105033
Fe  -0.0021062469  0.0121789949  0.2392066053
C    3.5198315637 -3.2210995500  0.6933352245
C    3.6740552318 -4.5639436821  0.3440131052
C    4.4831362107 -2.6350162824  1.5236421017
C    4.7367146228 -5.2992409282  0.8352110699
C    5.5400500912 -3.3734027122  2.0132091411
H    4.8429254721 -6.3375623647  0.5562420027
C    5.6686664948 -4.7127021513  1.6764734836
H    6.2661334955 -2.9047244187  2.6617470708
H    6.4949569684 -5.2914505682  2.0607909797
C   -3.4421884576  3.4890589437  0.0181503677
C   -3.2862963507  4.6705732218 -0.7115108807
C   -4.6144400662  3.3098547352  0.7542980486
C   -4.2656074297  5.6439795014 -0.6973969988
C   -5.5890571667  4.2889091089  0.7698263004
H   -4.1302755838  6.5480274219 -1.2729256315
C   -5.4201113990  5.4586599836  0.0454345090
H   -6.4878103477  4.1419245473  1.3504429063
H   -6.1858357580  6.2196332453  0.0554249549
H    6.6250438079  4.2974092038 -0.6607638173
H    3.4987650746  6.3338902560 -2.7303974215
H   -6.4853464491 -4.2662932071  0.6350925703
H   -4.0158974016 -6.3679091697 -2.1436782645
H   -2.4009774260  4.8025025342 -1.3156298899
H   -4.7414381140  2.4064468775  1.3321233405
H    2.9809491682 -5.0184801650 -0.3474627801
H    4.3731102689 -1.5971335364  1.8000743445
H   -4.7627635537 -2.5197682088  0.8443504330
H   -2.2978806011 -4.6158776756 -1.9404277944
H    5.0188009696  2.6073105105  0.1122872499
H    1.9057283099  4.6029678886 -2.0322213320
Cl  -0.0108927740  0.0257136237  2.3778059655
78
aligned d3map frame 108
N   -0.0160291839  2.0650875356 -0.1740607637
N    2.0077381914  0.0216389870 -0.1065348274
C   -2.4269051895  2.4240667272  0.1142011923
C   -1.1145324745  2.8637840391  0.0198204101
C   -0.6943172326  4.2293424680  0.1416211936
H   -1.3487409205  5.0592571944  0.3155353933
C    0.6539271720  4.2438446007  0.0128319686
H    1.3065671144  5.0906764524  0.0762361839
C    1.0742059048  2.8847403516 -0.1837281484
C    2.4011495453  2.4688705015 -0.2932376841
C    2.8035267260  1.1057963174 -0.3420494542
C    4.1254313999  0.6808013544 -0.6203972452
H    4.9442846098  1.3136398387 -0.9086516600
C    4.1399600278 -0.6893226986 -0.4947350129
H    4.9751897314 -1.3555221280 -0.6197151154
C    2.8194289430 -1.0785391051 -0.1762248755
C    3.4680365661  3.4765154404 -0.2941683057
C    4.5381595246  3.3592421657  0.5976218641
C    5.5542109825  4.2932185175  0.6062139263
C    5.5219816368  5.3689767382 -0.2698476726
H    6.3185829524  6.0946012723 -0.2671275188
C    4.4659450088  5.4979870058 -1.1570127540
C    3.4486247212  4.5617993655 -1.1739417221
N    0.0012770919 -2.0483489795 -0.1097529399
N   -2.0080626181 -0.0098699654 -0.1285495485
C    2.4153701314 -2.4262187533 -0.0259409131
C    1.1006253553 -2.8566918539 -0.0125358652
C    0.6930840978 -4.2320778089 -0.0630367515
H    1.3586075465 -5.0701791704  0.0092092295
C   -0.6498916205 -4.2373734345 -0.2448178476
H   -1.2946530385 -5.0848290373 -0.3598490372
C   -1.0767039327 -2.8648480750 -0.2594383616
C   -2.3875481144 -2.4392122216 -0.4531802140
C   -2.8086186984 -1.0910966417 -0.3729715594
C   -4.1601975989 -0.6832591673 -0.4497071416
H   -4.9959852675 -1.3312436063 -0.6253046581
C   -4.1775613679  0.6749852380 -0.2330957207
H   -5.0255210977  1.3299980970 -0.2249430757
C   -2.8354343099  1.0724268843 -0.0408698617
C   -3.4007731066 -3.4596458805 -0.7896371596
C   -3.8073893212 -4.4147477139  0.1359309460
C   -4.7257851989 -5.3860411165 -0.2216902511
C   -5.2356839780 -5.4277500014 -1.5088150196
H   -5.9395458424 -6.1938415412 -1.7922762358
C   -4.8368718341 -4.4781062567 -2.4350715633
C   -3.9336726126 -3.4948372158 -2.0762741124
Fe  -0.0021062469  0.0121789949  0.2392066053
C    3.4764760853 -3.4590797728 -0.0288579807
C    3.8793823490 -4.0315854317 -1.2296683535
C    4.0658543838 -3.8801945007  1.1567818894
C    4.8518552670 -5.0157948077 -1.2446887049
C    5.0396111459 -4.8625270058  1.1386112905
H    5.1495358046 -5.4557878378 -2.1843139098
C    5.4319859153 -5.4355362185 -0.0596192747
H    5.4913872277 -5.1868095510  2.0649247052
H    6.1872593554 -6.2078433712 -0.0708914445
C   -3.4869093042  3.4112829753  0.3732046893
C   -3.7389059915  4.4593026822 -0.5092051458
C   -4.2508066356  3.3086736598  1.5351586976
C   -4.7274384385  5.3863382133 -0.2335333411
C   -5.2233466150  4.2496467271  1.8191516909
H   -4.9135874853  6.1918360957 -0.9268816885
C   -5.4655359638  5.2892648208  0.9358768776
H   -5.7826458792  4.1771788471  2.7349171291
H   -6.2251538562  6.0240931718  1.1599581218
H    6.3744408269  4.1851389905  1.3015081338
H    4.4377734309  6.3314957577 -1.8460515158
H   -5.0446726622 -6.1175162452  0.5078643269
H   -5.2267149463 -4.5075219718 -3.4420233690
H   -3.1705647176  4.5313483562 -1.4263773881
H   -4.0518573260  2.5031792891  2.2260527962
H    3.4225703654 -3.6997070769 -2.1503940267
H    3.7538131263 -3.4376733104  2.0911791287
H   -3.4050937271 -4.3835456684  1.1393138455
H   -3.6157175843 -2.7574003052 -2.7976728683
H    4.5502379380  2.5369405964  1.2987478077
H    2.6454327336  4.6491025828 -1.8907985448
Cl  -0.0144346887  0.0611753068  2.3802789550
78
aligned d3map frame 109
N   -0.0253016406  2.0690723770 -0.1383459090
N    2.0068256910  0.0078001345 -0.1205709173
C   -2.4370965281  2.4515725850 -0.0298980784
C   -1.1163232820  2.8812384821 -0.0369878379
C   -0.6957410534  4.2559712415 -0.0556804457
H   -1.3541624326  5.1009231048 -0.0003591439
C    0.6534799666  4.2556148606 -0.1729297510
H    1.3231999380  5.0925926503 -0.2248335207
C    1.0679115225  2.8797118677 -0.2249455049
C    2.3797319168  2.4523262238 -0.3617560480
C    2.7936094535  1.1007796637 -0.3749133401
C    4.1168148275  0.6913434581 -0.6451501695
H    4.9307069944  1.3436909531 -0.8969620202
C    4.1373548794 -0.6796668267 -0.5316419211
H    4.9706909268 -1.3335084882 -0.6978191617
C    2.8269324410 -1.0801320288 -0.1866325973
C    3.4333017245  3.4879712470 -0.4764352169
C    4.1373657004  3.8797649196  0.6580542471
C    5.1036488005  4.8666495445  0.5716013552
C    5.3821327616  5.4608661523 -0.6482730373
H    6.1356577592  6.2310348788 -0.7114973746
C    4.6895666676  5.0689007294 -1.7821293188
C    3.7145882030  4.0895881468 -1.6968772710
N    0.0238056375 -2.0529907035 -0.0732345136
N   -2.0081375662  0.0086505182 -0.1405918726
C    2.4399869868 -2.4360347267  0.0216416143
C    1.1140910403 -2.8584801275  0.0831205874
C    0.6800569558 -4.2197343925  0.2542952072
H    1.3250989465 -5.0514031828  0.4614892261
C   -0.6697358740 -4.2239301936  0.1337883627
H   -1.3362754813 -5.0651940257  0.1752327437
C   -1.0784471877 -2.8601654262 -0.0549380504
C   -2.3940707328 -2.4449797637 -0.2198055724
C   -2.8130200525 -1.0921393721 -0.2620607538
C   -4.1664989699 -0.6975676729 -0.3349094043
H   -5.0107518991 -1.3529566350 -0.4160459093
C   -4.1844623061  0.6759186637 -0.2447715291
H   -5.0451430604  1.3145346909 -0.2406780148
C   -2.8407748274  1.0949500291 -0.1374756075
C   -3.4436863698 -3.4689832761 -0.3893509680
C   -3.8155824129 -4.3365812943  0.6312223578
C   -4.7977072555 -5.2891233573  0.4125667200
C   -5.4102942082 -5.3913554021 -0.8247924200
H   -6.1698764026 -6.1406154244 -0.9946019534
C   -5.0477024756 -4.5279750170 -1.8461431138
C   -4.0770068399 -3.5684026757 -1.6279089100
Fe  -0.0021062469  0.0121789949  0.2392066053
C    3.5116184934 -3.4282106073  0.1481597306
C    4.5327554216 -3.2400435919  1.0822134138
C    3.5394638656 -4.5758014616 -0.6438136486
C    5.5267537784 -4.1863523019  1.2376344382
C    4.5346349259 -5.5210667398 -0.4817872144
H    6.3013283235 -4.0359297250  1.9757627390
C    5.5268477130 -5.3344117660  0.4658831107
H    4.5416714296 -6.4066701859 -1.1023267335
H    6.3005832042 -6.0767697592  0.5924940018
C   -3.4950202458  3.4762332657  0.0440977554
C   -3.6306648910  4.2596143015  1.1875188402
C   -4.3662521155  3.6806546090 -1.0242694156
C   -4.6263304744  5.2166025538  1.2657534630
C   -5.3507152336  4.6472528755 -0.9470926885
H   -4.7356327649  5.8075794532  2.1615786711
C   -5.4870849634  5.4152883514  0.1978754633
H   -6.0166706223  4.8035661991 -1.7835907689
H   -6.2611200801  6.1657987103  0.2591451376
H    5.6371479121  5.1751204673  1.4583758125
H    4.9075471063  5.5319524784 -2.7335254497
H   -5.0871145894 -5.9537578063  1.2145451235
H   -5.5215967835 -4.6002604260 -2.8149987603
H   -2.9649720072  4.0994530166  2.0220814410
H   -4.2504734348  3.0878842020 -1.9198063720
H    4.5196936790 -2.3589056936  1.7071008541
H    2.7870050029 -4.7124089988 -1.4074947580
H   -3.3477024301 -4.2497249753  1.6021356860
H   -3.7881761457 -2.8918127321 -2.4191899472
H    3.9123680294  3.4159906383  1.6066709873
H    3.1700534965  3.7862191720 -2.5800579107
Cl  -0.0266831119  0.0277735246  2.3801951864
78
aligned d3map frame 110
N   -0.0057403429  2.0559028776 -0.2008671864
N    2.0133076410  0.0272090651 -0.0794454818
C   -2.4356955238  2.4021431438 -0.3772492131
C   -1.0974044541  2.8434810957 -0.4267852381
C   -0.6786263955  4.1833108675 -0.6411638249
H   -1.3170806952  5.0063229752 -0.8929324154
C    0.6813033765  4.2055769235 -0.4711747049
H    1.3329920996  5.0543905312 -0.5287341762
C    1.0839298308  2.8724079775 -0.2109103107
C    2.4166060445  2.4536985904  0.0050823231
C    2.8253852852  1.1200005053  0.0314567509
C    4.1953335825  0.7045590489  0.0177651224
H    5.0414968579  1.3607698740  0.0819133786
C    4.1976005580 -0.6478453696 -0.1324627363
H    5.0438995458 -1.3052601203 -0.2012573240
C    2.8311909661 -1.0653286081 -0.1851673714
C    3.4529543260  3.4899165634  0.1710257212
C    4.0728719936  3.6369668051  1.4104651937
C    5.0358662471  4.6100860940  1.5999041745
C    5.4053053747  5.4370690504  0.5513075509
H    6.1602336386  6.1951827059  0.7019901899
C    4.8048864961  5.2871113795 -0.6883569586
C    3.8303204671  4.3243296370 -0.8776847298
N   -0.0067229013 -2.0399429067 -0.1382550551
N   -2.0135407443 -0.0228306630 -0.1007534556
C    2.4212448809 -2.3851953201 -0.3625487178
C    1.0856132421 -2.8219300851 -0.3858767240
C    0.6766750659 -4.1642209076 -0.5879318445
H    1.3255213530 -4.9875711497 -0.8143021338
C   -0.6868857420 -4.1883527665 -0.4362428687
H   -1.3419765240 -5.0303890157 -0.5415198797
C   -1.0890321992 -2.8616469031 -0.1348502625
C   -2.4233072122 -2.4455505238  0.1158424756
C   -2.8164551930 -1.1031590052  0.1646873107
C   -4.1486063312 -0.6527031645  0.4137328969
H   -4.9694275027 -1.2663001676  0.7301247936
C   -4.1574436502  0.6941670784  0.2146680708
H   -4.9877536965  1.3628955712  0.3222660818
C   -2.8232415571  1.0789996631 -0.1169524627
C   -3.4393974878 -3.4863070250  0.2816696362
C   -3.2340549640 -4.5391208168  1.1791767924
C   -4.1978546891 -5.5117459365  1.3589236563
C   -5.3864446857 -5.4590992059  0.6468771994
H   -6.1442429084 -6.2152726839  0.7926511065
C   -5.5962456830 -4.4299070927 -0.2584390843
C   -4.6328478569 -3.4571783419 -0.4440693370
Fe  -0.0021062469  0.0121789949  0.2392066053
C    3.4661115727 -3.4280953506 -0.4931464221
C    3.8631713815 -3.8811720829 -1.7454691775
C    4.0425889051 -3.9782774245  0.6467181842
C    4.8222952553 -4.8727554496 -1.8554906557
C    4.9963078926 -4.9734545673  0.5332618109
H    5.1275726150 -5.2187516815 -2.8326760272
C    5.3861281110 -5.4234541674 -0.7170757786
H    5.4349954748 -5.4024322136  1.4219635366
H    6.1286040964 -6.2027973446 -0.8032585080
C   -3.5127923897  3.3815059590 -0.5624156615
C   -4.5095479387  3.1353757747 -1.5102697441
C   -3.5779303654  4.5546039945  0.1869303124
C   -5.5336218611  4.0455060117 -1.7100348703
C   -4.6143124908  5.4541175764 -0.0045166215
H   -6.2953493939  3.8427054573 -2.4480857998
C   -5.5923764553  5.2079111436 -0.9550715305
H   -4.6599776079  6.3518459444  0.5948373043
H   -6.4029276456  5.9087614217 -1.0970303961
H    5.4999951477  4.7218849569  2.5698105079
H    5.0996546184  5.9226697916 -1.5116259867
H   -4.0254530437 -6.3108236852  2.0626227904
H   -6.5117196751 -4.3889658337 -0.8274123009
H   -4.4625345314  2.2340098081 -2.1018400830
H   -2.8356848596  4.7381154177  0.9498195508
H    3.4168038979 -3.4535020906 -2.6320692027
H    3.7313968305 -3.6246139200  1.6187604707
H   -2.3209666154 -4.5675800127  1.7562785623
H   -4.7945539300 -2.6761497461 -1.1745024580
H    3.7766880086  2.9895633331  2.2236763209
H    3.3674396829  4.1971069330 -1.8457890565
Cl  -0.0114835858  0.0609972724  2.3790877618
78
aligned d3map frame 111
N   -0.0195191798  2.0585106244 -0.2022857057
N    2.0082399601  0.0081562668 -0.0739735264
C   -2.4383929963  2.4112377984 -0.4590336668
C   -1.1211641694  2.8511496283 -0.2945107356
C   -0.7469738654  4.2203521255 -0.0556897018
H   -1.4253714321  5.0507944184 -0.0547211253
C    0.5788882905  4.2298656572  0.2200940590
H    1.1935645341  5.0686779525  0.4832350595
C    1.0412916369  2.8742319016  0.0988955736
C    2.3530181957  2.4521521749  0.2340689670
C    2.7918054626  1.1188143879 -0.0379909836
C    4.1157671175  0.7866737459 -0.3887378353
H    4.9323775182  1.4761240391 -0.4720404077
C    4.1303529164 -0.5678821644 -0.6407684058
H    4.9640610189 -1.1520840597 -0.9791521426
C    2.8211740369 -1.0442354979 -0.4001754871
C    3.4066627969  3.3848495642  0.6551325396
C    4.1517937426  3.0679026224  1.7922309473
C    5.1636795894  3.9013525581  2.2252041619
C    5.4736663347  5.0490041487  1.5100325169
H    6.2902219828  5.6831639637  1.8283001747
C    4.7464235322  5.3678772239  0.3748364587
C    3.7117068595  4.5509781365 -0.0442743407
N    0.0229890550 -2.0427252841 -0.1385156221
N   -2.0104805313  0.0024439483 -0.0930663159
C    2.4342518959 -2.4094962811 -0.4061532844
C    1.1191086404 -2.8439008116 -0.2051871848
C    0.7377665690 -4.2035106621  0.0737501980
H    1.4095291502 -5.0397385611  0.1043521113
C   -0.5909680531 -4.1991585025  0.3398930660
H   -1.2212709338 -5.0262324216  0.6042297957
C   -1.0417162323 -2.8428128925  0.1918568020
C   -2.3480812848 -2.4158578749  0.3256948268
C   -2.7992047339 -1.0981541440  0.0298774023
C   -4.1424187633 -0.7602312910 -0.2242234075
H   -4.9673839890 -1.4415678841 -0.2082210099
C   -4.1624318860  0.5836448636 -0.5219241247
H   -5.0096014564  1.1746553374 -0.8023073044
C   -2.8336080635  1.0517185767 -0.3904770568
C   -3.3741525995 -3.3386437020  0.8558436722
C   -3.7356816472 -3.1829740857  2.1923779126
C   -4.6999039878 -3.9968063778  2.7571968469
C   -5.3255529401 -4.9627966513  1.9852602453
H   -6.0867462273 -5.5917906409  2.4225240146
C   -4.9740269287 -5.1182747410  0.6542007197
C   -3.9967166314 -4.3155780110  0.0890595695
Fe  -0.0021062469  0.0121789949  0.2392066053
C    3.4935297301 -3.4170375806 -0.5239800797
C    3.3981967332 -4.4583720922 -1.4477820017
C    4.6222171423 -3.3567294143  0.2989489419
C    4.4014161113 -5.4044431846 -1.5511007729
C    5.6214687703 -4.3036389076  0.1932581414
H    4.3155391598 -6.2024490926 -2.2740645614
C    5.5168647784 -5.3297101158 -0.7329030418
H    6.4858964109 -4.2429660699  0.8381749461
H    6.3016558848 -6.0686055723 -0.8126834534
C   -3.4965553294  3.4219155705 -0.5890270705
C   -3.4398563834  4.3921869007 -1.5890486520
C   -4.5781010341  3.4327676171  0.2943261181
C   -4.4456834532  5.3324595509 -1.7139933460
C   -5.5790921183  4.3749084216  0.1662540231
H   -4.3961048294  6.0730649359 -2.4986589582
C   -5.5202523730  5.3253404872 -0.8401767390
H   -6.4082250988  4.3680213459  0.8581997467
H   -6.3074849136  6.0575948785 -0.9372094091
H    5.7196544080  3.6492883149  3.1174266490
H    4.9961101003  6.2537871844 -0.1931290049
H   -4.9641098195 -3.8718733067  3.7976845358
H   -5.4667485453 -5.8685535654  0.0517226226
H   -2.6113407785  4.3878182007 -2.2827736368
H   -4.6119783798  2.7062764025  1.0888507017
H    2.5412384430 -4.5080249589 -2.1039628201
H    4.6908887045 -2.5721243452  1.0379714930
H   -3.2428711074 -2.4239492600  2.7824946692
H   -3.7259423200 -4.4359436454 -0.9508355054
H    3.9151594782  2.1637126497  2.3375039062
H    3.1594087483  4.7914097215 -0.9411001028
Cl  -0.0303921057  0.0364611121  2.3787491888
78
aligned d3map frame 112
N   -0.0172279915  2.0683556998 -0.1435384389
N    2.0037686405  0.0153912994 -0.1365714095
C   -2.4321151172  2.4381665694 -0.0223010459
C   -1.1160813283  2.8660618771  0.0248304939
C   -0.7009742148  4.2307867449  0.1730001114
H   -1.3668795904  5.0578564952  0.3242370273
C    0.6515556814  4.2442729100  0.0829966879
H    1.3143228734  5.0837631442  0.1745989152
C    1.0709002152  2.8874808733 -0.1325294143
C    2.3870238117  2.4656763198 -0.3218315162
C    2.7756210547  1.1054459523 -0.4313530672
C    4.0524218101  0.6842376374 -0.8665911246
H    4.8369982809  1.3260403037 -1.2157459717
C    4.0639354805 -0.6897050157 -0.7921768463
H    4.8597355735 -1.3536196721 -1.0695815211
C    2.7971754563 -1.0826573917 -0.3080318820
C    3.4405830090  3.4807087417 -0.4162548197
C    4.5720134420  3.4124269796  0.3966197163
C    5.5532400919  4.3826795052  0.3208510787
C    5.4314163760  5.4288984147 -0.5803124416
H    6.1989161419  6.1870691811 -0.6388837610
C    4.3200504573  5.4973720315 -1.4055927025
C    3.3307433222  4.5365085027 -1.3235093746
N    0.0192575369 -2.0519547136 -0.0779847373
N   -2.0047155784  0.0034305787 -0.1556337279
C    2.4312797826 -2.4352201086 -0.0409554332
C    1.1103012382 -2.8547944123  0.1015842320
C    0.6736644624 -4.1981787719  0.3561201609
H    1.3089612488 -5.0152682313  0.6172169195
C   -0.6760661728 -4.2085051166  0.2350521416
H   -1.3458063652 -5.0395365989  0.3353489168
C   -1.0807502763 -2.8571767936 -0.0266882123
C   -2.3880570876 -2.4420703587 -0.2630276232
C   -2.7996385130 -1.0938297313 -0.3559442200
C   -4.1407306168 -0.6877303677 -0.5528340830
H   -4.9717673980 -1.3437943919 -0.7278241827
C   -4.1583236308  0.6833052370 -0.4584488056
H   -5.0042899071  1.3361315435 -0.5476635601
C   -2.8271259583  1.0905558257 -0.2124940225
C   -3.4246630992 -3.4717045961 -0.4773699109
C   -3.8846092825 -4.2873634429  0.5495586483
C   -4.8610025855 -5.2373437435  0.3018838676
C   -5.3824781966 -5.3862467672 -0.9719109503
H   -6.1452333019 -6.1270909459 -1.1611464997
C   -4.9261127488 -4.5806120628 -2.0022580950
C   -3.9570229880 -3.6270003361 -1.7560259550
Fe  -0.0021062469  0.0121789949  0.2392066053
C    3.5171176493 -3.4113987036  0.0644993426
C    4.6308400861 -3.1298554668  0.8637263761
C    3.4808337888 -4.6297969695 -0.6198672737
C    5.6560452395 -4.0452605434  0.9937782740
C    4.5043122619 -5.5476591343 -0.4804300536
H    6.5081764567 -3.8092290087  1.6168988141
C    5.5919633832 -5.2632659029  0.3301986110
H    4.4596131783 -6.4894494194 -1.0106534499
H    6.3911109970 -5.9814449370  0.4386345495
C   -3.5040943912  3.4526357364  0.0992244803
C   -3.8717444284  3.9261554740  1.3540941988
C   -4.1545673987  3.9402839034 -1.0297502004
C   -4.8809539058  4.8657380978  1.4746473685
C   -5.1571839741  4.8851046059 -0.9040541390
H   -5.1655625506  5.2228020238  2.4541773637
C   -5.5267399353  5.3474284226  0.3490685189
H   -5.6542700506  5.2620545094 -1.7857272089
H   -6.3144422195  6.0795181223  0.4471618219
H    6.4161429570  4.3259526942  0.9684357309
H    4.2245690442  6.3027208150 -2.1196120409
H   -5.2175242746 -5.8613663386  1.1080526296
H   -5.3258698368 -4.6934251773 -2.9989918331
H   -3.3701076397  3.5472328475  2.2318801926
H   -3.8662214818  3.5773547274 -2.0057362162
H    4.6693543905 -2.1919895062  1.4001424107
H    2.6580467005 -4.8380937176 -1.2876395471
H   -3.4897168258 -4.1620485051  1.5469678602
H   -3.5902180510 -2.9977096988 -2.5558355098
H    4.6594398728  2.6047016565  1.1086963584
H    2.4748067415  4.5786270854 -1.9814754139
Cl  -0.0159482726  0.0598425891  2.3789583344
78
aligned d3map frame 113
N   -0.0086869863  2.0635418959 -0.1839780930
N    2.0125587875  0.0268028843 -0.0726573706
C   -2.4299255076  2.4296139835 -0.2671167908
C   -1.1166476386  2.8655085083 -0.2139213094
C   -0.7178742743  4.2437778633 -0.1557794447
H   -1.3961800270  5.0754092058 -0.1725492521
C    0.6329207441  4.2595482283 -0.0645970064
H    1.2865366891  5.1072074734  0.0156493715
C    1.0723741451  2.8897669974 -0.0781188236
C    2.3927848794  2.4780294416  0.0522641325
C    2.8199353479  1.1239258706  0.0110336440
C    4.1764861847  0.7321053530 -0.0418020786
H    5.0182763756  1.3972682767 -0.0135211107
C    4.1899035583 -0.6384557321 -0.1602957613
H    5.0455473376 -1.2818611073 -0.2031820555
C    2.8399657865 -1.0576894751 -0.1847235735
C    3.4399135937  3.4913374610  0.2647700756
C    4.1601723146  3.4866992938  1.4596757501
C    5.1502977205  4.4223774177  1.6852112893
C    5.4543219554  5.3646641104  0.7131485262
H    6.2391193947  6.0859990586  0.8881104660
C    4.7481359147  5.3744739789 -0.4773629575
C    3.7414534715  4.4500768379 -0.6983952950
N    0.0031678548 -2.0477278511 -0.1193740395
N   -2.0135871242 -0.0102613324 -0.0928657677
C    2.4295519168 -2.4121193169 -0.2546446437
C    1.1100736005 -2.8466010228 -0.1881158043
C    0.7069200934 -4.2239919406 -0.1634651785
H    1.3724621336 -5.0621369328 -0.2439671485
C   -0.6406491905 -4.2422134284 -0.0173963299
H   -1.2763346056 -5.0994466021  0.0723733502
C   -1.0797261176 -2.8753294482 -0.0185646145
C   -2.4048313572 -2.4601367001  0.0512190573
C   -2.8222763278 -1.1067556285 -0.0966191253
C   -4.1612850136 -0.7221634038 -0.3310149142
H   -4.9962248677 -1.3879165451 -0.4248874570
C   -4.1656846268  0.6501031119 -0.4402291121
H   -5.0036449808  1.2944817539 -0.6239694841
C   -2.8284626845  1.0734653852 -0.2791605329
C   -3.4778924602 -3.4324505892  0.2978301016
C   -4.3168004000 -3.2273338149  1.3953923163
C   -5.3504364380 -4.1026286511  1.6658677242
C   -5.5717057570 -5.1956468893  0.8430269093
H   -6.3843091238 -5.8770403256  1.0507820726
C   -4.7503919599 -5.4041635112 -0.2529151880
C   -3.7116554552 -4.5316872803 -0.5263149996
Fe  -0.0021062469  0.0121789949  0.2392066053
C    3.4932028937 -3.4213743953 -0.4118732090
C    3.7207240112 -4.3922091595  0.5611772222
C    4.2895587729 -3.4148313276 -1.5552337866
C    4.7172662206 -5.3350090794  0.3886181101
C    5.2792348940 -4.3641225796 -1.7292801384
H    4.8910897454 -6.0788061077  1.1529949365
C    5.4950151945 -5.3278627237 -0.7578828836
H    5.8819063132 -4.3548362899 -2.6251415878
H    6.2686234823 -6.0691534702 -0.8925614992
C   -3.5211863789  3.4311357352 -0.1950037998
C   -4.0050646165  3.7965401731  1.0585165437
C   -4.0950792950  3.9834747641 -1.3329420046
C   -5.0445530363  4.7013069802  1.1694206580
C   -5.1417822744  4.8860868300 -1.2189292651
H   -5.4153880358  4.9776409280  2.1461243069
C   -5.6163651439  5.2464433590  0.0297952313
H   -5.5874137407  5.3035753931 -2.1104607790
H   -6.4333096131  5.9503657071  0.1238797414
H    5.6912335633  4.4155764855  2.6204732927
H    4.9824117128  6.1001786925 -1.2431390958
H   -5.9893137217 -3.9279947001  2.5207213719
H   -4.9236969837 -6.2481772261 -0.9052550307
H   -3.5587355493  3.3602006315  1.9409433863
H   -3.7283105814  3.6980073607 -2.3086804441
H    3.1247152161 -4.3863579814  1.4619164797
H    4.1152720947 -2.6666170796 -2.3150899080
H   -4.1391504384 -2.3818308731  2.0432314967
H   -3.0979431013 -4.6790824520 -1.4035946934
H    3.9190325736  2.7525475689  2.2144306299
H    3.2030184725  4.4522980337 -1.6369647650
Cl  -0.0096427920  0.0602913027  2.3745375296
78
aligned d3map frame 114
N   -0.0221823127  2.0637375282 -0.1660169601
N    2.0062470616  0.0097184626 -0.1093831482
C   -2.4259308737  2.4459653200  0.0620094728
C   -1.1074027172  2.8767252184  0.0084351301
C   -0.6695456190  4.2452933869  0.0550562343
H   -1.2964588119  5.0958302261  0.2364223307
C    0.6656036518  4.2413595536 -0.1703313733
H    1.3187538358  5.0871355533 -0.2470962924
C    1.0716537034  2.8668164288 -0.2729533384
C    2.3866842737  2.4364532846 -0.4358317410
C    2.8111395958  1.0911208181 -0.3565078601
C    4.1630324655  0.6795293694 -0.4045054324
H    5.0057407417  1.3189793076 -0.5795057662
C    4.1744705363 -0.6770655374 -0.1709938137
H    5.0234940057 -1.3315070569 -0.1368850932
C    2.8301191205 -1.0701294978  0.0067926887
C    3.4163316731  3.4699598208 -0.6567846292
C    3.7008410265  4.4146967845  0.3263513227
C    4.6253503282  5.4154811943  0.0888784077
C    5.2744533403  5.4912221622 -1.1317790210
H    5.9851841161  6.2835949069 -1.3202376868
C    5.0090018070  4.5450924033 -2.1083596588
C    4.0913212887  3.5377035702 -1.8724115269
N    0.0189903606 -2.0475046621 -0.1016705672
N   -2.0071778045  0.0025745472 -0.1295642841
C    2.4183179531 -2.4193254648  0.1877322539
C    1.1060319265 -2.8533238594  0.0959059413
C    0.6753842037 -4.2234351545  0.1703186757
H    1.3270810876 -5.0600683764  0.3326135106
C   -0.6680371234 -4.2267700022 -0.0066514321
H   -1.3309507178 -5.0709747566 -0.0208963796
C   -1.0748402582 -2.8569573691 -0.1598192831
C   -2.3827773214 -2.4341547239 -0.3629199583
C   -2.7946525634 -1.0824299464 -0.4092365717
C   -4.1241224501 -0.6618612577 -0.6334553300
H   -4.9429373458 -1.3001595094 -0.8960142154
C   -4.1419590725  0.7058153483 -0.4660074488
H   -4.9811814691  1.3653249585 -0.5710172534
C   -2.8275984622  1.0905921894 -0.1376375178
C   -3.4403601125 -3.4607285702 -0.4835383586
C   -3.9021388897 -4.1277055431  0.6461069697
C   -4.9102703026 -5.0694080289  0.5362024428
C   -5.4580730966 -5.3646955725 -0.7008749422
H   -6.2444168827 -6.1009018557 -0.7822734129
C   -4.9949030363 -4.7108044781 -1.8308264272
C   -3.9961854675 -3.7596117843 -1.7233633800
Fe  -0.0021062469  0.0121789949  0.2392066053
C    3.4726522764 -3.4155490386  0.4598078292
C    3.8355756424 -4.3691174510 -0.4873452458
C    4.1036281697 -3.4162587768  1.7019709055
C    4.8108003210 -5.3063521225 -0.1944088803
C    5.0600669572 -4.3697965888  1.9972183376
H    5.0938562750 -6.0335448406 -0.9427406371
C    5.4183302589 -5.3165600873  1.0508406888
H    5.5255923158 -4.3750826293  2.9734113806
H    6.1677678188 -6.0587271549  1.2833450352
C   -3.4933435327  3.4274111515  0.2817720210
C   -3.6284297459  4.5622925137 -0.5185361941
C   -4.3929005746  3.2328714987  1.3317847887
C   -4.6140183706  5.4939663411 -0.2529594009
C   -5.3724747500  4.1697964140  1.5956657346
H   -4.7052283075  6.3698871069 -0.8795439029
C   -5.4806367986  5.3087694528  0.8115003325
H   -6.0541285527  4.0109746730  2.4191484107
H   -6.2436116576  6.0427524938  1.0236427151
H    4.8317302395  6.1432789551  0.8623991153
H    5.5154090648  4.5951104028 -3.0614668053
H   -5.2704307006 -5.5717920494  1.4229023103
H   -5.4130052439 -4.9393535021 -2.8007744629
H   -2.9721949361  4.6884237407 -1.3678060248
H   -4.2946281651  2.3520423594  1.9498739271
H    3.3606631236 -4.3622701515 -1.4580286040
H    3.8206473101 -2.6778596967  2.4383512150
H   -3.4767755327 -3.8947023967  1.6117213189
H   -3.6345451737 -3.2456448843 -2.6027007185
H    3.2005118310  4.3503585475  1.2813714193
H    3.8736200559  2.8067155431 -2.6377255337
Cl  -0.0054401238  0.0290938974  2.3786043006
78
aligned d3map frame 115
N   -0.0204841296  2.0548350092 -0.1873728507
N    2.0116868259  0.0203590085 -0.1048657269
C   -2.4407819053  2.4106188051  0.1149297657
C   -1.1110900787  2.8636615088 -0.0853697258
C   -0.7282774282  4.2103451257 -0.2857245913
H   -1.3864356281  5.0566708130 -0.2751786771
C    0.6278507313  4.2059604207 -0.5117606343
H    1.2618073917  5.0535736342 -0.6804545881
C    1.0497596816  2.8545447489 -0.4452855391
C    2.3958965073  2.4182751784 -0.5296000478
C    2.8185380291  1.1077991286 -0.2974092797
C    4.1923445132  0.6947091572 -0.2470095914
H    5.0374675154  1.3365891750 -0.4002847232
C    4.2035240172 -0.6324704611  0.0343423876
H    5.0534460712 -1.2726432238  0.1683402511
C    2.8371876191 -1.0619700094  0.0738668915
C    3.3874626996  3.4417107877 -0.8990915805
C    4.4505254214  3.7910061374 -0.0695898807
C    5.3539189056  4.7628548711 -0.4607707810
C    5.2135782482  5.3987739491 -1.6829420703
H    5.9209482753  6.1561553664 -1.9859820147
C    4.1564842935  5.0626859153 -2.5131508362
C    3.2487998921  4.0974834133 -2.1233007400
N    0.0009969665 -2.0395977934 -0.1233091808
N   -2.0113044998 -0.0067714090 -0.1278247549
C    2.4318895591 -2.3873544442  0.1456945224
C    1.1073311209 -2.8264836359 -0.1183593076
C    0.7626846363 -4.1460964874 -0.4882780334
H    1.4489748921 -4.9625327828 -0.6006085244
C   -0.5958610134 -4.1501435908 -0.7076253579
H   -1.1963305371 -4.9711885213 -1.0468405053
C   -1.0573497248 -2.8405821817 -0.4306646910
C   -2.4130502960 -2.4306579091 -0.3802418861
C   -2.8172228831 -1.1106187338 -0.1601226025
C   -4.1708464665 -0.7222277867  0.1106730025
H   -5.0009686491 -1.3947146811  0.1966778907
C   -4.1755225241  0.6232571746  0.2812965223
H   -5.0100843967  1.2504841742  0.5255613592
C   -2.8276339633  1.0749392290  0.0988306195
C   -3.4364075023 -3.4742006533 -0.4918104697
C   -3.3617754325 -4.6241454987  0.2974289091
C   -4.3163284090 -5.6164400744  0.1898234163
C   -5.3663851507 -5.4816396411 -0.7048927228
H   -6.1122157511 -6.2589366868 -0.7880672075
C   -5.4548100674 -4.3431322350 -1.4895722639
C   -4.5009041753 -3.3486790852 -1.3863755083
Fe  -0.0021062469  0.0121789949  0.2392066053
C    3.3756574991 -3.4673219672  0.4842139524
C    4.4316701263 -3.8545496089 -0.3335750305
C    3.1387255695 -4.1716580095  1.6646124954
C    5.2255596285 -4.9327553608  0.0197431727
C    3.9441823690 -5.2349152431  2.0220640447
H    6.0296445403 -5.2426453149 -0.6316398582
C    4.9858122669 -5.6247724520  1.1949506009
H    3.7531828613 -5.7656625387  2.9430143460
H    5.6025062849 -6.4702639300  1.4627397535
C   -3.4809429387  3.4382047428  0.2780889116
C   -4.5404169258  3.5242623632 -0.6229570468
C   -3.4189332243  4.3464985442  1.3334196030
C   -5.5145344252  4.4917044494 -0.4696898464
C   -4.4032110372  5.3029481729  1.4910854189
H   -6.3258421710  4.5518187526 -1.1808893001
C   -5.4526036664  5.3804910143  0.5905910212
H   -4.3531785845  5.9920083815  2.3212735664
H   -6.2208948456  6.1307334965  0.7158436726
H    6.1704584837  5.0296924197  0.1942977781
H    4.0378929775  5.5559278059 -3.4669131916
H   -4.2420639884 -6.4990687586  0.8083065410
H   -6.2710411151 -4.2318880398 -2.1890751971
H   -4.5806666913  2.8392390960 -1.4572344482
H   -2.6054872908  4.2788700405  2.0400189637
H    4.6068337036 -3.3315353878 -1.2627745331
H    2.3199029316 -3.8667235369  2.2999303901
H   -2.5598828738 -4.7188646933  1.0145390595
H   -4.5592738567 -2.4748506421 -2.0192503234
H    4.5484194793  3.3175794011  0.8962523243
H    2.4280783555  3.8287935436 -2.7722572680
Cl  -0.0112482437  0.0281776144  2.3787095601
78
aligned d3map frame 116
N   -0.0136574859  2.0440786951 -0.2441297520
N    2.0122544726  0.0115445224 -0.0839629346
C   -2.4570147016  2.4011782363 -0.2868839753
C   -1.1106081308  2.7857397506 -0.5552106152
C   -0.7102651202  4.0062347331 -1.1456708792
H   -1.3677616202  4.7583030660 -1.5357372364
C    0.6668898821  4.0134481795 -1.1464050339
H    1.3144555785  4.7705198734 -1.5435169884
C    1.0819523656  2.7987716007 -0.5534320687
C    2.4191987611  2.4276176539 -0.2567074640
C    2.7928667224  1.1232298585  0.0809045384
C    4.0812976706  0.7305428595  0.5699629062
H    4.8610721160  1.4039025297  0.8698050076
C    4.0904275187 -0.6269361490  0.6236830026
H    4.8781748239 -1.2629819872  0.9772173282
C    2.8086326790 -1.0763986976  0.1637629721
C    3.4548840915  3.4568371452 -0.3411649787
C    3.2612184641  4.7229100072  0.2180554261
C    4.2378965330  5.6942476066  0.1178649387
C    5.4278902124  5.4260231353 -0.5402858027
H    6.1887546034  6.1880495371 -0.6196741785
C    5.6342018155  4.1741626821 -1.0981226918
C    4.6593493394  3.2006553453 -1.0030337696
N    0.0224639936 -2.0308510960 -0.1810087771
N   -2.0136813756 -0.0004711193 -0.1018731532
C    2.4527108982 -2.4050366108 -0.0704980683
C    1.1196623784 -2.8104526588 -0.3698064176
C    0.7227022824 -4.0912484057 -0.8250906108
H    1.3799296261 -4.8879413722 -1.1112178413
C   -0.6529200101 -4.0970933371 -0.8435113356
H   -1.3023340832 -4.9034567331 -1.1228054841
C   -1.0698770129 -2.8120443772 -0.4284379323
C   -2.4027402819 -2.4176697799 -0.1755051267
C   -2.8018882683 -1.1098654731  0.0636422110
C   -4.1431791408 -0.7017801249  0.3631260808
H   -4.9546234708 -1.3725639374  0.5698243282
C   -4.1599873023  0.6547935288  0.3389097073
H   -4.9874079405  1.3033328676  0.5504904919
C   -2.8335219924  1.0886526259 -0.0032469899
C   -3.4330425077 -3.4797494282 -0.1787790154
C   -3.8831403196 -4.0248269536  1.0181449545
C   -4.8343570385 -5.0296484971  1.0117089295
C   -5.3484594258 -5.4940519860 -0.1868074315
H   -6.0912514416 -6.2780433166 -0.1898985636
C   -4.9071964364 -4.9511579072 -1.3820434306
C   -3.9514963603 -3.9512168635 -1.3800472872
Fe  -0.0021062469  0.0121789949  0.2392066053
C    3.4870226011 -3.4377845406 -0.0258317891
C    3.2658718634 -4.6465926672  0.6410830645
C    4.7157867765 -3.2488919343 -0.6662205860
C    4.2346841315 -5.6302573888  0.6587319001
C    5.6860544047 -4.2311061568 -0.6359899318
H    4.0442637158 -6.5610439722  1.1739524598
C    5.4491607474 -5.4279374890  0.0216319906
H    6.6312122183 -4.0660232228 -1.1341282312
H    6.2056117737 -6.1983021017  0.0365082847
C   -3.4801062398  3.4451038123 -0.3539587464
C   -3.2915086889  4.6637184428  0.3033487104
C   -4.6558913905  3.2592740040 -1.0856593603
C   -4.2523854803  5.6537156387  0.2427459880
C   -5.6127090587  4.2536563090 -1.1463586196
H   -4.0947115005  6.5856690823  0.7639540411
C   -5.4176927127  5.4536419590 -0.4807291512
H   -6.5135573722  4.0945986752 -1.7215171331
H   -6.1679920759  6.2281879655 -0.5292291073
H    4.0721343164  6.6676123398  0.5569926992
H    6.5579279739  3.9584123060 -1.6152290841
H   -5.1749999236 -5.4513305694  1.9463947633
H   -5.3070030054 -5.3086343163 -2.3199175630
H   -2.3931294234  4.8139556243  0.8837410341
H   -4.7968015945  2.3387195112 -1.6337864597
H    2.3348767993 -4.7940841160  1.1676358730
H    4.8899035040 -2.3346870109 -1.2154624584
H   -3.4773825905 -3.6597831674  1.9503805264
H   -3.6037116614 -3.5240294674 -2.3093755639
H    2.3466044205  4.9260731333  0.7546940621
H    4.8113782568  2.2381798376 -1.4693265046
Cl  -0.0155902839  0.0321609269  2.3790718705
78
aligned d3map frame 117
N   -0.0103705886  2.0573940874 -0.1927220948
N    2.0023805558  0.0250649082 -0.1145548490
C   -2.4090461286  2.3785924264 -0.5572467795
C   -1.1197222119  2.8390827083 -0.3150948903
C   -0.7566922754  4.2155158944 -0.1198726075
H   -1.4384111617  5.0420996269 -0.1760066635
C    0.5671467438  4.2404558618  0.1705376508
H    1.1727892013  5.0914779754  0.4129437367
C    1.0418635332  2.8844441877  0.0895480467
C    2.3587614806  2.4648681895  0.2097410893
C    2.7892726476  1.1302653046 -0.0738883114
C    4.1061536652  0.7989113705 -0.4608931789
H    4.9253988534  1.4876877578 -0.5380912211
C    4.1086463721 -0.5488326513 -0.7466161897
H    4.9282677593 -1.1340697482 -1.1136221361
C    2.8016387338 -1.0253805963 -0.4881485467
C    3.3979100826  3.4177008556  0.6209719362
C    4.1319822309  3.1372263202  1.7753489182
C    5.0764523535  4.0313364817  2.2400175577
C    5.3234162356  5.2060238604  1.5468245615
H    6.0618371143  5.9056333499  1.9099521840
C    4.6230432187  5.4772267298  0.3831710908
C    3.6620572972  4.5940024555 -0.0758085569
N   -0.0089320376 -2.0418765505 -0.1302049798
N   -2.0015204519 -0.0224629373 -0.1370268211
C    2.4003793645 -2.3822013702 -0.4933667623
C    1.1053404503 -2.8168460001 -0.1840258825
C    0.7782208705 -4.1529311989  0.2296054514
H    1.4813980391 -4.9588220457  0.3140917564
C   -0.5384145591 -4.1573912102  0.5574004929
H   -1.1052153155 -4.9679096530  0.9706884875
C   -1.0458465225 -2.8423192703  0.2771983687
C   -2.3726511262 -2.4345004291  0.3287074882
C   -2.7947772432 -1.1216283090 -0.0695324359
C   -4.1058789306 -0.7960198896 -0.4775859012
H   -4.9250340004 -1.4835169942 -0.5570429047
C   -4.1078377614  0.5499409776 -0.7726778796
H   -4.9336452678  1.1448179608 -1.1101922998
C   -2.7960783512  1.0204937954 -0.5372574034
C   -3.4327633089 -3.3409184156  0.7677925330
C   -4.3648988638 -2.8752905699  1.7023811052
C   -5.3825779100 -3.6904083598  2.1527545309
C   -5.5006344887 -4.9864451325  1.6734991788
H   -6.3005917523 -5.6223540105  2.0218413581
C   -4.5919617157 -5.4557913891  0.7391817345
C   -3.5675514052 -4.6442067958  0.2872603330
Fe  -0.0021062469  0.0121789949  0.2392066053
C    3.4047631565 -3.4159580971 -0.7693511061
C    4.6130204547 -3.4766361772 -0.0757436983
C    3.1456869433 -4.3765984709 -1.7488837717
C    5.5371409287 -4.4637465271 -0.3624907313
C    4.0755637580 -5.3569235788 -2.0384165482
H    6.4650741386 -4.5055410501  0.1855116350
C    5.2746293477 -5.4033629356 -1.3466819205
H    3.8600833743 -6.0880181771 -2.8059634960
H    5.9992910614 -6.1724911022 -1.5695434860
C   -3.4893759938  3.3726979729 -0.7454733923
C   -4.0207185018  4.0329982887  0.3577321348
C   -4.0030097292  3.6394795292 -2.0094484303
C   -5.0526646841  4.9401921012  0.1983941361
C   -5.0300417800  4.5535186616 -2.1664668851
H   -5.4643917840  5.4408720576  1.0626193375
C   -5.5591497093  5.2026030868 -1.0635316087
H   -5.4203298059  4.7571827468 -3.1528162713
H   -6.3655483905  5.9107350305 -1.1861855945
H    5.6192737908  3.8149503056  3.1484613980
H    4.8247050796  6.3833605867 -0.1706546349
H   -6.0873769381 -3.3146364498  2.8807515038
H   -4.6888166353 -6.4610541316  0.3544195641
H   -3.6256900811  3.8206883662  1.3404502806
H   -3.5905544421  3.1284445591 -2.8674674584
H    4.8069283438 -2.7613115263  0.7089670050
H    2.2139821827 -4.3341293866 -2.2960131065
H   -4.2639650817 -1.8704467900  2.0876191827
H   -2.8912552978 -5.0058972651 -0.4728656650
H    3.9291515655  2.2249207508  2.3162332086
H    3.1303094199  4.8011501263 -0.9938919726
Cl   0.0064968178  0.0565116171  2.3786449633
78
aligned d3map frame 118
N   -0.0040942558  2.0593461901 -0.1799944023
N    2.0069447218  0.0078001290 -0.1029753510
C   -2.4123168364  2.4314305119  0.0644919699
C   -1.0934688339  2.8676134927 -0.0122752373
C   -0.6642113632  4.2376812509 -0.0005228624
H   -1.3015540651  5.0851667310  0.1592218075
C    0.6750241177  4.2371122718 -0.2209339511
H    1.3275215238  5.0837512851 -0.3060062193
C    1.0873195059  2.8647584761 -0.3038285646
C    2.4004691585  2.4257140320 -0.4805941756
C    2.8149962968  1.0746120594 -0.3857523345
C    4.1666225925  0.6505077793 -0.4129649773
H    5.0130529022  1.2799482362 -0.6102185478
C    4.1721785806 -0.6910334586 -0.1113091196
H    5.0207631433 -1.3417574984 -0.0324329413
C    2.8248201913 -1.0709582541  0.0690390425
C    3.4621170987  3.4266034488 -0.6945519491
C    3.7656858400  4.3642048035  0.2905644894
C    4.7876807077  5.2757468128  0.0998468836
C    5.5150171696  5.2739678147 -1.0794180193
H    6.3140199827  5.9862375224 -1.2262986209
C    5.2154357532  4.3512473010 -2.0672689122
C    4.2005912991  3.4307232159 -1.8757799450
N    0.0209282895 -2.0428847291 -0.1188792650
N   -2.0087576044 -0.0157126565 -0.1191111972
C    2.3912915008 -2.3921931589  0.3569950210
C    1.0862388018 -2.8315177175  0.2179338458
C    0.6608093181 -4.2004191028  0.2806460187
H    1.2956418122 -5.0273463476  0.5312562170
C   -0.6527460493 -4.2209456365 -0.0579168838
H   -1.3087117545 -5.0679101756 -0.1150833913
C   -1.0504929069 -2.8583863395 -0.2808484963
C   -2.3663487036 -2.4404989858 -0.5068824919
C   -2.8003623006 -1.0957756219 -0.4077460076
C   -4.1377313475 -0.6681470078 -0.5800642870
H   -4.9678723441 -1.2918689345 -0.8490852375
C   -4.1566573307  0.6900215482 -0.3605825439
H   -5.0014604137  1.3475765281 -0.4129677825
C   -2.8257355692  1.0772308241 -0.0841719484
C   -3.3406047622 -3.4858855858 -0.8520367916
C   -4.4851049021 -3.7256895903 -0.0925342327
C   -5.3670543340 -4.7287709907 -0.4539934565
C   -5.1284974134 -5.5003067595 -1.5797123366
H   -5.8243871930 -6.2773498229 -1.8660832349
C   -3.9911120977 -5.2725656934 -2.3388019625
C   -3.1010418977 -4.2806889971 -1.9747786923
Fe  -0.0021062469  0.0121789949  0.2392066053
C    3.4002232899 -3.3661604171  0.8249088777
C    3.4471310495 -3.6623008782  2.1836288580
C    4.2861136710 -3.9966068650 -0.0422290787
C    4.3709840251 -4.5707117548  2.6684024512
C    5.2004676790 -4.9133405127  0.4447253259
H    4.4048407041 -4.7873913952  3.7266024392
C    5.2462661056 -5.2005395129  1.7996458337
H    5.8795576189 -5.4079161875 -0.2353877905
H    5.9625250791 -5.9157085281  2.1772424005
C   -3.4810969175  3.4335109353  0.1988672063
C   -4.3846612677  3.3627260681  1.2590497804
C   -3.6192450504  4.4560334095 -0.7393021886
C   -5.3882699545  4.3046242124  1.3847435159
C   -4.6317148963  5.3886099714 -0.6146748088
H   -6.0780046075  4.2471015327  2.2156958101
C   -5.5167421312  5.3184309328  0.4495867317
H   -4.7356620726  6.1715568554 -1.3535615297
H   -6.3072300185  6.0491418891  0.5453108037
H    5.0210130204  5.9887597492  0.8776682149
H    5.7743074368  4.3453372339 -2.9925174635
H   -6.2450035679 -4.9140485688  0.1482017623
H   -3.7979439287 -5.8711741430 -3.2175406365
H   -4.2773439134  2.5746333178  1.9899399257
H   -2.9435493608  4.4953403045 -1.5816542023
H    2.7611143647 -3.1668409978  2.8549896568
H    4.2430196825 -3.7727978850 -1.0988934861
H   -4.6614181917 -3.1417751740  0.7981627929
H   -2.2175554228 -4.0954791404 -2.5698154627
H    3.2130290217  4.3531688254  1.2187418887
H    3.9671812596  2.7105502013 -2.6479233331
Cl  -0.0281066654  0.0200530646  2.3775528476
78
aligned d3map frame 119
N    0.0080332027  2.0539377014 -0.1924157669
N    2.0044056383  0.0268748915 -0.1227187985
C   -2.4040982075  2.3810879329 -0.5398072369
C   -1.0659250198  2.8344711480 -0.5012858828
C   -0.6361037252  4.1742905400 -0.6827474523
H   -1.2501033402  5.0001605893 -0.9810710232
C    0.7092806923  4.1997019519 -0.4087110040
H    1.3538363753  5.0548675165 -0.4108097732
C    1.0932192810  2.8677402677 -0.1261785124
C    2.4213911191  2.4340871066  0.1370472546
C    2.8230011478  1.1062751435  0.0993277826
C    4.1896927068  0.6741113467  0.0944934407
H    5.0343311261  1.3151196053  0.2557545414
C    4.1848795248 -0.6540481154 -0.1854844902
H    5.0257032327 -1.3158476130 -0.2732484266
C    2.8133861655 -1.0536053330 -0.3187077616
C    3.4320082425  3.4831713977  0.3741016320
C    3.9873572817  3.6371371678  1.6410580014
C    4.8845889370  4.6597023146  1.8906861912
C    5.2486629097  5.5307344797  0.8770375715
H    5.9404392813  6.3360430053  1.0750423091
C    4.7198290320  5.3673252018 -0.3931196187
C    3.8154139294  4.3516297131 -0.6439762224
N    0.0037156037 -2.0375056392 -0.1301849628
N   -2.0068622107 -0.0264307397 -0.1395097021
C    2.4013049684 -2.3670788027 -0.5668112031
C    1.0647386150 -2.8143706365 -0.4967065579
C    0.6173982727 -4.1382409983 -0.7292864124
H    1.2245536019 -4.9532902276 -1.0720329165
C   -0.7298578962 -4.1579629655 -0.4457376312
H   -1.4027376082 -4.9896911963 -0.5206259476
C   -1.0860323320 -2.8424431263 -0.0708068025
C   -2.4086298233 -2.4131281642  0.2607314695
C   -2.8180882994 -1.0860074773  0.1946439100
C   -4.1603468555 -0.6124450061  0.3620854412
H   -4.9899347961 -1.2064192388  0.6911982927
C   -4.1617282966  0.7072161583  0.0379258562
H   -4.9902094830  1.3876545373  0.0438605242
C   -2.8084009494  1.0696956970 -0.2609893647
C   -3.3401622964 -3.4719450157  0.6661077995
C   -2.9497207179 -4.3270393664  1.7007761571
C   -3.7909287064 -5.3282429626  2.1430977320
C   -5.0312443670 -5.5061251169  1.5491205947
H   -5.6913843716 -6.2905973867  1.8904418919
C   -5.4201194778 -4.6789479667  0.5074140342
C   -4.5854822118 -3.6672233697  0.0678927141
Fe  -0.0021062469  0.0121789949  0.2392066053
C    3.4378189775 -3.3582906399 -0.9030152627
C    3.6572413565 -4.4771405158 -0.1030921091
C    4.2093379086 -3.1887007282 -2.0523259084
C    4.6319461943 -5.3977106434 -0.4426832905
C    5.1690022724 -4.1214708049 -2.3972199386
H    4.8003385741 -6.2541999842  0.1938602249
C    5.3858740633 -5.2274478353 -1.5916866172
H    5.7475648191 -3.9840917204 -3.3001718339
H    6.1417226880 -5.9525547281 -1.8563934891
C   -3.4326371445  3.3792753857 -0.8637527996
C   -3.5478185735  4.5670676031 -0.1408871822
C   -4.2694617862  3.1772359226 -1.9602390511
C   -4.4408732791  5.5469994238 -0.5350016509
C   -5.1594359041  4.1618024059 -2.3531840108
H   -4.5088867897  6.4665638526  0.0286413497
C   -5.2384870505  5.3549036878 -1.6518804020
H   -5.7883326707  4.0025770995 -3.2175429218
H   -5.9180417599  6.1330217670 -1.9730086801
H    5.2988347996  4.7847571318  2.8813436580
H    5.0060803030  6.0415286602 -1.1885030452
H   -3.4865872690 -5.9748264161  2.9541006779
H   -6.3819171549 -4.8302846328  0.0350629209
H   -2.9368706722  4.7092974355  0.7381318017
H   -4.1900685362  2.2574405488 -2.5227757880
H    3.0760290578 -4.6075418678  0.7982720283
H    4.0326756965 -2.3277621836 -2.6798741164
H   -1.9843616783 -4.1777423629  2.1643386808
H   -4.8803215914 -3.0465759938 -0.7662602592
H    3.6901462036  2.9652472231  2.4320968602
H    3.4056816019  4.2201669264 -1.6353206611
Cl  -0.0304846341  0.0382712318  2.3811524411
78
aligned d3map frame 120
N   -0.0149262107  2.0713797432 -0.1520686306
N    2.0125606326  0.0175200224 -0.0751552612
C   -2.4398049234  2.4278072247 -0.0774536246
C   -1.1221838413  2.8627680325 -0.0117495574
C   -0.7181191800  4.2108237085  0.2766185718
H   -1.3837833093  5.0302593842  0.4630099144
C    0.6355635522  4.2219294301  0.3027807640
H    1.2795591421  5.0519351863  0.5166362754
C    1.0723653795  2.8801532020  0.0329139037
C    2.3993749877  2.4673326108  0.0225288561
C    2.8157395558  1.1185907419 -0.1436035422
C    4.1546756752  0.7278259028 -0.3612500820
H    4.9876201856  1.3894129741 -0.4984879172
C    4.1690654081 -0.6481213368 -0.3772091864
H    5.0188540854 -1.2896277857 -0.4995529219
C    2.8340746934 -1.0698320202 -0.1895138830
C    3.4548607664  3.4532691303  0.2904521856
C    4.3272307735  3.2337213530  1.3584284604
C    5.3028778370  4.1592047990  1.6722435730
C    5.4367193953  5.3127264932  0.9159334731
H    6.1995618175  6.0370621701  1.1603256833
C    4.5878490581  5.5321837969 -0.1568103373
C    3.6009780329  4.6142008738 -0.4670623264
N    0.0005767243 -2.0534918131 -0.0891873884
N   -2.0119692720 -0.0159581695 -0.0969004328
C    2.4289273884 -2.4195108150 -0.0418671599
C    1.1101604390 -2.8449817663  0.0131426361
C    0.7124692169 -4.2161533801  0.1700033758
H    1.3888333790 -5.0450401832  0.2470267177
C   -0.6413795853 -4.2346876898  0.1949747138
H   -1.2857157217 -5.0812997779  0.3245379263
C   -1.0833084600 -2.8785132432  0.0208598278
C   -2.4106094508 -2.4662553985 -0.0147683122
C   -2.8106811060 -1.1155903718 -0.2148597499
C   -4.1272292867 -0.7247889050 -0.5365827504
H   -4.9468298793 -1.3881398791 -0.7324502993
C   -4.1340104804  0.6529882897 -0.5676090734
H   -4.9578379811  1.3005128948 -0.7959740109
C   -2.8219419266  1.0704900071 -0.2619259634
C   -3.4861810276 -3.4238340986  0.2706559580
C   -4.3555652833 -3.1343427780  1.3254948467
C   -5.3513617457 -4.0212678419  1.6824497510
C   -5.5083970311 -5.2078995084  0.9840444468
H   -6.2850095848 -5.9030935332  1.2663588894
C   -4.6690922349 -5.4934327315 -0.0806743183
C   -3.6645103430 -4.6114370215 -0.4367468199
Fe  -0.0021062469  0.0121789949  0.2392066053
C    3.4938889584 -3.4194820295  0.1794009641
C    4.3826659776 -3.7947441782 -0.8223481739
C    3.6272791934 -3.9773955174  1.4486612469
C    5.3909350799 -4.7036514844 -0.5534722303
C    4.6404208707 -4.8795152469  1.7150118376
H    6.0767598049 -4.9913622851 -1.3373957370
C    5.5271708488 -5.2426208563  0.7150167683
H    4.7392203080 -5.2960226019  2.7067598689
H    6.3215898493 -5.9438335457  0.9237746609
C   -3.5318742506  3.3747488874  0.1787283493
C   -4.4336942526  3.0831422929  1.2049838766
C   -3.6955259277  4.5566323599 -0.5415924965
C   -5.4569845699  3.9568552397  1.5133204555
C   -4.7293505747  5.4235407358 -0.2366909030
H   -6.1363932219  3.7208890018  2.3194434073
C   -5.6088132533  5.1312006705  0.7933242382
H   -4.8516659528  6.3335085824 -0.8061259304
H   -6.4103838392  5.8138880869  1.0334097119
H    5.9588547135  3.9811268875  2.5118498851
H    4.6970708852  6.4257485371 -0.7545139461
H   -6.0050832281 -3.7877482178  2.5103411054
H   -4.8008476951 -6.4092530328 -0.6369068460
H   -4.3032751660  2.1742347325  1.7734259316
H   -3.0244397890  4.7786904146 -1.3587262955
H    4.2718403226 -3.3802138643 -1.8136973622
H    2.9386869266 -3.6831595380  2.2274758136
H   -4.2194596309 -2.2170102925  1.8774792000
H   -3.0307282523 -4.8268696023 -1.2847811045
H    4.2106098709  2.3407695223  1.9546626748
H    2.9522898678  4.7803378208 -1.3153469014
Cl  -0.0224860396  0.0659181914  2.3792998173
78
aligned d3map frame 121
N   -0.0239495753  2.0571425376 -0.2074771607
N    2.0163130522  0.0046907142 -0.0562759853
C   -2.4535227360  2.4303782397 -0.2608179783
C   -1.1228296769  2.8447083537 -0.3877720412
C   -0.7112462113  4.1579766771 -0.7825697044
H   -1.3684428905  4.9651127507 -1.0384327479
C    0.6473619753  4.1580338001 -0.8048311865
H    1.2974384373  4.9657387062 -1.0778911252
C    1.0716829009  2.8436872890 -0.4285726563
C    2.4038957118  2.4342375485 -0.3487630601
C    2.8258256690  1.1047934687 -0.1202367386
C    4.1827405026  0.7133662264  0.0099622190
H    5.0216854231  1.3784248573  0.0417446700
C    4.1929858207 -0.6546295687  0.1123947976
H    5.0479896061 -1.2955044393  0.1997659224
C    2.8420479980 -1.0801041638  0.0575501869
C    3.4384992279  3.4476928563 -0.6100299315
C    3.5181894559  4.6127836851  0.1531333710
C    4.4519260458  5.5857784297 -0.1485873711
C    5.3089646140  5.4195487870 -1.2254593029
H    6.0234150457  6.1909554092 -1.4720983027
C    5.2460053235  4.2599132495 -1.9806621724
C    4.3268308329  3.2767269470 -1.6716626983
N    0.0175344646 -2.0427318540 -0.1452885039
N   -2.0176618351 -0.0021346795 -0.0772384654
C    2.4380638980 -2.4319014673 -0.0067728736
C    1.1136005548 -2.8555546481 -0.1355700053
C    0.6997723710 -4.2240376106 -0.2252621187
H    1.3601418980 -5.0691023152 -0.2161744125
C   -0.6569673237 -4.2250231489 -0.2973491299
H   -1.3175958653 -5.0682742653 -0.3613851564
C   -1.0758380663 -2.8562985863 -0.2310798393
C   -2.4035654896 -2.4446198447 -0.1580257831
C   -2.8253412419 -1.1060280310 -0.0054436913
C   -4.1770063294 -0.7070479700  0.1317070846
H   -5.0179436689 -1.3661637009  0.2177362719
C   -4.1875810384  0.6647547657  0.1267226853
H   -5.0350704605  1.3105438879  0.2466370885
C   -2.8448989934  1.0859424164 -0.0476015308
C   -3.4632960901 -3.4573518084 -0.3448201163
C   -4.3072966995 -3.8481436631  0.6889039765
C   -5.3318553971 -4.7458023868  0.4487487856
C   -5.5332637740 -5.2532565395 -0.8247109280
H   -6.3463766007 -5.9386142774 -1.0133855892
C   -4.6894870837 -4.8785877391 -1.8550467483
C   -3.6556299797 -3.9930196219 -1.6152034853
Fe  -0.0021062469  0.0121789949  0.2392066053
C    3.4944924927 -3.4620908674 -0.0057381318
C    4.2927567075 -3.6723833017  1.1151683796
C    3.7076731400 -4.2406234789 -1.1421631431
C    5.2785070412 -4.6432622988  1.0989285762
C    4.7041878187 -5.1989861989 -1.1594103572
H    5.8853917787 -4.8028457122  1.9787803090
C    5.4908228555 -5.4054231133 -0.0390324971
H    4.8693192864 -5.7873206652 -2.0518719456
H    6.2688828396 -6.1489253231 -0.0550328139
C   -3.5145475731  3.4265500611 -0.4544068823
C   -3.5264571849  4.6240481670  0.2631337533
C   -4.5298467593  3.1989019943 -1.3868855616
C   -4.5238091537  5.5577247936  0.0576238742
C   -5.5275076697  4.1323833587 -1.5850941485
H   -4.5201893650  6.4794644979  0.6220044685
C   -5.5310651209  5.3145733176 -0.8632665737
H   -6.3044761174  3.9388078666 -2.3110418189
H   -6.3110348356  6.0438381987 -1.0196348179
H    4.5062841622  6.4835329937  0.4492345413
H    5.9098820216  4.1235674971 -2.8209498643
H   -5.9831803840 -5.0443097026  1.2552339000
H   -4.8413890201 -5.2675660645 -2.8499895898
H   -2.7613867617  4.8011499864  1.0024714738
H   -4.5127965964  2.2904064961 -1.9721126147
H    4.1256308156 -3.0822182990  2.0055235951
H    3.0958834194 -4.0743578358 -2.0176952948
H   -4.1524299624 -3.4497365576  1.6809325203
H   -3.0030950311 -3.6861445320 -2.4198250237
H    2.8491023850  4.7376811190  0.9942748000
H    4.2693228333  2.3794899775 -2.2710935372
Cl  -0.0178190331  0.0428035465  2.3785181718
78
aligned d3map frame 122
N   -0.0141722755  2.0534150737 -0.2145681231
N    2.0155860446  0.0199805708 -0.0577733953
C   -2.4472876453  2.4065617894 -0.3195882978
C   -1.1086968813  2.8395773152 -0.4289813410
C   -0.6924950052  4.1698354275 -0.7026335769
H   -1.3333944356  4.9864962891 -0.9683197805
C    0.6720988389  4.1920214300 -0.5779301278
H    1.3241768633  5.0374721200 -0.6763173541
C    1.0805232560  2.8658914547 -0.2844874043
C    2.4148718806  2.4525412103 -0.0871911896
C    2.8260461684  1.1207069140 -0.0006419116
C    4.1948340419  0.7065549363  0.0058242125
H    5.0381593878  1.3682011960  0.0216343607
C    4.1990665214 -0.6523293005 -0.0577673359
H    5.0508717037 -1.3023087349 -0.0990578781
C    2.8336380173 -1.0750850149 -0.0924207172
C    3.4570330461  3.4874118724  0.0411801873
C    4.1310842262  3.6113437943  1.2562956905
C    5.1075824653  4.5751638209  1.4242856717
C    5.4377579788  5.4200316337  0.3761611112
H    6.2006814064  6.1723859460  0.5048432979
C    4.7814517888  5.2969109106 -0.8377740778
C    3.7950151713  4.3405038801 -1.0059128971
N   -0.0020018937 -2.0389472879 -0.1524678607
N   -2.0166274193 -0.0166604270 -0.0801584694
C    2.4291597012 -2.4028396611 -0.2453364097
C    1.0895894099 -2.8295106408 -0.3564992148
C    0.6744926491 -4.1642124272 -0.5982091953
H    1.3204909654 -4.9960332308 -0.7980592784
C   -0.6943904254 -4.1734570894 -0.5204509923
H   -1.3533955485 -5.0043134611 -0.6843489531
C   -1.0962614192 -2.8512560762 -0.2046075187
C   -2.4252598224 -2.4406982682  0.0639920876
C   -2.8102624263 -1.1022682681  0.1976960495
C   -4.1196244023 -0.6533071883  0.5516747911
H   -4.9216190034 -1.2734737947  0.9021966717
C   -4.1310089874  0.6998940886  0.3986859337
H   -4.9433685177  1.3718532072  0.5957337866
C   -2.8211389592  1.0858238903 -0.0200078929
C   -3.4570562567 -3.4749249870  0.1790221184
C   -3.2627566198 -4.5937265870  0.9945750612
C   -4.2450711180 -5.5585577646  1.1075194433
C   -5.4398828633 -5.4283213047  0.4138471970
H   -6.2088334069 -6.1806329947  0.5093026620
C   -5.6417651259 -4.3268963112 -0.4048189651
C   -4.6603001998 -3.3627694592 -0.5255336422
Fe  -0.0021062469  0.0121789949  0.2392066053
C    3.4736144615 -3.4452609584 -0.2270837038
C    3.7441839218 -4.2287191322 -1.3455805565
C    4.1899770122 -3.6685260605  0.9464061406
C    4.7074319122 -5.2194642349 -1.2858375860
C    5.1420404003 -4.6689780855  1.0061268501
H    4.9164239676 -5.8192327449 -2.1592358947
C    5.4026222085 -5.4477781757 -0.1093316691
H    5.6792030868 -4.8441309947  1.9259800912
H    6.1431700891 -6.2309323595 -0.0645205703
C   -3.5349775362  3.3704673082 -0.5127093857
C   -4.5817725861  3.0510738015 -1.3849722734
C   -3.5744620182  4.5980329989  0.1470956630
C   -5.6210772889  3.9344643635 -1.5983479928
C   -4.6180594505  5.4793877764 -0.0678980369
H   -6.4170897931  3.6709546912 -2.2796123027
C   -5.6426044923  5.1547790739 -0.9425652101
H   -4.6349132650  6.4249472352  0.4532138967
H   -6.4547982518  5.8462238905 -1.1087094698
H    5.6129318626  4.6661851998  2.3745299792
H    5.0420943931  5.9490218261 -1.6590627510
H   -4.0849665883 -6.4145227127  1.7557399794
H   -6.5679521398 -4.2212939592 -0.9533699984
H   -4.5560517488  2.1076954177 -1.9109998598
H   -2.7991301911  4.8418766881  0.8564695915
H    3.2061738226 -4.0451813767 -2.2644233757
H    3.9765138738 -3.0632364348  1.8153278726
H   -2.3469799056 -4.6848238798  1.5638157535
H   -4.8042189245 -2.5228974359 -1.1903009915
H    3.8645214825  2.9554328441  2.0709562392
H    3.2948334190  4.2413799164 -1.9586913402
Cl  -0.0028516238  0.0627713929  2.3790993916
78
aligned d3map frame 123
N   -0.0226887073  2.0678958927 -0.1480039192
N    2.0049627805  0.0133153293 -0.1278719861
C   -2.4243584925  2.4427840954  0.0072322453
C   -1.1077506048  2.8779067949  0.0290178896
C   -0.6700443479  4.2395618382  0.1770656754
H   -1.3093214281  5.0757946982  0.3810993318
C    0.6753939321  4.2418484269  0.0139112470
H    1.3485040000  5.0769795772  0.0434145183
C    1.0769874900  2.8768818057 -0.1729583866
C    2.3837201474  2.4521438195 -0.3678430840
C    2.8000675830  1.1039600595 -0.3740858388
C    4.1363279506  0.6915462428 -0.5777838328
H    4.9635696756  1.3450428109 -0.7850027157
C    4.1525803785 -0.6778626593 -0.4499257810
H    4.9934126290 -1.3338000936 -0.5563583799
C    2.8249972326 -1.0758421728 -0.1661266903
C    3.4165406708  3.4847639844 -0.6208531129
C    4.0353845833  4.1714630872  0.4152815620
C    4.9874357997  5.1387649663  0.1396617793
C    5.3237286442  5.4344255588 -1.1702450672
H    6.0629143282  6.1912161402 -1.3850956404
C    4.7088983961  4.7523924764 -2.2080416490
C    3.7629755765  3.7811918710 -1.9362475340
N    0.0035167505 -2.0501959260 -0.0845025291
N   -2.0042758904 -0.0091522053 -0.1507320936
C    2.4208203294 -2.4313236535 -0.0179390059
C    1.0989446979 -2.8548420227  0.0355553228
C    0.6744841850 -4.2210958521  0.1742848561
H    1.3294039729 -5.0577477195  0.3182614890
C   -0.6777133977 -4.2258186905  0.0936203009
H   -1.3403756086 -5.0681418946  0.1387991028
C   -1.0943429486 -2.8617539162 -0.0692256379
C   -2.4028978390 -2.4485465190 -0.2952142631
C   -2.7956054805 -1.0944105474 -0.4262974374
C   -4.1054040105 -0.6644688537 -0.7322177951
H   -4.9252202044 -1.2946543349 -1.0060767859
C   -4.1073823996  0.7079064627 -0.6241607720
H   -4.9276932561  1.3727797306 -0.8195294974
C   -2.8074816141  1.0875938888 -0.2353109402
C   -3.4614678599 -3.4727903007 -0.3812119486
C   -3.7814206200 -4.2467052087  0.7314128896
C   -4.7964550267 -5.1834138114  0.6654654334
C   -5.4986866748 -5.3688053706 -0.5145399740
H   -6.2938433252 -6.0978365169 -0.5651530671
C   -5.1757979815 -4.6145164489 -1.6306688870
C   -4.1669989349 -3.6708302095 -1.5653877961
Fe  -0.0021062469  0.0121789949  0.2392066053
C    3.4754339605 -3.4566194699 -0.0212929708
C    4.4748561481 -3.4691403880  0.9511678893
C    3.4887694708 -4.4347172832 -1.0157740839
C    5.4491173193 -4.4497280598  0.9386049484
C    4.4778073828 -5.3999019189 -1.0379175271
H    6.2056649008 -4.4613144100  1.7094515144
C    5.4570086846 -5.4140094892 -0.0571780289
H    4.4863869211 -6.1427656300 -1.8230632330
H    6.2243258452 -6.1742914464 -0.0709456096
C   -3.5270761610  3.3909893729  0.1884456615
C   -4.5030339652  3.1270252914  1.1517770653
C   -3.6551678059  4.5336965153 -0.6011509901
C   -5.5694713024  3.9859314793  1.3256083190
C   -4.7318477066  5.3830537833 -0.4319626441
H   -6.3159655108  3.7713104374  2.0772640300
C   -5.6893793392  5.1166558895  0.5325667373
H   -4.8305324492  6.2543934926 -1.0648879710
H   -6.5301936383  5.7818758228  0.6594305396
H    5.4688841814  5.6652918352  0.9513907560
H    4.9664988385  4.9778313746 -3.2330887792
H   -5.0467016241 -5.7686229871  1.5383417344
H   -5.7172247379 -4.7638262624 -2.5543491754
H   -4.4046425625  2.2473823937  1.7705365775
H   -2.9257106865  4.7248691088 -1.3750393455
H    4.4616629954 -2.7143557051  1.7269617635
H    2.7280641257 -4.4135836963 -1.7836272608
H   -3.2423456702 -4.0970913530  1.6569104141
H   -3.9107353890 -3.0901491451 -2.4398427982
H    3.7734750034  3.9417437483  1.4389018669
H    3.2833784725  3.2444875520 -2.7424808097
Cl  -0.0178153942  0.0621777155  2.3805703056
78
aligned d3map frame 124
N   -0.0099977017  2.0558013289 -0.2005125168
N    2.0136645359  0.0188747593 -0.0763280003
C   -2.4488880028  2.4118566011 -0.3175089236
C   -1.0977261346  2.8428357620 -0.4089100012
C   -0.6861732505  4.1720459231 -0.6768172430
H   -1.3365894334  4.9884310358 -0.9208232041
C    0.6838952641  4.1906838490 -0.5734889250
H    1.3393525092  5.0255006313 -0.7047514067
C    1.0854491794  2.8686830879 -0.2710091430
C    2.4102737427  2.4490317797 -0.0427480866
C    2.8076589678  1.1238031186  0.0950732460
C    4.1631469980  0.7130961885  0.3005741943
H    4.9797056777  1.3814599304  0.4990051095
C    4.1842292507 -0.6407136459  0.2143355728
H    5.0252499737 -1.2928111888  0.3448528860
C    2.8391065669 -1.0685612893 -0.0500028704
C    3.4678239424  3.4815632619  0.0484990757
C    3.8120946445  4.0056851023  1.2907688908
C    4.8368661845  4.9289016558  1.4004690194
C    5.5245473011  5.3412959489  0.2708558855
H    6.3287444015  6.0570481037  0.3548086406
C    5.1806330494  4.8293072332 -0.9683825859
C    4.1558697416  3.9048204372 -1.0822114810
N    0.0155883038 -2.0411539345 -0.1364771610
N   -2.0147963885 -0.0040692233 -0.0946089727
C    2.4570694547 -2.3964956725 -0.2525246624
C    1.1052008182 -2.8271887590 -0.3535059469
C    0.6912904464 -4.1524900914 -0.6286996049
H    1.3342719932 -4.9694675384 -0.8906285948
C   -0.6787661708 -4.1759859263 -0.5087609163
H   -1.3316960840 -5.0181622519 -0.6231286094
C   -1.0802832277 -2.8544447939 -0.2068347459
C   -2.4089255064 -2.4313901323  0.0339671097
C   -2.8125007700 -1.1013883168  0.1014567326
C   -4.1792261053 -0.6848292827  0.2192335975
H   -5.0114300055 -1.3411090235  0.3834174166
C   -4.1960117643  0.6613709489  0.0649560360
H   -5.0476746640  1.3107799110  0.1013006770
C   -2.8391929586  1.0844711655 -0.1406627345
C   -3.4525714672 -3.4625214994  0.1966395977
C   -4.0687117853 -3.6262169695  1.4358998332
C   -5.0585285122 -4.5757749780  1.6085929872
C   -5.4565870075 -5.3678637598  0.5438490278
H   -6.2386943706 -6.0990441989  0.6766749994
C   -4.8549603995 -5.2074435186 -0.6924675957
C   -3.8560666411 -4.2653679892 -0.8658248528
Fe  -0.0021062469  0.0121789949  0.2392066053
C    3.5151684858 -3.4074543122 -0.3397122101
C    3.4906042297 -4.5500282275  0.4629552448
C    4.5887873168 -3.2318363989 -1.2184187051
C    4.5093332868 -5.4794711817  0.3924367266
C    5.6059764893 -4.1640823194 -1.2860038315
H    4.4867982669 -6.3539342677  1.0260756185
C    5.5730903904 -5.2899421403 -0.4784596443
H    6.4282356404 -4.0107832174 -1.9709445184
H    6.3684511592 -6.0179318466 -0.5255632821
C   -3.4858581410  3.4517254748 -0.3109395926
C   -3.4231021518  4.4782263084  0.6336896461
C   -4.5534415060  3.4304765179 -1.2075089059
C   -4.4085946003  5.4441651518  0.6932610038
C   -5.5310622037  4.4067460892 -1.1521095299
H   -4.3504693472  6.2215543439  1.4407366544
C   -5.4685783639  5.4111319594 -0.1985000268
H   -6.3519530998  4.3859571282 -1.8530356614
H   -6.2417645079  6.1644366611 -0.1569960513
H    5.1023015546  5.3243590985  2.3702444291
H    5.7156316670  5.1463199060 -1.8517140266
H   -5.5204551808 -4.6936125576  2.5772144784
H   -5.1659545059 -5.8146719612 -1.5297844101
H   -2.6021308417  4.4903470335  1.3340288259
H   -4.6016565889  2.6566461889 -1.9593611575
H    2.6781767924 -4.6853507306  1.1628947265
H    4.6032129766 -2.3665024201 -1.8650142167
H   -3.7575386570 -3.0054182150  2.2635479641
H   -3.4024199217 -4.1278164106 -1.8355909535
H    3.2761234007  3.6693598184  2.1673737184
H    3.8946475648  3.4973548100 -2.0479152839
Cl  -0.0202370195  0.0774151466  2.3795173401
78
aligned d3map frame 125
N   -0.0038686458  2.0450203398 -0.2581102727
N    2.0119322860  0.0228442816 -0.0546059417
C   -2.4173523995  2.3797502982 -0.5582721400
C   -1.1009994524  2.8235198627 -0.4659193033
C   -0.7176021948  4.2081162936 -0.4512891693
H   -1.3944533386  5.0281809139 -0.5910344439
C    0.6087797379  4.2484468059 -0.1725795248
H    1.2266662514  5.1155443375 -0.0441233600
C    1.0613709778  2.8877414486 -0.0795101197
C    2.3686401510  2.4777582892  0.1426489701
C    2.8081804629  1.1240025426  0.0479362548
C    4.1616123944  0.7539786958 -0.1072680742
H    4.9985856826  1.4246827056 -0.0919212265
C    4.1795273796 -0.6059315822 -0.3218015874
H    5.0364892352 -1.2228490542 -0.5095511806
C    2.8366803539 -1.0472054426 -0.2700147252
C    3.4098716554  3.4709229774  0.4433798636
C    4.1082010261  3.3660745080  1.6475076227
C    5.0889503341  4.2827343999  1.9708517957
C    5.4038457123  5.3057533291  1.0894557753
H    6.1736648097  6.0165991183  1.3395315907
C    4.7290130504  5.4058158212 -0.1166694629
C    3.7339260217  4.5001427985 -0.4371640027
N    0.0110471299 -2.0318304413 -0.1950513860
N   -2.0146607799 -0.0108022872 -0.0726707446
C    2.4259874702 -2.3921394508 -0.4327437005
C    1.1022419058 -2.8263735565 -0.3649460596
C    0.7025405526 -4.2075644387 -0.3195814772
H    1.3649655836 -5.0444570862 -0.4252935037
C   -0.6301574718 -4.2275388914 -0.0733926967
H   -1.2691370190 -5.0781427096  0.0564628958
C   -1.0643501132 -2.8588261860 -0.0067670749
C   -2.3712558585 -2.4480923019  0.1923479791
C   -2.8181500945 -1.1027158588  0.0767694627
C   -4.1751755007 -0.7299645028 -0.0630337811
H   -5.0129205786 -1.3968138068 -0.0049264867
C   -4.1901867149  0.6209461317 -0.3324190110
H   -5.0473310469  1.2393592025 -0.5198026627
C   -2.8411280213  1.0523075780 -0.3239494540
C   -3.4051746007 -3.4689082618  0.4639405479
C   -3.8699597737 -3.6435895129  1.7632360945
C   -4.8423691089 -4.5892970856  2.0324817499
C   -5.3670552540 -5.3611787437  1.0079691330
H   -6.1314915348 -6.0951135416  1.2209243049
C   -4.9103155542 -5.1903946921 -0.2875692799
C   -3.9285070968 -4.2531139014 -0.5586268868
Fe  -0.0021062469  0.0121789949  0.2392066053
C    3.4776355726 -3.4052028741 -0.6285884149
C    3.5236433505 -4.1576998781 -1.8018226783
C    4.4433380892 -3.6274715159  0.3514157204
C    4.5259239465 -5.0914385160 -1.9975157553
C    5.4342417183 -4.5740717399  0.1597736184
H    4.5598679609 -5.6566363324 -2.9185701981
C    5.4830129867 -5.3044710883 -1.0182461780
H    6.1716058626 -4.7423157697  0.9303424816
H    6.2689055965 -6.0290529460 -1.1721030531
C   -3.4581569031  3.3640835942 -0.9319896727
C   -3.5810348097  3.7341912199 -2.2687442942
C   -4.3259669749  3.9139894365  0.0063593219
C   -4.5642171735  4.6229741590 -2.6630903294
C   -5.2980748192  4.8171088538 -0.3887618584
H   -4.6597202336  4.8913003008 -3.7060113184
C   -5.4246003398  5.1685600560 -1.7233322192
H   -5.9623790327  5.2486091152  0.3477805645
H   -6.1939113933  5.8626522112 -2.0282719136
H    5.6120732199  4.1974770679  2.9129766626
H    4.9842980143  6.1911585956 -0.8132850750
H   -5.1916439224 -4.7246792094  3.0453653292
H   -5.3178050894 -5.7906925561 -1.0898402989
H   -2.9080870064  3.3060164045 -2.9983478086
H   -4.2276151961  3.6377036383  1.0472903689
H    2.7793463946 -3.9893777494 -2.5679568683
H    4.3988546838 -3.0610997727  1.2715763807
H   -3.4589874356 -3.0371690200  2.5605781425
H   -3.5693664732 -4.1147475189 -1.5682305687
H    3.8569945875  2.5673453929  2.3302397977
H    3.2238683394  4.5664079689 -1.3875703563
Cl  -0.0193617790  0.0758336146  2.3778839882
78
aligned d3map frame 126
N   -0.0336203631  2.0630632150 -0.1689426802
N    2.0083332088  0.0068363208 -0.1033185950
C   -2.4343313366  2.4429262890  0.0945269443
C   -1.1161556995  2.8711046275  0.0582725257
C   -0.6734207324  4.2304465645  0.1931545831
H   -1.3056827723  5.0648375884  0.4249248288
C    0.6676125319  4.2311970904 -0.0085384587
H    1.3387599106  5.0670988749  0.0288688068
C    1.0613567123  2.8674155803 -0.2298970467
C    2.3807245868  2.4445510310 -0.4027979097
C    2.8045619682  1.0938208487 -0.3566264524
C    4.1446111404  0.6719067388 -0.5094207929
H    4.9797530040  1.2964581037 -0.7582406964
C    4.1650029450 -0.6868545519 -0.2882327768
H    5.0259553510 -1.3251306178 -0.2942691187
C    2.8313630097 -1.0819686928 -0.0545385822
C    3.3949223244  3.4859274459 -0.6224065457
C    4.5078466311  3.6155710984  0.2082415551
C    5.4473174421  4.6010143577 -0.0316353920
C    5.2946141772  5.4691377550 -1.1007905606
H    6.0357096057  6.2320594530 -1.2914111339
C    4.1867850941  5.3548016525 -1.9250641960
C    3.2408735700  4.3752961346 -1.6856719770
N    0.0136032933 -2.0468907631 -0.1045467056
N   -2.0073863543  0.0058328657 -0.1266442086
C    2.4122213452 -2.4235137954  0.1891018055
C    1.0926900391 -2.8483806834  0.1271283018
C    0.6674554651 -4.2234592642  0.1510832471
H    1.3228930680 -5.0597109374  0.3001956641
C   -0.6671606492 -4.2304710579 -0.0814281810
H   -1.3297262983 -5.0721321438 -0.1493765326
C   -1.0761858815 -2.8601520929 -0.2163484513
C   -2.3817038739 -2.4326386138 -0.3947889236
C   -2.7958094386 -1.0811790263 -0.3925975592
C   -4.1327741548 -0.6678758252 -0.5884617533
H   -4.9558536026 -1.3104764756 -0.8321377602
C   -4.1556363891  0.6960717955 -0.4119500678
H   -5.0003663636  1.3488434849 -0.4987825463
C   -2.8321118614  1.0892673681 -0.1142368233
C   -3.4712076769 -3.4337088564 -0.4843977340
C   -4.1450364770 -3.8115175875  0.6712642188
C   -5.2099068499 -4.6921414902  0.6040512070
C   -5.6173897926 -5.1960558724 -0.6191441269
H   -6.4600399806 -5.8701802142 -0.6770580228
C   -4.9454709519 -4.8275217261 -1.7739091736
C   -3.8740029876 -3.9542474557 -1.7094093113
Fe  -0.0021062469  0.0121789949  0.2392066053
C    3.4388549494 -3.4192311119  0.5427865054
C    3.3903783229 -4.0002364705  1.8096457568
C    4.4568166527 -3.7978291837 -0.3294349050
C    4.3478037523 -4.9165036226  2.2036117330
C    5.4088096239 -4.7209809010  0.0651058119
H    4.2990445243 -5.3436583068  3.1957509804
C    5.3627116772 -5.2779684071  1.3332358715
H    6.1918673125 -5.0083336350 -0.6219823348
H    6.1120651138 -5.9945039381  1.6375851124
C   -3.5280790916  3.4082853511  0.2677833448
C   -4.4726795503  3.2040638036  1.2761304584
C   -3.6909366356  4.4863825931 -0.5992387964
C   -5.5604026746  4.0477541837  1.4001226669
C   -4.7877673657  5.3207577944 -0.4775521602
H   -6.2891568987  3.8779534437  2.1810731202
C   -5.7300546972  5.1006049850  0.5148374488
H   -4.9178139650  6.1386906546 -1.1708914661
H   -6.5961010034  5.7439985410  0.5929901197
H    6.3039005827  4.6948351903  0.6200567466
H    4.0591279756  6.0308100495 -2.7584490065
H   -5.7286449618 -4.9770357104  1.5080312338
H   -5.2685451217 -5.2146715542 -2.7308707389
H   -4.3395979567  2.3802309622  1.9615540774
H   -2.9734966244  4.6379106810 -1.3924354905
H    2.6041091166 -3.7073526702  2.4910826998
H    4.4855063787 -3.3857925039 -1.3285108773
H   -3.8332119526 -3.4005835854  1.6196358980
H   -3.3522567621 -3.6592169209 -2.6084645258
H    4.6151844739  2.9539038193  1.0552078178
H    2.3843446679  4.2759395398 -2.3361597844
Cl  -0.0143394168  0.0213895244  2.3804295973
78
aligned d3map frame 127
N   -0.0190251010  2.0608376817 -0.1894353553
N    2.0136351521  0.0163746325 -0.0753551388
C   -2.4494824711  2.4297688500 -0.2367327755
C   -1.1222866757  2.8412397496 -0.3749277400
C   -0.7173710670  4.1519968060 -0.7909750322
H   -1.3813897128  4.9521955337 -1.0527557750
C    0.6395871812  4.1551592289 -0.8252295155
H    1.2880432086  4.9558331780 -1.1207476075
C    1.0725793817  2.8477292163 -0.4265693366
C    2.4045144060  2.4490427108 -0.3309483972
C    2.8248463308  1.1157366115 -0.0887105710
C    4.1726967214  0.7238762408  0.0890511440
H    5.0137937513  1.3838745992  0.1688511231
C    4.1815862693 -0.6487899726  0.1555549636
H    5.0303211250 -1.2942165599  0.2676504491
C    2.8365243936 -1.0711022707  0.0372696238
C    3.4481090291  3.4543258002 -0.5698797652
C    3.4905378303  4.6410971163  0.1622809016
C    4.4638492981  5.5888879166 -0.0928243069
C    5.4056619228  5.3740525678 -1.0862133561
H    6.1612317228  6.1186584705 -1.2883203852
C    5.3729468434  4.1982466532 -1.8193498094
C    4.4075834750  3.2447898687 -1.5619877896
N    0.0116071927 -2.0462797380 -0.1252612734
N   -2.0147965199 -0.0015378902 -0.0962838141
C    2.4341602943 -2.4204283825 -0.0895479149
C    1.1150426598 -2.8459473671 -0.1974658903
C    0.7100326345 -4.2136828835 -0.3487410021
H    1.3825853748 -5.0460729685 -0.4243749516
C   -0.6467974323 -4.2249425770 -0.3664110465
H   -1.3012969127 -5.0684857411 -0.4676078722
C   -1.0777846697 -2.8655954467 -0.2122571023
C   -2.4023461490 -2.4501757451 -0.1691722353
C   -2.8190497140 -1.1028070172 -0.0217095820
C   -4.1627510980 -0.7113803354  0.1733949052
H   -4.9934215261 -1.3762271163  0.3059742853
C   -4.1774693046  0.6634928907  0.1786028135
H   -5.0210976608  1.3074926675  0.3291799906
C   -2.8425290260  1.0855679544 -0.0279624750
C   -3.4794990251 -3.4344693555 -0.3843328695
C   -3.7650469451 -4.4490694236  0.5235499559
C   -4.8078515619 -5.3267345058  0.2822905684
C   -5.5635732165 -5.2156566283 -0.8733226359
H   -6.3759935471 -5.9022461480 -1.0599251114
C   -5.2762037733 -4.2158776575 -1.7893085545
C   -4.2495322315 -3.3256138962 -1.5423403600
Fe  -0.0021062469  0.0121789949  0.2392066053
C    3.5092217572 -3.4286922484 -0.2057001064
C    4.2630392753 -3.8175505376  0.8964607839
C    3.7961110628 -3.9788683226 -1.4521625640
C    5.2849419609 -4.7393691307  0.7509322778
C    4.8276945909 -4.8885882836 -1.5960388587
H    5.8608529282 -5.0404109495  1.6141717795
C    5.5749073943 -5.2714509901 -0.4946991688
H    5.0492834925 -5.2965664085 -2.5719577874
H    6.3812616617 -5.9813819097 -0.6058490458
C   -3.5119378667  3.4258605822 -0.4198578135
C   -3.5384191170  4.6055475577  0.3251384414
C   -4.5114199739  3.2131890059 -1.3712764714
C   -4.5374535425  5.5402896806  0.1250136060
C   -5.5034002101  4.1529201370 -1.5735496845
H   -4.5512045965  6.4454001982  0.7137258188
C   -5.5213894558  5.3193528563 -0.8254161008
H   -6.2631074308  3.9756349900 -2.3215445818
H   -6.3000560892  6.0509315543 -0.9835334415
H    4.4889645843  6.5014896859  0.4854346951
H    6.1020230467  4.0262192275 -2.5979387833
H   -5.0360631201 -6.0994763886  1.0024587476
H   -5.8566899018 -4.1269803327 -2.6966168747
H   -2.7828954837  4.7728346867  1.0794616191
H   -4.4852545685  2.3135912772 -1.9681406474
H    4.0390962780 -3.3995561433  1.8670824709
H    3.2135244723 -3.6745390382 -2.3098608333
H   -3.1823064245 -4.5305781926  1.4299979413
H   -4.0241294896 -2.5417314180 -2.2513807211
H    2.7669948398  4.8025914522  0.9478645739
H    4.3703756211  2.3365968167 -2.1458978908
Cl  -0.0086428414  0.0151897618  2.3792114895
78
aligned d3map frame 128
N   -0.0121186604  2.0488359588 -0.2253244810
N    2.0078888782  0.0225636211 -0.0808034805
C   -2.3826534694  2.4360356073  0.2600811748
C   -1.0743050887  2.8563396674  0.0599952610
C   -0.6512498785  4.2287985967 -0.0010921687
H   -1.2908639301  5.0735535257  0.1705949846
C    0.6612530511  4.2248135870 -0.3429387241
H    1.3103883592  5.0670403809 -0.4820215229
C    1.0634187009  2.8499041936 -0.4469673120
C    2.3756031062  2.4147844636 -0.6138656349
C    2.8043511058  1.0768853929 -0.4351710062
C    4.1421155073  0.6379287670 -0.5574748802
H    4.9738343281  1.2409074234 -0.8612408707
C    4.1529740433 -0.7012148052 -0.2333157198
H    4.9926408828 -1.3679958250 -0.2257106535
C    2.8198155896 -1.0609148448  0.0532279204
C    3.4066783469  3.4182419483 -0.9350142641
C    4.4275927594  3.7112852098 -0.0344426984
C    5.4106806514  4.6258854634 -0.3662440759
C    5.3991722234  5.2468002774 -1.6064333340
H    6.1808784727  5.9439893470 -1.8710351289
C    4.3766430047  4.9723136533 -2.4996524788
C    3.3802411673  4.0735480557 -2.1646683276
N    0.0284272735 -2.0372145042 -0.1584274623
N   -2.0110295814  0.0150205547 -0.0974685322
C    2.3975879356 -2.4013561885  0.3125236394
C    1.0929920688 -2.8439916552  0.1467013060
C    0.6427399915 -4.2075220668  0.2231163688
H    1.2582697237 -5.0445293158  0.4888698274
C   -0.6764174533 -4.2089088371 -0.0886623959
H   -1.3458554504 -5.0465037217 -0.1337055120
C   -1.0625276024 -2.8388993826 -0.2932779132
C   -2.3815704830 -2.4134892370 -0.4433681502
C   -2.8140435594 -1.0686465564 -0.3283609238
C   -4.1645118307 -0.6542550391 -0.3608570504
H   -5.0122203139 -1.2795701915 -0.5579583273
C   -4.1757549300  0.6961038184 -0.0906163778
H   -5.0371009622  1.3261926055 -0.0021865648
C   -2.8307678105  1.0966990017  0.0446847280
C   -3.4200169096 -3.4415028518 -0.6353933341
C   -4.4239576565 -3.6270142283  0.3134596461
C   -5.4094277370 -4.5760511469  0.1137390256
C   -5.4158339146 -5.3471378342 -1.0379818484
H   -6.1957034793 -6.0770242777 -1.1986033782
C   -4.4137764006 -5.1775497633 -1.9800629111
C   -3.4177110086 -4.2394153482 -1.7788256333
Fe  -0.0021062469  0.0121789949  0.2392066053
C    3.4517910623 -3.3380377569  0.7224127665
C    3.7464696189 -4.4927061008  0.0009475525
C    4.1919882571 -3.0519098122  1.8700901266
C    4.7515655071 -5.3430529923  0.4243021515
C    5.1879447547 -3.9100289296  2.2950152149
H    4.9791730241 -6.2346586065 -0.1444627472
C    5.4712498080 -5.0584219418  1.5729153409
H    5.7456066792 -3.6844547248  3.1946900422
H    6.2535873661 -5.7272623259  1.9016172105
C   -3.3439196675  3.4285161898  0.7626395597
C   -4.5057010078  3.7959717680  0.0866383365
C   -3.0740441390  4.0115208238  2.0024358986
C   -5.3886391944  4.6981230358  0.6523172974
C   -3.9693131437  4.8991752226  2.5689514182
H   -6.2852345710  4.9743554352  0.1151984144
C   -5.1331187578  5.2425340790  1.9011242987
H   -3.7523416342  5.3258513420  3.5382097225
H   -5.8325809346  5.9331710845  2.3479702249
H    6.1927211919  4.8512805218  0.3444821422
H    4.3613355860  5.4566758183 -3.4658816497
H   -6.1796347798 -4.7122668736  0.8599850648
H   -4.4118341281 -5.7775666057 -2.8791838267
H   -4.7015814529  3.3983271822 -0.8979400347
H   -2.1679625961  3.7371260849  2.5249982134
H    3.2063880902 -4.7011722326 -0.9104173412
H    3.9583454503 -2.1603347297  2.4345989570
H   -4.4127622178 -3.0319745807  1.2147146440
H   -2.6417354323 -4.1024631831 -2.5181248013
H    4.4327949457  3.2280871834  0.9334486748
H    2.5869298425  3.8551800334 -2.8649667814
Cl  -0.0211539950  0.0579410204  2.3784218565
78
aligned d3map frame 129
N    0.0060829825  2.0596734127 -0.1884283704
N    2.0113112502  0.0425579842 -0.0842765574
C   -2.4041129949  2.3863537201 -0.5337527750
C   -1.0869894610  2.8265402379 -0.4732733784
C   -0.6754270721  4.1797053945 -0.7044079084
H   -1.3283007064  4.9858057113 -0.9802402440
C    0.6695379209  4.2190667192 -0.5286065523
H    1.3225509384  5.0615830285 -0.6412008151
C    1.0892357543  2.8851114023 -0.2065132691
C    2.4181839447  2.4848791534 -0.0588084528
C    2.8338779606  1.1313893281  0.0122851470
C    4.1836762009  0.7110028033  0.0715220525
H    5.0345253616  1.3497751645  0.2027044818
C    4.1794212581 -0.6573011773 -0.0573322952
H    5.0278967272 -1.3173511791 -0.0807312146
C    2.8247470757 -1.0534633670 -0.1531743532
C    3.4555682539  3.5231833483 -0.1344597718
C    3.4531110209  4.6071296976  0.7420487619
C    4.4166903051  5.5941946900  0.6394983289
C    5.3949513429  5.5177929231 -0.3371473465
H    6.1450292299  6.2910485796 -0.4173471508
C    5.4039564838  4.4462613288 -1.2160017755
C    4.4428620321  3.4586578116 -1.1174261307
N   -0.0085176719 -2.0457363162 -0.1236309646
N   -2.0116659924 -0.0213895139 -0.1033567911
C    2.4120748013 -2.3993677529 -0.2781136978
C    1.0977313026 -2.8430895304 -0.2378820788
C    0.6979398735 -4.2196912228 -0.2332484115
H    1.3665987751 -5.0535309734 -0.3261735515
C   -0.6488646132 -4.2401549868 -0.0623315898
H   -1.2870694497 -5.0990844698  0.0173973916
C   -1.0866454627 -2.8739830471 -0.0083890974
C   -2.4073152963 -2.4547496402  0.1573560482
C   -2.8274568780 -1.1013068828  0.0582141482
C   -4.1820480940 -0.7019771051 -0.0420493697
H   -5.0319807048 -1.3524492913  0.0273863357
C   -4.1812996874  0.6511284425 -0.2851145411
H   -5.0268868386  1.2983070356 -0.4163136959
C   -2.8277089659  1.0579552525 -0.3192506436
C   -3.4601034299 -3.4507861590  0.4100642172
C   -4.2008403696 -3.3691027305  1.5879583810
C   -5.2020435445 -4.2853159550  1.8522486033
C   -5.4885467219 -5.2858110739  0.9383330053
H   -6.2777673706 -5.9954624938  1.1396961682
C   -4.7633374699 -5.3702196781 -0.2393390604
C   -3.7531874106 -4.4630897361 -0.5024431278
Fe  -0.0021062469  0.0121789949  0.2392066053
C    3.4974794086 -3.3911867761 -0.4582357895
C    4.0722047693 -3.5455321283 -1.7168093429
C    3.9866906557 -4.1375820694  0.6076824151
C    5.1085336045 -4.4409182712 -1.9067594916
C    5.0325396546 -5.0245766304  0.4168521504
H    5.5457175781 -4.5542197005 -2.8881595803
C    5.5918265166 -5.1837455273 -0.8405587317
H    5.4154852399 -5.5920268690  1.2529240672
H    6.4074842832 -5.8766382469 -0.9896715735
C   -3.4382664967  3.3979870062 -0.8432172361
C   -4.0278359006  3.4352159961 -2.1033049417
C   -3.8047897058  4.3448263021  0.1082568149
C   -4.9630610361  4.4101254224 -2.4053023971
C   -4.7473356801  5.3100196708 -0.1938895746
H   -5.4028432197  4.4373193808 -3.3917017087
C   -5.3245084872  5.3479514064 -1.4538223330
H   -5.0297417264  6.0391763565  0.5513462002
H   -6.0556292448  6.1060452761 -1.6955141454
H    4.4032331484  6.4282956472  1.3264471888
H    6.1584468729  4.3793138425 -1.9842510948
H   -5.7637160808 -4.2170773367  2.7725658108
H   -4.9902905181 -6.1429682205 -0.9594902054
H   -3.7364106981  2.7059039128 -2.8451628326
H   -3.3509830826  4.3125469046  1.0890581404
H    3.6982650557 -2.9581083111 -2.5437601760
H    3.5592308655 -3.9999237689  1.5928252020
H   -3.9728794191 -2.5901412646  2.3006648838
H   -3.2039742725 -4.5138028119 -1.4313200338
H    2.7003322639  4.6596212145  1.5142308773
H    4.4325445903  2.6396320015 -1.8206894320
Cl  -0.0368448588  0.0313291541  2.3809991755
78
aligned d3map frame 130
N   -0.0108010479  2.0433447107 -0.2473235399
N    2.0107426411  0.0183604217 -0.0901707370
C   -2.4475310457  2.3923957885 -0.4257990654
C   -1.0949318973  2.7767875984 -0.6305720929
C   -0.6630096108  3.9984388885 -1.1975034360
H   -1.2962776957  4.7405754232 -1.6418580141
C    0.7107381333  4.0173360385 -1.1020767174
H    1.3756566069  4.7832131217 -1.4481909477
C    1.0923652193  2.8055046016 -0.4868537633
C    2.4230829590  2.4336276646 -0.1377154402
C    2.7934635154  1.1213123849  0.1433475687
C    4.0839194121  0.6946588047  0.6020861299
H    4.8630857219  1.3458725334  0.9473247197
C    4.0953396421 -0.6625469303  0.5500467690
H    4.8859812595 -1.3246020885  0.8455919031
C    2.8074437799 -1.0773916530  0.0742647595
C    3.4434414920  3.4817684016 -0.1533701892
C    3.2097077527  4.7183096030  0.4496944912
C    4.1633417762  5.7169483679  0.4029102304
C    5.3652026653  5.5075734458 -0.2527314910
H    6.1054170541  6.2922285687 -0.2970828171
C    5.6104823682  4.2834639231 -0.8558902147
C    4.6628367711  3.2800346106 -0.8064365436
N    0.0199603656 -2.0309320085 -0.1831131395
N   -2.0120460576  0.0009082466 -0.1078955535
C    2.4504337915 -2.3957858638 -0.2350986891
C    1.1096747414 -2.8026174968 -0.4597774071
C    0.6852506637 -4.0785371879 -0.9016653712
H    1.3181923937 -4.8701739135 -1.2523433278
C   -0.6888465399 -4.0926094961 -0.8189513431
H   -1.3495194309 -4.9033301361 -1.0578364649
C   -1.0797833596 -2.8137996828 -0.3652335906
C   -2.4075954403 -2.4143985088 -0.0639025070
C   -2.8028073278 -1.0996076929  0.1133482001
C   -4.1473028775 -0.6724990532  0.3742111345
H   -4.9642248714 -1.3276940854  0.6076199703
C   -4.1634300793  0.6791317790  0.2591948984
H   -4.9924284146  1.3416395913  0.4145710385
C   -2.8309773763  1.0911653698 -0.0851663248
C   -3.4354190068 -3.4742907111  0.0184853696
C   -3.8733385333 -3.9286510910  1.2574936393
C   -4.8336216411 -4.9217194253  1.3357008208
C   -5.3727988344 -5.4631596818  0.1812019243
H   -6.1264229389 -6.2338741432  0.2433611650
C   -4.9429825193 -5.0112107005 -1.0556466765
C   -3.9763198368 -4.0254211954 -1.1386198399
Fe  -0.0021062469  0.0121789949  0.2392066053
C    3.5171027554 -3.3899474939 -0.3469019999
C    3.4093699497 -4.6526812333  0.2398808257
C    4.6762891838 -3.0903037234 -1.0706315983
C    4.4207006184 -5.5827028761  0.0997095774
C    5.6875199968 -4.0213593980 -1.2021344887
H    4.3210220596 -6.5558878977  0.5568084783
C    5.5633548528 -5.2726798385 -0.6215360244
H    6.5749333880 -3.7695969833 -1.7655108804
H    6.3532296801 -6.0016111087 -0.7283663906
C   -3.4798398752  3.4139336703 -0.6041053312
C   -3.3444558975  4.6774392124 -0.0235858577
C   -4.6159495017  3.1548281069 -1.3761667600
C   -4.3130798246  5.6449912015 -0.2061512677
C   -5.5840215975  4.1240027640 -1.5525629382
H   -4.1940552444  6.6174340641  0.2502830767
C   -5.4377299299  5.3729394115 -0.9695484058
H   -6.4561370504  3.9081147985 -2.1528115826
H   -6.1945368136  6.1305701886 -1.1106039039
H    3.9663711137  6.6678747917  0.8782581990
H    6.5430549445  4.1123033306 -1.3740525428
H   -5.1632053962 -5.2723103959  2.3034208742
H   -5.3630510098 -5.4268653939 -1.9601949141
H   -2.4824722833  4.8835844161  0.5935788264
H   -4.7173387959  2.1954302378 -1.8622841880
H    2.5370432153 -4.8861506433  0.8319180697
H    4.7610552020 -2.1270263142 -1.5520393458
H   -3.4521522549 -3.5025685881  2.1560984284
H   -3.6410033257 -3.6693920412 -2.1019874550
H    2.2801570081  4.8809140983  0.9753140590
H    4.8462303005  2.3407280964 -1.3054490856
Cl  -0.0129800294  0.0339268676  2.3791175718
78
aligned d3map frame 131
N   -0.0094257845  2.0528132684 -0.2087952789
N    2.0033147792  0.0243241067 -0.1143276947
C   -2.3854131300  2.4259098340  0.2313696839
C   -1.0733675962  2.8510367470  0.1135325359
C   -0.6396794579  4.2206006526  0.1583046960
H   -1.2762659805  5.0558982436  0.3784498362
C    0.6753943691  4.2289459125 -0.1726676876
H    1.3313710149  5.0747062378 -0.2426751870
C    1.0683094599  2.8603560512 -0.3750858566
C    2.3767248144  2.4255217825 -0.6111304537
C    2.7854747897  1.0718263213 -0.5245983418
C    4.0901125611  0.6009206359 -0.8045364614
H    4.9022932902  1.1822310404 -1.1937642389
C    4.1029314756 -0.7426540019 -0.5030028286
H    4.9225951590 -1.4283950550 -0.6051710443
C    2.8025622477 -1.0761532011 -0.0737028755
C    3.3951720941  3.4330781511 -0.9286282859
C    4.5856404012  3.5165522396 -0.2060087021
C    5.5481735911  4.4491063887 -0.5431339128
C    5.3413443337  5.3138362128 -1.6058952221
H    6.0986896927  6.0344729200 -1.8758578378
C    4.1557626903  5.2511569291 -2.3203888421
C    3.1888168173  4.3236155691 -1.9837693818
N    0.0221327401 -2.0402249521 -0.1423539347
N   -2.0060491654  0.0075912954 -0.1314975941
C    2.3968238299 -2.4018833179  0.2857271593
C    1.0799356725 -2.8310243386  0.2316875363
C    0.6015675548 -4.1610300438  0.4926758404
H    1.1966384287 -4.9708619608  0.8659576149
C   -0.7224610550 -4.1704834550  0.2017307772
H   -1.4121262486 -4.9869565192  0.2910923592
C   -1.0783678779 -2.8329862925 -0.1864051012
C   -2.3832493478 -2.4141486962 -0.4784184935
C   -2.7906452788 -1.0581838541 -0.4896955137
C   -4.1017275386 -0.6024887134 -0.7647421161
H   -4.9126162296 -1.1991720276 -1.1328623077
C   -4.1231354003  0.7457784503 -0.4882577007
H   -4.9604317030  1.4104364432 -0.5628335823
C   -2.8137649675  1.1044086195 -0.1092955990
C   -3.3826761167 -3.4558519419 -0.7313652494
C   -4.6085390541 -3.4835232290 -0.0646873374
C   -5.5339876594 -4.4736610230 -0.3362740018
C   -5.2531587050 -5.4571697130 -1.2709448605
H   -5.9792584446 -6.2279342852 -1.4823361539
C   -4.0331292850 -5.4498464518 -1.9287298489
C   -3.1067061819 -4.4615692233 -1.6621466441
Fe  -0.0021062469  0.0121789949  0.2392066053
C    3.4625512798 -3.3234393783  0.6851953686
C    4.3636021268 -2.9226812761  1.6760233845
C    3.6127588067 -4.5896018371  0.1199526758
C    5.3570281425 -3.7759370689  2.1118962303
C    4.6158421992 -5.4377001951  0.5524176526
H    6.0341778413 -3.4579312759  2.8913734111
C    5.4843095804 -5.0400602474  1.5546948448
H    4.7213434589 -6.4145940580  0.1005657582
H    6.2604132492 -5.7084000043  1.8972043458
C   -3.3739343078  3.3718624584  0.7795442716
C   -3.2173233359  3.7384823582  2.1169459973
C   -4.4424739812  3.8934868775  0.0584373852
C   -4.1275120701  4.5802840189  2.7264669201
C   -5.3475030494  4.7430826542  0.6716724134
H   -3.9996542834  4.8430364730  3.7663706149
C   -5.2001658473  5.0805351520  2.0065041503
H   -6.1738974689  5.1455581833  0.1032167555
H   -5.9154353774  5.7343978802  2.4830258533
H    6.4649379841  4.5007614566  0.0246038436
H    3.9873888998  5.9254687434 -3.1473576301
H   -6.4790147855 -4.4801398743  0.1876909513
H   -3.8044286119 -6.2178310179 -2.6543185326
H   -2.3841477481  3.3365230336  2.6747114238
H   -4.5496200894  3.6572854915 -0.9902153086
H    4.2551924493 -1.9437400301  2.1194078726
H    2.9600825276 -4.8920802136 -0.6852995865
H   -4.8155119436 -2.7395703303  0.6899117806
H   -2.1632676088 -4.4443083311 -2.1889699042
H    4.7394705723  2.8587533199  0.6365550785
H    2.2733452761  4.2612614548 -2.5539426526
Cl  -0.0231074564  0.0560216822  2.3781874086
78
aligned d3map frame 132
N   -0.0271760763  2.0652403610 -0.1702464174
N    2.0112879343  0.0125916204 -0.0899270207
C   -2.4539140138  2.4297862409 -0.1996232576
C   -1.1326600597  2.8513020090 -0.3361868765
C   -0.7260061500  4.1716055271 -0.7207210165
H   -1.3897431278  4.9803952526 -0.9546682919
C    0.6299040243  4.1744309815 -0.7573416439
H    1.2777682943  4.9859262901 -1.0248092058
C    1.0623792475  2.8545469209 -0.3988035700
C    2.3933221916  2.4501327087 -0.3268829877
C    2.8129181538  1.1180886516 -0.0826212499
C    4.1520548218  0.7421759605  0.1733038648
H    4.9818798996  1.4137078294  0.2741986568
C    4.1639649318 -0.6276110596  0.2899311817
H    5.0067831547 -1.2511910411  0.5127491888
C    2.8344559524 -1.0659749179  0.0867937193
C    3.4464069795  3.4444817121 -0.5770550651
C    3.5432279623  4.6144332074  0.1738963139
C    4.5339580937  5.5409163298 -0.0975839920
C    5.4324005032  5.3220444912 -1.1290085565
H    6.1989079278  6.0513201198 -1.3457611353
C    5.3446682333  4.1612516996 -1.8813413909
C    4.3674482058  3.2261029498 -1.6031425947
N    0.0087695354 -2.0496417373 -0.1060278173
N   -2.0108158184  0.0000338698 -0.1128391685
C    2.4398250515 -2.4228604999 -0.0254572475
C    1.1191128848 -2.8417546598 -0.1867807950
C    0.7305978662 -4.1697376725 -0.5596916221
H    1.4039935463 -4.9872026747 -0.7282022072
C   -0.6198440174 -4.1662678801 -0.6988931392
H   -1.2467629472 -4.9782988466 -1.0072064643
C   -1.0700728764 -2.8428994005 -0.3797076224
C   -2.4018710237 -2.4338528296 -0.3414095338
C   -2.8107717005 -1.1025361173 -0.0574866546
C   -4.1413027563 -0.7215379868  0.2327869713
H   -4.9632673566 -1.3922196780  0.3903743951
C   -4.1540850052  0.6533150354  0.2949160579
H   -4.9893921530  1.2895147621  0.5124645086
C   -2.8334471456  1.0833147948  0.0333677927
C   -3.4624988132 -3.3727344330 -0.7226457281
C   -3.6052107190 -4.6388749811 -0.1559968730
C   -4.5933895933 -5.4991653039 -0.6014466638
C   -5.4553084069 -5.1159364308 -1.6159193236
H   -6.2177777054 -5.7956673219 -1.9665923165
C   -5.3350788938 -3.8523015596 -2.1749445315
C   -4.3553530298 -2.9898156073 -1.7291855046
Fe  -0.0021062469  0.0121789949  0.2392066053
C    3.5033116480 -3.4341783472 -0.0713686815
C    3.4786402647 -4.5420431905  0.7768887403
C    4.5586584286 -3.3090876282 -0.9766196906
C    4.4872115256 -5.4858887389  0.7279689978
C    5.5610340265 -4.2576853137 -1.0258215626
H    4.4617730188 -6.3343346949  1.3957431854
C    5.5321792244 -5.3479044430 -0.1708847604
H    6.3674857130 -4.1472703837 -1.7363054718
H    6.3193037547 -6.0861967231 -0.2075112412
C   -3.5382697114  3.3821692469 -0.4749962341
C   -3.6504868475  4.6061372131  0.1829264837
C   -4.4725791382  3.0652951876 -1.4640096435
C   -4.6608265015  5.4900432990 -0.1503582504
C   -5.4746860339  3.9540082657 -1.7990135529
H   -4.7395511029  6.4353947125  0.3678642704
C   -5.5707014712  5.1721630465 -1.1458573139
H   -6.1801713384  3.6967722512 -2.5759863615
H   -6.3518234867  5.8694352981 -1.4107084177
H    4.6050174142  6.4389176735  0.4989420548
H    6.0407459157  3.9868760680 -2.6894112263
H   -4.6958226668 -6.4756593680 -0.1509438205
H   -6.0040577527 -3.5424796959 -2.9647844971
H   -2.9529952227  4.8490217929  0.9718817728
H   -4.3856366306  2.1227904981 -1.9851631593
H    2.6756034438 -4.6405092256  1.4921814238
H    4.5701104106 -2.4711468901 -1.6583147931
H   -2.9595928564 -4.9349433603  0.6551392769
H   -4.2497039705 -2.0123535221 -2.1787791230
H    2.8522364455  4.7807056696  0.9874372149
H    4.2903387541  2.3246728187 -2.1937110611
Cl  -0.0045827692  0.0458487926  2.3788261826
78
aligned d3map frame 133
N   -0.0247825947  2.0570809928 -0.2096159372
N    2.0151898052  0.0011150371 -0.0617197212
C   -2.4350893477  2.4629956073 -0.0483747419
C   -1.1099048290  2.8819282330 -0.1521478705
C   -0.6755768289  4.2500015913 -0.2238130492
H   -1.3155540402  5.1079405570 -0.1557989904
C    0.6716893541  4.2327259685 -0.3735842833
H    1.3459283297  5.0631956195 -0.4658214613
C    1.0758984125  2.8568647485 -0.3355987591
C    2.3956250405  2.4341767795 -0.3311400032
C    2.8205032294  1.1059173167 -0.1079930427
C    4.1696773495  0.7326900621  0.0832852889
H    5.0032379471  1.4058389918  0.1202390904
C    4.1830536060 -0.6331604380  0.2365071833
H    5.0286031551 -1.2596450233  0.4384235180
C    2.8444496867 -1.0723467850  0.0991129158
C    3.4647533769  3.4228403189 -0.6028958696
C    4.0760770267  4.1491927793  0.4128382681
C    5.1059024184  5.0242648087  0.1156815213
C    5.5326457948  5.1854284170 -1.1930056203
H    6.3429650086  5.8635058121 -1.4164308362
C    4.9192346253  4.4731712631 -2.2091277572
C    3.8907817635  3.5948412934 -1.9155655133
N    0.0348915633 -2.0413931215 -0.1453659628
N   -2.0165231550  0.0128861083 -0.0796768227
C    2.4502961104 -2.4349893644  0.0407846391
C    1.1298232067 -2.8551083702 -0.1082057593
C    0.7225671022 -4.2139372189 -0.3264127848
H    1.3847739143 -5.0557537898 -0.3723735220
C   -0.6252992020 -4.2047123254 -0.4764940196
H   -1.2740323757 -5.0426362204 -0.6402151679
C   -1.0511174169 -2.8389423785 -0.3630554881
C   -2.3782414074 -2.4215174519 -0.4115737942
C   -2.8166480657 -1.0845297076 -0.2592214442
C   -4.1674185473 -0.6797009248 -0.3638303264
H   -5.0043082562 -1.3289002135 -0.5286120423
C   -4.1837954210  0.6888150036 -0.2350071247
H   -5.0367819702  1.3362434789 -0.2917080994
C   -2.8415462244  1.1008197877 -0.0679121369
C   -3.4004981931 -3.4474946259 -0.6872217975
C   -4.3897648229 -3.7600552472  0.2412886956
C   -5.3291703285 -4.7352203280 -0.0409184770
C   -5.3032895158 -5.4008601650 -1.2555342694
H   -6.0399245014 -6.1593910654 -1.4743591257
C   -4.3277874353 -5.0898564374 -2.1884596575
C   -3.3793611436 -4.1254807217 -1.9050884405
Fe  -0.0021062469  0.0121789949  0.2392066053
C    3.5183328587 -3.4439121635  0.0315843636
C    3.5351504337 -4.4899000854  0.9539456424
C    4.5415050623 -3.3704996038 -0.9153769828
C    4.5545039173 -5.4246028178  0.9370604923
C    5.5547365799 -4.3088806922 -0.9328885267
H    4.5598594455 -6.2214645200  1.6649193487
C    5.5677709638 -5.3370062260 -0.0033156762
H    6.3373568121 -4.2379220524 -1.6745414296
H    6.3661753920 -6.0641346787 -0.0146218057
C   -3.4921335552  3.4834599575 -0.0088866621
C   -4.4092018028  3.5138991927  1.0415493057
C   -3.5987070648  4.4390896001 -1.0199546031
C   -5.3879826227  4.4889703031  1.0898140521
C   -4.5838386810  5.4069374289 -0.9708724217
H   -6.0838202217  4.5087974201  1.9158951466
C   -5.4776522237  5.4411571478  0.0868315894
H   -4.6555190951  6.1384362472 -1.7630122540
H   -6.2416427263  6.2030007734  0.1265353211
H    5.5837760600  5.5812941927  0.9090743207
H    5.2427525557  4.5956983088 -3.2330739810
H   -6.0852213817 -4.9787635226  0.6911254525
H   -4.3046435611 -5.6008622681 -3.1399171239
H   -4.3332331497  2.7816202581  1.8309763259
H   -2.9183946017  4.3992779171 -1.8579149567
H    2.7582620159 -4.5475514181  1.7021388055
H    4.5216073072 -2.5799640255 -1.6519690149
H   -4.4034564777 -3.2472362673  1.1917365495
H   -2.6210820313 -3.8759703369 -2.6329787343
H    3.7430682091  4.0159123715  1.4315436062
H    3.4131704844  3.0307969764 -2.7040128634
Cl  -0.0034673417  0.0682996568  2.3782530837
78
aligned d3map frame 134
N   -0.0284335934  2.0618948936 -0.1545203721
N    2.0003608192  0.0048792799 -0.1539811076
C   -2.4524463814  2.4179630209  0.0747405561
C   -1.1227737605  2.8659558435 -0.0761753940
C   -0.7467700579  4.2126381009 -0.3397685740
H   -1.4132486746  5.0516857438 -0.3511149642
C    0.5959598573  4.2032595763 -0.6079102667
H    1.2200339835  5.0335749236 -0.8731823272
C    1.0341700912  2.8553952854 -0.4728016593
C    2.3536091516  2.4063759776 -0.6375676648
C    2.7871132759  1.0933635060 -0.3915676618
C    4.1608631877  0.7268356155 -0.2776013864
H    4.9890521824  1.3980146937 -0.3979056334
C    4.1944403860 -0.5949953045  0.0584542949
H    5.0591075218 -1.1951471508  0.2626048986
C    2.8425885567 -1.0505875463  0.0869590041
C    3.3539225725  3.3747915679 -1.1267425890
C    3.7688318644  4.4661007936 -0.3705225156
C    4.6732879570  5.3730498769 -0.8941115652
C    5.1610073094  5.2113572852 -2.1803594655
H    5.8540087111  5.9303338313 -2.5915017425
C    4.7574539246  4.1235598330 -2.9370376370
C    3.8687776798  3.2053570104 -2.4105689832
N    0.0201635192 -2.0454264615 -0.0902227116
N   -2.0000831369  0.0053730009 -0.1751003580
C    2.4427024351 -2.3839803065  0.2305039745
C    1.1190315352 -2.8370132029  0.0343751122
C    0.7635126854 -4.1884082453 -0.2257219826
H    1.4398593342 -5.0207545310 -0.2168896058
C   -0.5700854999 -4.1954332434 -0.5347122501
H   -1.1649133534 -5.0382289573 -0.8256309920
C   -1.0300336959 -2.8537718561 -0.4152668903
C   -2.3560885024 -2.4152197833 -0.5815493511
C   -2.7872185252 -1.0911483244 -0.3659150128
C   -4.1606985051 -0.7185714264 -0.2594048042
H   -4.9925757469 -1.3914475378 -0.3292025337
C   -4.1931808343  0.6207889316 -0.0063278018
H   -5.0565108830  1.2332862276  0.1625678059
C   -2.8403962625  1.0751773862 -0.0000964766
C   -3.3762081813 -3.3756498232 -1.0230318653
C   -3.6369527580 -4.5646551188 -0.3438596686
C   -4.5995083688 -5.4402232901 -0.8090112571
C   -5.3156878112 -5.1490048220 -1.9586070827
H   -6.0651402560 -5.8359169932 -2.3232636287
C   -5.0689293108 -3.9679579878 -2.6397351157
C   -4.1127412884 -3.0872802745 -2.1747594594
Fe  -0.0021062469  0.0121789949  0.2392066053
C    3.4588772713 -3.4158349340  0.4909023652
C    3.3502221374 -4.2081281485  1.6328882310
C    4.5186793772 -3.6397188659 -0.3855535663
C    4.2914066572 -5.1839596286  1.9018207798
C    5.4495793879 -4.6270051657 -0.1202159911
H    4.2031168063 -5.7812208810  2.7973073214
C    5.3432000122 -5.3978214452  1.0257510683
H    6.2602241639 -4.7984276637 -0.8136374585
H    6.0739321671 -6.1657862803  1.2315061792
C   -3.5059264307  3.4429954734  0.1509534159
C   -3.5421256186  4.3511869922  1.2070323147
C   -4.4762558337  3.5310716169 -0.8463706814
C   -4.5393804289  5.3069665343  1.2726799849
C   -5.4635700476  4.4962270174 -0.7837761140
H   -4.5684424232  5.9974288858  2.1033604904
C   -5.5023389738  5.3836189280  0.2792425334
H   -6.2039053060  4.5557701883 -1.5685415361
H   -6.2780781672  6.1333886729  0.3318385047
H    4.9962440193  6.2134549257 -0.2972740807
H    5.1329596007  3.9929351627 -3.9414512410
H   -4.7962964846 -6.3563424590 -0.2709329856
H   -5.6230278575 -3.7327100357 -3.5367123386
H   -2.7955606704  4.2868426649  1.9851184293
H   -4.4364621174  2.8515970153 -1.6848981429
H    2.5314015583 -4.0371171307  2.3159616939
H    4.5905937472 -3.0537201070 -1.2902861556
H   -3.1023091066 -4.7813333571  0.5691351902
H   -3.9102698523 -2.1701452582 -2.7087236314
H    3.3882655234  4.5890387268  0.6330477857
H    3.5460204428  2.3582809088 -2.9982981797
Cl  -0.0001447942  0.0333936594  2.3787170225
78
aligned d3map frame 135
N   -0.0149849269  2.0608238109 -0.1871993191
N    2.0174639102  0.0192948161 -0.0487199451
C   -2.4287688078  2.4356465889 -0.0202598583
C   -1.1179883887  2.8686765887 -0.1766488735
C   -0.7098267569  4.2389051781 -0.2744220324
H   -1.3797948827  5.0757628136 -0.3068877019
C    0.6469280721  4.2445641796 -0.3238936239
H    1.3003709061  5.0900837967 -0.4168017665
C    1.0748687201  2.8787320087 -0.2304158913
C    2.4062629906  2.4672736357 -0.1677784317
C    2.8315939399  1.1184707197 -0.0944207200
C    4.1846989741  0.7183820134  0.0219603867
H    5.0325050678  1.3737968016  0.0339471250
C    4.1864171810 -0.6502341491  0.1428969437
H    5.0383078137 -1.2885254453  0.2674164136
C    2.8376590585 -1.0683995984  0.0888779710
C    3.4378917758  3.5138742167 -0.0664064342
C    3.4176804432  4.3860002245  1.0217315841
C    4.3886488778  5.3594542874  1.1630967674
C    5.3896352578  5.4857553847  0.2145111843
H    6.1489135482  6.2461450694  0.3237199221
C    5.4133040102  4.6309772238 -0.8761197249
C    4.4496623537  3.6492285665 -1.0150472225
N    0.0032107819 -2.0449428560 -0.1240530892
N   -2.0175074795 -0.0113123089 -0.0701360993
C    2.4121252906 -2.4178688967  0.1795191743
C    1.0985641708 -2.8472516630  0.0178665001
C    0.6970007343 -4.2227778294 -0.0515380302
H    1.3654091275 -5.0601249617  0.0025230198
C   -0.6505020569 -4.2344626999 -0.2138392663
H   -1.2980516798 -5.0850195348 -0.2990052749
C   -1.0808769550 -2.8662759694 -0.2312135155
C   -2.4109535351 -2.4547399196 -0.2226394085
C   -2.8331160269 -1.1068060756 -0.1391573553
C   -4.1878956275 -0.6984621206 -0.1456334001
H   -5.0375561498 -1.3477413277 -0.2212545541
C   -4.1896735937  0.6726680344 -0.0563615128
H   -5.0363905834  1.3306522650 -0.0432225317
C   -2.8362398842  1.0794594173 -0.0141407626
C   -3.4708413647 -3.4805530635 -0.2060409352
C   -4.2734130746 -3.6122492912  0.9265333144
C   -5.2834806680 -4.5535025530  0.9661323951
C   -5.5178915128 -5.3662640143 -0.1318891185
H   -6.3173725075 -6.0910367728 -0.1067770674
C   -4.7254259694 -5.2431142382 -1.2607007869
C   -3.7008681906 -4.3131832510 -1.2968918834
Fe  -0.0021062469  0.0121789949  0.2392066053
C    3.4199669467 -3.4362384289  0.5269557194
C    3.2864965296 -4.1106533650  1.7401256170
C    4.5016794712 -3.7342095362 -0.2965149369
C    4.2253164625 -5.0464706362  2.1305150523
C    5.4325026374 -4.6807073255  0.0933653325
H    4.1161214803 -5.5493496048  3.0803796010
C    5.3026119207 -5.3334015482  1.3079042049
H    6.2668458112 -4.9110550565 -0.5539238987
H    6.0366116856 -6.0642372756  1.6125103399
C   -3.4875089024  3.4349196480  0.2198551069
C   -4.0601597604  3.4909692006  1.4893079389
C   -3.9337224633  4.3092810964 -0.7653231286
C   -5.0498897160  4.4129952103  1.7698841008
C   -4.9381504547  5.2187080294 -0.4850016870
H   -5.4746374949  4.4552938018  2.7626541963
C   -5.4945936035  5.2763539347  0.7821545789
H   -5.2916269590  5.8849368282 -1.2584406675
H   -6.2747237470  5.9916876286  1.0003644957
H    4.3647863777  6.0183062328  2.0188738500
H    6.1889509481  4.7297263315 -1.6215399837
H   -5.8917401811 -4.6509514396  1.8530661548
H   -4.9095818260 -5.8720331680 -2.1198297155
H   -3.7076993359  2.8119369834  2.2518822781
H   -3.5053191422  4.2576542667 -1.7557243923
H    2.4495091072 -3.8752421189  2.3811947272
H    4.5970071173 -3.2353716326 -1.2497288669
H   -4.0825300006 -2.9744609053  1.7776310385
H   -3.0891920190 -4.2141249429 -2.1820446823
H    2.6439746937  4.2752671084  1.7675879315
H    4.4638135358  2.9908343935 -1.8717844478
Cl  -0.0242329474  0.0560036758  2.3793233050
78
aligned d3map frame 136
N   -0.0045652870  2.0661214269 -0.1709547021
N    2.0073772588  0.0177684174 -0.0930812169
C   -2.4330207927  2.4196552184 -0.2683734642
C   -1.1168247863  2.8548843126 -0.1520413038
C   -0.7403300519  4.2175879525  0.1008593233
H   -1.4277465232  5.0379765723  0.1708681962
C    0.6044340991  4.2327023426  0.2635202039
H    1.2269218467  5.0683527335  0.5146476803
C    1.0684520273  2.8870167949  0.0607697702
C    2.3923500999  2.4722258994  0.0654913564
C    2.7918542247  1.1248529182 -0.2050758011
C    4.0807354288  0.7627623204 -0.6436403803
H    4.8817277403  1.4427174487 -0.8580136835
C    4.0853535325 -0.6106085470 -0.7679243607
H    4.8899494988 -1.2316944616 -1.1085435854
C    2.8008484127 -1.0577943570 -0.3902381653
C    3.4795351042  3.4114152299  0.3505874672
C    4.4340885070  3.0610761268  1.3104309826
C    5.4758261890  3.9127417392  1.6158282635
C    5.5933612742  5.1306322865  0.9636764278
H    6.4092920179  5.7962806668  1.2006057582
C    4.6606286944  5.4839325440  0.0024248011
C    3.6138706456  4.6353690547 -0.3052902103
N    0.0164291656 -2.0493185499 -0.1073098871
N   -2.0100123396 -0.0099634828 -0.1102242588
C    2.4287165623 -2.4222275200 -0.2716305394
C    1.1147685766 -2.8521694049 -0.0823902610
C    0.7216742683 -4.2012539081  0.2266327442
H    1.3958619264 -5.0283357492  0.3315852673
C   -0.6222157015 -4.1952976397  0.3932348907
H   -1.2685963209 -5.0156476779  0.6384836267
C   -1.0650128788 -2.8460256368  0.1729193680
C   -2.3814285094 -2.4340639623  0.1956550000
C   -2.8127501482 -1.1094901351 -0.0890240120
C   -4.1525775349 -0.7419298831 -0.3382498661
H   -4.9807143336 -1.4200290804 -0.4023311254
C   -4.1624183766  0.6247737396 -0.4964764390
H   -5.0016113126  1.2559683875 -0.7139483081
C   -2.8283743733  1.0643162635 -0.3200613211
C   -3.4339438453 -3.3803477640  0.6257268636
C   -3.8036350417 -3.3638602440  1.9685747973
C   -4.7994156639 -4.2044966257  2.4286071569
C   -5.4428398272 -5.0645267848  1.5532841071
H   -6.2255218852 -5.7150490937  1.9145068633
C   -5.0785648823 -5.0842245601  0.2179499337
C   -4.0761591281 -4.2488129300 -0.2464196846
Fe  -0.0021062469  0.0121789949  0.2392066053
C    3.5119870541 -3.4099588856 -0.2782413963
C    4.6043514129 -3.2479409526  0.5765275657
C    3.4841281121 -4.5188114697 -1.1253275835
C    5.6330633062 -4.1697827077  0.5866530214
C    4.5208987033 -5.4329900182 -1.1183363031
H    6.4661790961 -4.0348622581  1.2614086162
C    5.5973182048 -5.2641933565 -0.2623265280
H    4.4902801204 -6.2810210184 -1.7883016884
H    6.4041529703 -5.9821735474 -0.2571503260
C   -3.5224206341  3.4116850110 -0.1812771835
C   -4.3298070771  3.4100833319  0.9549838104
C   -3.7702557562  4.3364094169 -1.1894382405
C   -5.3583430399  4.3231065443  1.0838567445
C   -4.8172464383  5.2339718523 -1.0668940438
H   -5.9679230141  4.3230830034  1.9758559781
C   -5.6090977845  5.2333021623  0.0692592480
H   -5.0179009199  5.9374391374 -1.8623659258
H   -6.4209551974  5.9391080715  0.1644831443
H    6.2007067465  3.6251693854  2.3634447389
H    4.7545404683  6.4287290131 -0.5152855369
H   -5.0739557563 -4.1839303004  3.4733688084
H   -5.5793349451 -5.7522442688 -0.4673978169
H   -4.1298262332  2.6939048618  1.7383635441
H   -3.1527606380  4.3358956016 -2.0756918559
H    4.6253256706 -2.4051587720  1.2497599787
H    2.6573084687 -4.6411095238 -1.8095635712
H   -3.3001144146 -2.6871868096  2.6426902588
H   -3.7948696732 -4.2635881776 -1.2898059912
H    4.3333123498  2.1165998721  1.8283188240
H    2.9152111041  4.9004697071 -1.0849155507
Cl  -0.0539927958  0.0302170761  2.3788254149
78
aligned d3map frame 137
N   -0.0053780689  2.0443239095 -0.2133425950
N    2.0051195508  0.0338373691 -0.1285065149
C   -2.4033521212  2.3955048114 -0.5681276914
C   -1.0477668456  2.7911478779 -0.6816428005
C   -0.5597116529  4.0488876169 -1.1061467795
H   -1.1308255512  4.8228987809 -1.5818565833
C    0.7864256203  4.0725741960 -0.8137087895
H    1.4836501926  4.8658931456 -0.9987758410
C    1.0975766493  2.8192701877 -0.2420189661
C    2.3894486473  2.4179314169  0.2403129387
C    2.7896186321  1.0881098559  0.2708484423
C    4.1000545960  0.5976620891  0.5878817345
H    4.8924579277  1.1735814138  1.0086341909
C    4.1211434815 -0.7210879203  0.2701841094
H    4.9368290990 -1.4095774918  0.3697374218
C    2.8045502138 -1.0720947602 -0.1713446246
C    3.2539616742  3.5148885709  0.6728864545
C    2.7041636355  4.4858332991  1.5178564571
C    3.4562557629  5.5625743337  1.9412354273
C    4.7716951872  5.6990166802  1.5241024444
H    5.3545644157  6.5492288740  1.8471615389
C    5.3271098455  4.7463800530  0.6847079254
C    4.5783215896  3.6635560366  0.2603051000
N    0.0084422531 -2.0316642264 -0.1469627129
N   -2.0058744510 -0.0008446318 -0.1470378359
C    2.4075614897 -2.3736486714 -0.5026180665
C    1.0623363280 -2.8048121336 -0.5410660717
C    0.5958445177 -4.1109389715 -0.8283907791
H    1.1879706064 -4.9185380844 -1.2121259220
C   -0.7464120005 -4.1263821336 -0.5302672309
H   -1.4277003828 -4.9485281523 -0.6234460482
C   -1.0851955217 -2.8218696069 -0.1033741046
C   -2.3934060297 -2.3835420087  0.2774530078
C   -2.7947296008 -1.0533668300  0.2442103585
C   -4.1180641970 -0.5672563774  0.5226114908
H   -4.9238894150 -1.1537930647  0.9162534513
C   -4.1308103013  0.7543105037  0.2172790074
H   -4.9526841899  1.4369994127  0.3063344640
C   -2.8064797711  1.1065570473 -0.2049002323
C   -3.3285204034 -3.4278251488  0.7048375945
C   -2.9335849917 -4.3130644288  1.7100019137
C   -3.8097288010 -5.2663404880  2.1904673986
C   -5.0858941090 -5.3701089158  1.6595791165
H   -5.7756470960 -6.1060669541  2.0466121466
C   -5.4719284833 -4.5264837555  0.6312210412
C   -4.6031323429 -3.5628674061  0.1549948678
Fe  -0.0021062469  0.0121789949  0.2392066053
C    3.4566317605 -3.3766509195 -0.7291393488
C    4.4443105920 -3.1506243625 -1.6888950695
C    3.4827972075 -4.5663754069 -0.0033136311
C    5.4192739496 -4.0999443436 -1.9272449583
C    4.4675788131 -5.5071455774 -0.2356706288
H    6.1698937350 -3.9209224033 -2.6831740027
C    5.4346454359 -5.2804476627 -1.2015927357
H    4.4833438514 -6.4220536203  0.3382450030
H    6.1983380583 -6.0207298757 -1.3853100577
C   -3.4139454011  3.4459694135 -0.7310987101
C   -4.5282670074  3.2653606852 -1.5502748239
C   -3.2658534393  4.6645566080 -0.0640394795
C   -5.4562649845  4.2778889568 -1.7043711173
C   -4.1968027689  5.6713266454 -0.2181553997
H   -6.3100098996  4.1282888794 -2.3484233178
C   -5.2951303656  5.4833870225 -1.0420551084
H   -4.0657909529  6.6058092561  0.3076421429
H   -6.0208553213  6.2725670288 -1.1610836853
H    3.0171235104  6.3009428634  2.5962135734
H    6.3466216785  4.8585359324  0.3469709429
H   -3.5002950896 -5.9288556640  2.9846147147
H   -6.4585074847 -4.6205944614  0.2006481902
H   -4.6450158693  2.3340383977 -2.0851626905
H   -2.4237839899  4.8054424731  0.5965542056
H    4.4224544345 -2.2335898907 -2.2597785616
H    2.7393361407 -4.7331390386  0.7612555291
H   -1.9448239580 -4.2195655789  2.1322513305
H   -4.8962923082 -2.9240161577 -0.6653102491
H    1.6835489789  4.3717487642  1.8522937699
H    5.0028682200  2.9488821759 -0.4294151791
Cl  -0.0135466163  0.0288279811  2.3794103126
78
aligned d3map frame 138
N    0.0067613814  2.0501994776 -0.2280307699
N    2.0077434708  0.0231210159 -0.0821254246
C   -2.4082632394  2.3758246842 -0.5359714010
C   -1.0962215840  2.8256953282 -0.4194336320
C   -0.7256619068  4.2087163638 -0.3353389235
H   -1.4018780114  5.0342665696 -0.4588722618
C    0.5941282208  4.2475614077 -0.0244647442
H    1.1900919213  5.1182601867  0.1685401683
C    1.0603619358  2.8894042249  0.0079290654
C    2.3706253814  2.4694694083  0.2150993137
C    2.8045282899  1.1197665095  0.0283432986
C    4.1484867267  0.7631471327 -0.2179417773
H    4.9816869849  1.4382337334 -0.2190286532
C    4.1574182162 -0.5854006005 -0.4965499984
H    5.0024282612 -1.1890562411 -0.7624488540
C    2.8219129001 -1.0375203470 -0.3841311878
C    3.3989922540  3.4339893031  0.6185802402
C    4.1396196158  3.1668188962  1.7730745745
C    5.0805714473  4.0677974141  2.2297905544
C    5.3143335953  5.2444203402  1.5352116477
H    6.0479484556  5.9509229814  1.8956897844
C    4.6088297355  5.5037916476  0.3711149215
C    3.6594085763  4.6074494068 -0.0864267829
N    0.0070553061 -2.0340522558 -0.1664770698
N   -2.0104974622 -0.0254515341 -0.0986341572
C    2.4050893882 -2.3806868379 -0.5450596634
C    1.0905035529 -2.8258565579 -0.3783900279
C    0.6989111211 -4.2051859356 -0.2757385304
H    1.3579734442 -5.0424827310 -0.3974899503
C   -0.6200789032 -4.2219085740  0.0412714777
H   -1.2521662989 -5.0736138962  0.2028289523
C   -1.0556559200 -2.8551135489  0.0934219981
C   -2.3663506834 -2.4430393148  0.2749716524
C   -2.8182014816 -1.1094660120  0.0728415062
C   -4.1730582441 -0.7265299322 -0.0518315293
H   -5.0168808250 -1.3800429577  0.0499527236
C   -4.1796014487  0.6187314611 -0.3379930676
H   -5.0292737692  1.2486979975 -0.5150277552
C   -2.8285973676  1.0421474819 -0.3467885139
C   -3.3664614169 -3.4540383282  0.6749711277
C   -3.3635512229 -3.9035271896  1.9929387712
C   -4.3003823670 -4.8274409082  2.4173678742
C   -5.2396734217 -5.3241429491  1.5288764677
H   -5.9701234712 -6.0466581960  1.8619662868
C   -5.2379108242 -4.8923243204  0.2131155995
C   -4.3102598969 -3.9578222456 -0.2127685196
Fe  -0.0021062469  0.0121789949  0.2392066053
C    3.4203064316 -3.3996411043 -0.8534993898
C    4.5021756162 -3.6330090497 -0.0072404978
C    3.2905763480 -4.1731046424 -2.0073425130
C    5.4231591976 -4.6214656044 -0.3038437856
C    4.2210725831 -5.1495997517 -2.3073341362
H    6.2488409274 -4.8023406832  0.3691391562
C    5.2879220246 -5.3819069963 -1.4535442054
H    4.1122935556 -5.7344891518 -3.2090686428
H    6.0069491713 -6.1546390197 -1.6827505376
C   -3.4537722478  3.3879700757 -0.8074305439
C   -4.2615414165  3.8740097836  0.2146147639
C   -3.6289533223  3.8697014672 -2.1003912913
C   -5.2221030141  4.8327840443 -0.0529061752
C   -4.6012553119  4.8166382316 -2.3670476440
H   -5.8356593864  5.2139410227  0.7503244234
C   -5.3965622308  5.3040022658 -1.3436018945
H   -4.7368271675  5.1763919135 -3.3767820218
H   -6.1497681250  6.0493482978 -1.5517953195
H    5.6330396584  3.8541462436  3.1332012764
H    4.8005017074  6.4085693987 -0.1848577929
H   -4.2977875223 -5.1593358061  3.4453374152
H   -5.9636660414 -5.2839055155 -0.4848289909
H   -4.1234297663  3.5040371591  1.2202085416
H   -3.0032694000  3.4898927144 -2.8950285440
H    4.5993153700 -3.0537777484  0.8990144929
H    2.4606545865 -3.9890246349 -2.6744192122
H   -2.6300000379 -3.5101290404  2.6811486021
H   -4.3056282200 -3.6230938645 -1.2400699782
H    3.9461987561  2.2559023825  2.3195706902
H    3.1393809771  4.7989129399 -1.0134696674
Cl  -0.0149415069  0.0390206498  2.3784591954
78
aligned d3map frame 139
N   -0.0304672498  2.0506341271 -0.2243899322
N    2.0060797021 -0.0124773736 -0.0961685074
C   -2.4182275884  2.4429807089  0.1261201690
C   -1.1091847793  2.8769350243 -0.0774482455
C   -0.6815282385  4.2377620254 -0.2219895542
H   -1.3102279919  5.1000604055 -0.1199674816
C    0.6454881295  4.2113821815 -0.5134957927
H    1.2957439797  5.0414522733 -0.7095513492
C    1.0536433094  2.8385127453 -0.4728233209
C    2.3659597935  2.3906928324 -0.5865173089
C    2.8027483967  1.0755838780 -0.3102205089
C    4.1602520314  0.7116152799 -0.1430904420
H    4.9975415567  1.3756207861 -0.2323752119
C    4.1787738714 -0.6229413177  0.1865155003
H    5.0360058727 -1.2203283618  0.4240354680
C    2.8356427664 -1.0667470645  0.1665349420
C    3.4172327828  3.3398741769 -1.0110405890
C    3.9126549599  4.3313631751 -0.1682706158
C    4.9156649830  5.1791446753 -0.6030187414
C    5.4244599377  5.0558584623 -1.8863398475
H    6.2058560653  5.7207313458 -2.2259180037
C    4.9346506647  4.0738803503 -2.7320520934
C    3.9425769170  3.2142951115 -2.2942575702
N    0.0349088066 -2.0333301562 -0.1629413553
N   -2.0073646249  0.0052636414 -0.1153398887
C    2.4172676598 -2.4190564439  0.2735653027
C    1.1107606312 -2.8459580509  0.0303804919
C    0.7163112877 -4.2077585441 -0.1890774943
H    1.3706295049 -5.0549295953 -0.1225689294
C   -0.5981897835 -4.1908110600 -0.5280478770
H   -1.2273873156 -5.0278255419 -0.7611162904
C   -1.0262117415 -2.8219742923 -0.4852437238
C   -2.3495334305 -2.3967715898 -0.6189662550
C   -2.8006941540 -1.0743639012 -0.3990585810
C   -4.1531053832 -0.6583439295 -0.4652545564
H   -4.9887230032 -1.2868683555 -0.7011041841
C   -4.1731174498  0.6874149623 -0.1851946246
H   -5.0283006098  1.3342884511 -0.1587611832
C   -2.8289656775  1.0850732090  0.0101101804
C   -3.3567643369 -3.4059652540 -0.9859188873
C   -4.4085959981 -3.7226114628 -0.1289407391
C   -5.3537374353 -4.6600892535 -0.5017958826
C   -5.2710683210 -5.2840905794 -1.7364966213
H   -6.0192716991 -6.0057209530 -2.0258569872
C   -4.2269536139 -4.9777490826 -2.5930084010
C   -3.2710827342 -4.0515573783 -2.2180476743
Fe  -0.0021062469  0.0121789949  0.2392066053
C    3.4307746725 -3.4467965120  0.5455766018
C    4.5388408411 -3.6210967126 -0.2830021025
C    3.2751097634 -4.2905371942  1.6466668132
C    5.4741583178 -4.6035920303 -0.0106686386
C    4.2164052232 -5.2646680880  1.9215341286
H    6.3228510409 -4.7327209626 -0.6685918727
C    5.3221366280 -5.4244787377  1.0949763345
H    4.0898540917 -5.9029383482  2.7831937685
H    6.0571502882 -6.1859677254  1.3103417491
C   -3.4811022634  3.4249185510  0.3801678731
C   -3.7667604607  4.4546316642 -0.5137404476
C   -4.2415374358  3.3157744373  1.5459632798
C   -4.7746067787  5.3611357858 -0.2408527605
C   -5.2374684801  4.2320789401  1.8211392508
H   -4.9944921343  6.1494825999 -0.9457674857
C   -5.5067424774  5.2597162760  0.9303791322
H   -5.8070053793  4.1425525336  2.7336856533
H   -6.2893778772  5.9697750283  1.1500477558
H    5.3082793957  5.9363659632  0.0625750494
H    5.3237278787  3.9708556117 -3.7344255573
H   -6.1611613249 -4.9034000382  0.1729752266
H   -4.1572490191 -5.4587967463 -3.5582086223
H   -3.2196369997  4.5182029629 -1.4445047723
H   -4.0264812859  2.5145255890  2.2358352914
H    4.6472657793 -2.9993009492 -1.1598450944
H    2.4172525758 -4.1595958490  2.2968089790
H   -4.4657529868 -3.2419740288  0.8357684218
H   -2.4600611458 -3.8002404204 -2.8851275215
H    3.5199705096  4.4176759781  0.8350126670
H    3.5612042059  2.4415726321 -2.9471148101
Cl  -0.0267251210  0.0701057565  2.3780546298
78
aligned d3map frame 140
N   -0.0062868947  2.0523673786 -0.2216412016
N    2.0080506210  0.0279343674 -0.0924038833
C   -2.4041150798  2.3781635294 -0.6175019861
C   -1.0935431539  2.8344606205 -0.4683585544
C   -0.6907119460  4.2091786644 -0.5303490042
H   -1.3407413787  5.0379301417 -0.7321342161
C    0.6404838931  4.2433464643 -0.2659820623
H    1.2736527269  5.1056575547 -0.1894085284
C    1.0728259270  2.8851562834 -0.1091354561
C    2.3888071722  2.4734680847  0.0849196817
C    2.8151914862  1.1206505667  0.0495262393
C    4.1718551183  0.7240521770 -0.0031713796
H    5.0193180979  1.3758163451  0.0716672336
C    4.1806321851 -0.6373482562 -0.1912663193
H    5.0388278795 -1.2756322310 -0.2607235836
C    2.8282783015 -1.0536806143 -0.2562872047
C    3.4296605838  3.5002417960  0.2611579125
C    4.1750546625  3.5317914977  1.4385387748
C    5.1345827457  4.5079215210  1.6330184549
C    5.3761943547  5.4553099733  0.6510412631
H    6.1262355463  6.2166393397  0.8036743593
C    4.6535166492  5.4183264952 -0.5306155902
C    3.6857980655  4.4507009498 -0.7259345044
N    0.0007348602 -2.0378940595 -0.1577496910
N   -2.0094985798 -0.0138517460 -0.1126428661
C    2.4151686481 -2.3990520194 -0.4160070311
C    1.0879613193 -2.8343116615 -0.3601766642
C    0.6617800328 -4.2017496228 -0.4626107606
H    1.3013987762 -5.0347387794 -0.6763851611
C   -0.6769980154 -4.2191782968 -0.2383174100
H   -1.3309941683 -5.0674770598 -0.2218113565
C   -1.0888690864 -2.8587371114 -0.0589778267
C   -2.3978082047 -2.4396973332  0.1610597675
C   -2.8259469366 -1.0926679903  0.0772203169
C   -4.1814746218 -0.6991199597 -0.0377259505
H   -5.0271966913 -1.3479773017  0.0786631741
C   -4.1784304808  0.6391442853 -0.3469202593
H   -5.0260035525  1.2751683561 -0.5200725168
C   -2.8211599802  1.0485056970 -0.3854588801
C   -3.4224637274 -3.4660472794  0.4373873942
C   -3.9419131746 -3.5675247817  1.7261104922
C   -4.8534810483 -4.5612023317  2.0374208269
C   -5.2724674644 -5.4492362400  1.0606823206
H   -5.9801658597 -6.2288601670  1.3060626784
C   -4.7829878572 -5.3355731705 -0.2312931308
C   -3.8580629145 -4.3525841175 -0.5419703776
Fe  -0.0021062469  0.0121789949  0.2392066053
C    3.4670446029 -3.4037078654 -0.6370767447
C    4.3404614163 -3.2804239556 -1.7164612749
C    3.6170843354 -4.4894194411  0.2257198325
C    5.3292038780 -4.2226076144 -1.9309141678
C    4.6108255293 -5.4257296213  0.0106213299
H    5.9918582766 -4.1178678822 -2.7780598408
C    5.4695473814 -5.2976745741 -1.0687149526
H    4.7184717701 -6.2581913269  0.6914981820
H    6.2457236905 -6.0293872238 -1.2375420059
C   -3.4217820955  3.3336839400 -1.0981869625
C   -3.9439749319  3.1499651502 -2.3787951342
C   -3.8438740219  4.4258223633 -0.3458482225
C   -4.8437486725  4.0573378048 -2.9069904849
C   -4.7593862762  5.3218217883 -0.8709244106
H   -5.2224146876  3.9147879682 -3.9103125272
C   -5.2519398514  5.1480723884 -2.1552537983
H   -5.0859043708  6.1637724949 -0.2775345342
H   -5.9526618211  5.8582765397 -2.5695182627
H    5.6965927778  4.5308534594  2.5553837810
H    4.8470524552  6.1465969941 -1.3059774834
H   -5.2347477811 -4.6463745970  3.0451756148
H   -5.1182176791 -6.0174256354 -0.9987424025
H   -3.6199092179  2.2996940094 -2.9617507586
H   -3.4619597595  4.5596744092  0.6563662456
H    4.2231755374 -2.4516811859 -2.4001593766
H    2.9637923213 -4.5778073067  1.0817597186
H   -3.6063688962 -2.8743642127  2.4837535152
H   -3.4828147565 -4.2570715755 -1.5512986673
H    3.9815781231  2.7956191434  2.2049124211
H    3.1332813953  4.4112338450 -1.6536699069
Cl  -0.0063654537 -0.0159995932  2.3795680755
78
aligned d3map frame 141
N   -0.0103592839  2.0491016743 -0.2126366524
N    2.0147177437  0.0309835227 -0.0818860427
C   -2.4472476035  2.4182377738 -0.3111874823
C   -1.0984875587  2.8090414574 -0.5186217038
C   -0.6755210877  4.0731100233 -0.9912307469
H   -1.3175435344  4.8524943779 -1.3532163207
C    0.7001576643  4.0848885300 -0.9137027999
H    1.3643319200  4.8747176896 -1.2055485222
C    1.0863136537  2.8298195273 -0.3946080100
C    2.4140791362  2.4535374174 -0.0266654293
C    2.7991492712  1.1322813690  0.1684025205
C    4.0992832017  0.6979232952  0.5964618044
H    4.8856455316  1.3430711955  0.9358251186
C    4.1129911739 -0.6558872013  0.5182228067
H    4.9121009247 -1.3222034004  0.7825381209
C    2.8135618268 -1.0676206022  0.0712656387
C    3.3671644384  3.5462171564  0.1723332848
C    2.9810587282  4.6561849728  0.9302928672
C    3.8529261113  5.7046941283  1.1455833532
C    5.1282989791  5.6722790371  0.6068066212
H    5.8108755081  6.4922771549  0.7745355233
C    5.5217985624  4.5825333204 -0.1541126449
C    4.6525844790  3.5307190714 -0.3730075382
N    0.0152237430 -2.0371200740 -0.1455401790
N   -2.0160764645  0.0081340854 -0.1003521616
C    2.4472307459 -2.3957591128 -0.1680041323
C    1.1097400131 -2.8223125245 -0.3581146953
C    0.6928447446 -4.1405763823 -0.6651002761
H    1.3326544609 -4.9555715437 -0.9401863516
C   -0.6788768786 -4.1578620395 -0.5569160461
H   -1.3282988192 -4.9997530882 -0.6921087692
C   -1.0775382972 -2.8430156053 -0.2286534026
C   -2.4025310838 -2.4178482846  0.0689607221
C   -2.8040400859 -1.0927217867  0.1299541922
C   -4.1630608978 -0.6721399943  0.3214951293
H   -4.9848695678 -1.3355720902  0.5102098525
C   -4.1852836495  0.6766470576  0.1914007929
H   -5.0298493557  1.3298049345  0.2877706644
C   -2.8412989635  1.0976418603 -0.0867069405
C   -3.3859871095 -3.4645322986  0.4077427778
C   -3.8336606894 -3.5492540727  1.7251928384
C   -4.7132029221 -4.5457828499  2.1035768110
C   -5.1661404262 -5.4652988857  1.1715939041
H   -5.8497715769 -6.2463239597  1.4692238924
C   -4.7397778612 -5.3753861606 -0.1429481490
C   -3.8534651103 -4.3839186554 -0.5255851835
Fe  -0.0021062469  0.0121789949  0.2392066053
C    3.4996939029 -3.4168137909 -0.1834213836
C    3.3840118192 -4.5802473046  0.5795642862
C    4.6382763781 -3.2479178030 -0.9742534024
C    4.3698832454 -5.5474069480  0.5419236007
C    5.6205860932 -4.2188606667 -1.0106889146
H    4.2655297527 -6.4415967155  1.1390572446
C    5.4892764079 -5.3739308257 -0.2565956313
H    6.4915011603 -4.0765606800 -1.6346249335
H    6.2557403389 -6.1337297995 -0.2903981416
C   -3.4286799014  3.5050566937 -0.2310044341
C   -3.1616657334  4.5770719254  0.6256113912
C   -4.6167580806  3.5182024434 -0.9624211777
C   -4.0584513573  5.6184882177  0.7600327428
C   -5.5098092615  4.5660042138 -0.8290844089
H   -3.8354932841  6.4324624245  1.4347289525
C   -5.2388415509  5.6164344427  0.0336678950
H   -6.4256401985  4.5666118222 -1.4032908832
H   -5.9421085800  6.4297841114  0.1383793844
H    3.5329318241  6.5515413965  1.7369844739
H    6.5138799882  4.5555894104 -0.5830684143
H   -5.0428901283 -4.6064984329  3.1306848100
H   -5.0994703712 -6.0846082029 -0.8748656759
H   -2.2496473508  4.5693904806  1.2042521595
H   -4.8235934363  2.7192894922 -1.6600999853
H    2.5257414717 -4.7063517317  1.2228423676
H    4.7324845967 -2.3584044151 -1.5801502406
H   -3.4685518497 -2.8366324697  2.4502741269
H   -3.5355721941 -4.3085218216 -1.5550941613
H    1.9939718532  4.6736693057  1.3694678182
H    4.9537069028  2.7028456664 -0.9986286507
Cl  -0.0241393754  0.0294828384  2.3791960961
78
aligned d3map frame 142
N   -0.0261531452  2.0590009667 -0.1630796418
N    2.0090327827  0.0195667726 -0.1189118918
C   -2.4373839384  2.4138589174  0.1661134569
C   -1.1037954616  2.8673715149  0.0402820245
C   -0.6998967087  4.2244397240 -0.0257563284
H   -1.3419368295  5.0739460808  0.1011829272
C    0.6461030509  4.2231678901 -0.2922280608
H    1.2926050492  5.0732902169 -0.3885522059
C    1.0477674563  2.8626646075 -0.3769603546
C    2.3799409560  2.4211530725 -0.5629316881
C    2.8079361044  1.1002863976 -0.3664559769
C    4.1797743717  0.6892500631 -0.3485182939
H    5.0214205317  1.3172089409 -0.5608403059
C    4.1994008716 -0.6258065652 -0.0053119599
H    5.0596940267 -1.2451193563  0.1533233402
C    2.8390260492 -1.0575299046  0.0809699599
C    3.3418418494  3.4553373924 -0.9705675193
C    4.4914407670  3.7568663124 -0.2416670289
C    5.3518471920  4.7534143049 -0.6668783097
C    5.0802942506  5.4686972242 -1.8216371256
H    5.7507934745  6.2496759802 -2.1477249648
C    3.9345527375  5.1854397154 -2.5501063310
C    3.0727936944  4.1933405668 -2.1272948643
N    0.0045503903 -2.0423602783 -0.0974228863
N   -2.0077720045  0.0018041975 -0.1422554639
C    2.4316091403 -2.3837358427  0.2188344292
C    1.1049631160 -2.8329166560 -0.0155363425
C    0.7553065845 -4.1712565134 -0.3213672702
H    1.4342582822 -5.0001927825 -0.3660916212
C   -0.5918200682 -4.1762416569 -0.5885211470
H   -1.1880873387 -5.0118412029 -0.8985896039
C   -1.0526443866 -2.8463647283 -0.4054299518
C   -2.3964651168 -2.4178873616 -0.4720416222
C   -2.8118851338 -1.0919331578 -0.2736794292
C   -4.1805938365 -0.7015071491 -0.1189404334
H   -5.0191935799 -1.3693722797 -0.1354626861
C   -4.1923308533  0.6403423840  0.0975990495
H   -5.0426213279  1.2684202021  0.2775431285
C   -2.8335522484  1.0832209786  0.0557312055
C   -3.4322533178 -3.4322774555 -0.7030167305
C   -3.5204295019 -4.5675415223  0.1032998447
C   -4.4994940371 -5.5162325394 -0.1220680362
C   -5.4070286085 -5.3520512961 -1.1562004687
H   -6.1710060570 -6.0948078314 -1.3311281671
C   -5.3308487897 -4.2278444219 -1.9625923157
C   -4.3554569221 -3.2755514196 -1.7385749895
Fe  -0.0021062469  0.0121789949  0.2392066053
C    3.3941749642 -3.4346287676  0.5814692570
C    4.5391336374 -3.7215417845 -0.1576167324
C    3.1196364849 -4.1991714002  1.7176551814
C    5.3942126238 -4.7336836905  0.2422916670
C    3.9791434434 -5.2031856353  2.1168946981
H    6.2752839737 -4.9506697422 -0.3438664473
C    5.1217838743 -5.4734583545  1.3806683986
H    3.7555098508 -5.7792727689  3.0028650161
H    5.7909783497 -6.2633560270  1.6882394205
C   -3.4807100259  3.4439727931  0.3183742689
C   -4.4176608411  3.6474480843 -0.6928589109
C   -3.5328635059  4.2399565156  1.4593439480
C   -5.3853877993  4.6259775418 -0.5648967593
C   -4.5117070890  5.2085370409  1.5895889876
H   -6.1001190387  4.7815609901 -1.3600646022
C   -5.4376919983  5.4063248436  0.5783728496
H   -4.5518290546  5.8148440342  2.4827270521
H   -6.1969313827  6.1678570611  0.6802983165
H    6.2338854601  4.9796210705 -0.0875863627
H    3.7114740652  5.7438742246 -3.4476789600
H   -4.5577704193 -6.3868617099  0.5149700523
H   -6.0347936688 -4.0929335554 -2.7712679862
H   -4.3662960586  3.0435080996 -1.5872900474
H   -2.8126673262  4.0803865647  2.2482981087
H    4.7396766799 -3.1754422879 -1.0678800610
H    2.2311939642 -3.9806709622  2.2918752646
H   -2.8308033156 -4.6837320142  0.9262931831
H   -4.2860657640 -2.4079877877 -2.3791225223
H    4.6886343799  3.2319839049  0.6814969584
H    2.1836563288  3.9663242130 -2.6986844910
Cl  -0.0022476891  0.0388766824  2.3786972539
78
aligned d3map frame 143
N   -0.0028323562  2.0495729389 -0.2267001276
N    2.0059729294  0.0298974431 -0.0878204344
C   -2.4029274489  2.3915200164 -0.6206006745
C   -1.0893203329  2.8358428353 -0.4521355249
C   -0.6982521127  4.2174612317 -0.3680908811
H   -1.3632243781  5.0488664802 -0.4892044726
C    0.6246283157  4.2401521322 -0.0676509890
H    1.2534944493  5.0931422939  0.0953946076
C    1.0611074064  2.8749514368  0.0033981120
C    2.3634716462  2.4565010593  0.2510293467
C    2.8046121843  1.1131804734  0.1548905293
C    4.1599557755  0.7172596730  0.1402016937
H    5.0004999522  1.3617805557  0.3085421618
C    4.1762775508 -0.6281442566 -0.1490641630
H    5.0355371584 -1.2655744683 -0.2184256851
C    2.8299123680 -1.0355212052 -0.2908130655
C    3.3929487228  3.4690494873  0.5609629507
C    3.9266457067  3.5320400530  1.8454300613
C    4.8944119075  4.4689222505  2.1529506761
C    5.3550829150  5.3396476390  1.1792920634
H    6.1117012771  6.0663209323  1.4194949588
C    4.8383007702  5.2730214005 -0.1034821445
C    3.8558356135  4.3503116992 -0.4112914780
N    0.0169381359 -2.0378768056 -0.1607999532
N   -2.0082025576  0.0011858213 -0.1044503985
C    2.4167572904 -2.3759058966 -0.5353725505
C    1.1031477062 -2.8271496318 -0.4022230756
C    0.6885071562 -4.2030852854 -0.4171051743
H    1.3223871570 -5.0384228197 -0.6404301720
C   -0.6257003971 -4.2263106725 -0.0777087266
H   -1.2464315757 -5.0882290896  0.0598263476
C   -1.0526291217 -2.8630097892  0.0401121994
C   -2.3617656367 -2.4335004023  0.2479141259
C   -2.8019103764 -1.0989787589  0.0278326392
C   -4.1433424731 -0.7557332459 -0.2451872638
H   -4.9732651183 -1.4347281842 -0.2424245985
C   -4.1521856486  0.5823146837 -0.5693802315
H   -4.9974590786  1.1637780886 -0.8784681463
C   -2.8211165808  1.0453016756 -0.4441130224
C   -3.3931683360 -3.3829908162  0.6914330032
C   -4.0427418081 -3.1099094579  1.8973690039
C   -4.9983629451 -3.9751966023  2.3919637361
C   -5.3356388304 -5.1179470030  1.6841941663
H   -6.0822813153 -5.7942054387  2.0731654773
C   -4.7156278202 -5.3846820519  0.4748795136
C   -3.7513240798 -4.5243066197 -0.0208979704
Fe  -0.0021062469  0.0121789949  0.2392066053
C    3.4767416732 -3.3240157427 -0.9083167863
C    3.7428254992 -4.4777546725 -0.1724147436
C    4.2538388045 -3.0553525906 -2.0371863873
C    4.7489043349 -5.3426579565 -0.5644497557
C    5.2522588739 -3.9253569176 -2.4293691091
H    4.9449568955 -6.2302263750  0.0175180967
C    5.5040888646 -5.0740583210 -1.6936678563
H    5.8428649542 -3.7041771290 -3.3065462678
H    6.2882695812 -5.7515510530 -1.9972744121
C   -3.4252258471  3.3820029235 -0.9866856712
C   -4.5758075117  3.5742723303 -0.2240474949
C   -3.2533755469  4.1433554850 -2.1450802998
C   -5.5332127838  4.4870906681 -0.6201399994
C   -4.2155081043  5.0493044975 -2.5419555797
H   -6.4190020257  4.6286847684 -0.0186708209
C   -5.3613038543  5.2202081611 -1.7837067781
H   -4.0734718359  5.6247722189 -3.4441760885
H   -6.1141117780  5.9248017606 -2.0904088109
H    5.2931872682  4.5219206104  3.1557377658
H    5.1998499532  5.9421671587 -0.8674303181
H   -5.4817577244 -3.7578441380  3.3338162840
H   -4.9854185036 -6.2657099054 -0.0871755080
H   -4.7000277931  3.0177513788  0.6934880628
H   -2.3641488439  3.9964443265 -2.7425481808
H    3.1818779286 -4.6750719537  0.7289593354
H    4.0574654506 -2.1607706368 -2.6088555774
H   -3.7674690195 -2.2240667711  2.4503853742
H   -3.2945956168 -4.7203418488 -0.9805512263
H    3.5606848304  2.8509143325  2.5990966440
H    3.4530068711  4.2936083482 -1.4131802585
Cl  -0.0063100460  0.0325526469  2.3786914467
78
aligned d3map frame 144
N   -0.0044029638  2.0541577893 -0.2268510726
N    2.0183145145  0.0303207271 -0.0465148743
C   -2.4263126354  2.4389165424 -0.2459316070
C   -1.1037971805  2.8642272735 -0.2760467020
C   -0.6867926340  4.2382901328 -0.3270514701
H   -1.3459456740  5.0838558031 -0.3405295964
C    0.6688025314  4.2410030483 -0.3246931916
H    1.3328408055  5.0831756752 -0.3452383762
C    1.0875979696  2.8711478768 -0.2540814428
C    2.4150837400  2.4679521555 -0.1759142604
C    2.8381355481  1.1262564872 -0.0531225633
C    4.1935526137  0.7211901496 -0.0471233112
H    5.0412338080  1.3778557555 -0.0447430334
C    4.1950272671 -0.6528306447 -0.0638697422
H    5.0441166282 -1.3075970353 -0.0667883294
C    2.8415733072 -1.0593439828 -0.0801975388
C    3.4694058963  3.4890235391 -0.3466699241
C    4.2769547707  3.8959798514  0.7094528875
C    5.2825229892  4.8235573778  0.4998834945
C    5.5042761642  5.3400672687 -0.7659897290
H    6.2997540939  6.0508458981 -0.9321039653
C    4.7016840518  4.9406392534 -1.8218535172
C    3.6843009608  4.0286847419 -1.6125178249
N    0.0046736043 -2.0404912383 -0.1622886862
N   -2.0191081463 -0.0094632870 -0.0655519336
C    2.4307223849 -2.4077659249 -0.1940011398
C    1.1159572970 -2.8380917510 -0.2167749102
C    0.7194070935 -4.2147991187 -0.2839793463
H    1.3971239744 -5.0451087639 -0.3342852547
C   -0.6355809220 -4.2362904780 -0.2479955110
H   -1.2774503164 -5.0950014610 -0.2450976964
C   -1.0759595485 -2.8696730079 -0.1903554649
C   -2.4104399711 -2.4640332006 -0.1518602573
C   -2.8322047910 -1.1108089893 -0.1109774389
C   -4.1802747726 -0.7067397776 -0.2391255527
H   -5.0265080259 -1.3588645689 -0.3233417814
C   -4.1834353666  0.6685558787 -0.2714558094
H   -5.0317252462  1.3138546462 -0.3854409498
C   -2.8386061432  1.0823184133 -0.1629500855
C   -3.4507456681 -3.5007713611 -0.2175098742
C   -4.4130768395 -3.6119955975  0.7861405467
C   -5.3814808448 -4.5963633096  0.7250838919
C   -5.4127990610 -5.4817481551 -0.3401128055
H   -6.1694415401 -6.2507473362 -0.3863171865
C   -4.4683074374 -5.3741365858 -1.3480301889
C   -3.4953827400 -4.3944396668 -1.2875520529
Fe  -0.0021062469  0.0121789949  0.2392066053
C    3.5065296828 -3.4040446303 -0.4052881534
C    4.1061378974 -4.0806794564  0.6485199694
C    3.9416032492 -3.6408925722 -1.7059645193
C    5.1321919071 -4.9777750772  0.4024964216
C    4.9660978571 -4.5371760106 -1.9474717846
H    5.5985004289 -5.4980401146  1.2263937242
C    5.5657198248 -5.2053603598 -0.8926008351
H    5.2988742858 -4.7117598449 -2.9600599394
H    6.3705037465 -5.9005156545 -1.0820599076
C   -3.4731520159  3.4674285678 -0.3591270112
C   -4.4180497061  3.6517061387  0.6473786787
C   -3.5194011946  4.2904720812 -1.4845079921
C   -5.3711828453  4.6478476670  0.5385426204
C   -4.4806733891  5.2765186335 -1.5951212072
H   -6.0884553458  4.7898643468  1.3336137829
C   -5.4051583731  5.4638131027 -0.5801624863
H   -4.5079823543  5.9027233221 -2.4750249251
H   -6.1479143543  6.2429838732 -0.6634344047
H    5.8994306636  5.1409111491  1.3278344762
H    4.8703077442  5.3361298802 -2.8128295704
H   -6.1154628869 -4.6748090533  1.5137183227
H   -4.4906487128 -6.0558531950 -2.1855735894
H   -4.3833877455  3.0246438571  1.5261489997
H   -2.8033861109  4.1359633501 -2.2786696690
H    3.7701933578 -3.8972212823  1.6584859818
H    3.4720296629 -3.1120337858 -2.5225799450
H   -4.3803385322 -2.9330483206  1.6252408832
H   -2.7736878203 -4.2995444292 -2.0862595771
H    4.1076033988  3.4889838724  1.6957542421
H    3.0572872876  3.7100888881 -2.4327182996
Cl  -0.0147517452  0.0556448303  2.3783453702
78
aligned d3map frame 145
N    0.0083853483  2.0437003841 -0.2507883502
N    2.0054326689  0.0381985488 -0.0783777529
C   -2.3941746681  2.3745188850 -0.6458007045
C   -1.0804863695  2.8173235388 -0.5168010254
C   -0.6946238948  4.2027618166 -0.4787218181
H   -1.3574459123  5.0281373797 -0.6531216479
C    0.6142274380  4.2427598488 -0.1288916669
H    1.2229209292  5.1090471033  0.0389886203
C    1.0619266941  2.8808731816 -0.0143916627
C    2.3575660256  2.4674340390  0.2762615741
C    2.8021725559  1.1175004955  0.1697983035
C    4.1572611777  0.7278795748  0.1204597748
H    5.0019754878  1.3706123382  0.2724381338
C    4.1735159399 -0.6152467205 -0.1904727439
H    5.0357244511 -1.2438870533 -0.2943857031
C    2.8270289717 -1.0239371906 -0.3151073103
C    3.3754636990  3.4579512083  0.6538031320
C    4.0155001760  3.3262675277  1.8866266108
C    4.9729805509  4.2406323785  2.2804903270
C    5.3197172079  5.2896301199  1.4439152559
H    6.0729048024  6.0004950768  1.7495684798
C    4.7015191197  5.4188933000  0.2113893850
C    3.7332544464  4.5132246562 -0.1820598208
N    0.0139996065 -2.0321471316 -0.1847971322
N   -2.0086498180 -0.0048246967 -0.0933020712
C    2.4101154588 -2.3606496374 -0.5774226042
C    1.0989634784 -2.8147932311 -0.4501206032
C    0.6810126649 -4.1896217076 -0.4985407380
H    1.3104088121 -5.0223277492 -0.7424195905
C   -0.6314010104 -4.2200788011 -0.1575301064
H   -1.2583586156 -5.0823806034 -0.0526566922
C   -1.0570887621 -2.8589490658  0.0041448061
C   -2.3559054212 -2.4342350826  0.2685235810
C   -2.8043899354 -1.0916437564  0.1070175116
C   -4.1583963295 -0.7274152689 -0.0592691017
H   -4.9989542109 -1.3875516398  0.0279603589
C   -4.1714254487  0.6095225692 -0.3956168268
H   -5.0287945611  1.2105011694 -0.6265244179
C   -2.8279342255  1.0463416051 -0.3921724488
C   -3.3663611901 -3.4051488787  0.7161054727
C   -3.9329376064 -3.2140022840  1.9765227656
C   -4.8555773938 -4.1128204638  2.4753498074
C   -5.2440191934 -5.2039802779  1.7151718368
H   -5.9680208556 -5.9047369769  2.1028072808
C   -4.7057929147 -5.3878617433  0.4522379691
C   -3.7698158484 -4.4986830995 -0.0452646107
Fe  -0.0021062469  0.0121789949  0.2392066053
C    3.4757701757 -3.2946808907 -0.9691320052
C    3.7580002483 -4.4548844868 -0.2512788865
C    4.2535471463 -2.9951911693 -2.0896901191
C    4.7842297985 -5.2929284228 -0.6488075002
C    5.2755838089 -3.8353017554 -2.4848870074
H    4.9966225484 -6.1855899806 -0.0785519280
C    5.5451369767 -4.9886443499 -1.7650939001
H    5.8675224370 -3.5881392796 -3.3539623110
H    6.3492192805 -5.6422461626 -2.0682453303
C   -3.4097902276  3.3696300188 -1.0342488729
C   -4.4474547790  3.7329136294 -0.1801511171
C   -3.3278658989  3.9686809889 -2.2902660890
C   -5.3815513455  4.6725000305 -0.5768592206
C   -4.2726441346  4.8952610364 -2.6888856547
H   -6.1760037345  4.9566900231  0.0977911588
C   -5.3017157401  5.2513634697 -1.8328514616
H   -4.2051057977  5.3409903180 -3.6706873626
H   -6.0366276220  5.9792783279 -2.1423460421
H    5.4535730328  4.1343969328  3.2419310104
H    4.9781465586  6.2278115265 -0.4492216306
H   -5.2729362153 -3.9632358693  3.4599758362
H   -5.0184422039 -6.2289385913 -0.1495078963
H   -4.5021232996  3.2908578178  0.8037392344
H   -2.5248109399  3.6864293434 -2.9555943375
H    3.1924832734 -4.6774527413  0.6415360603
H    4.0382353301 -2.0994281184 -2.6539479727
H   -3.6213162601 -2.3654094584  2.5673125462
H   -3.3709589107 -4.6323703032 -1.0403521617
H    3.7376841742  2.5095045393  2.5359585052
H    3.2705469716  4.6002006920 -1.1543182840
Cl  -0.0261594412  0.0263761435  2.3785255784
78
aligned d3map frame 146
N   -0.0361640999  2.0634827925 -0.1707555584
N    2.0036011303 -0.0038763702 -0.1195317747
C   -2.4239955349  2.4468367103  0.0843795602
C   -1.1045965862  2.8780956437  0.0888999840
C   -0.6387923959  4.2302121411  0.2529220291
H   -1.2470828318  5.0660189460  0.5366794728
C    0.6917079506  4.2235097327 -0.0070209690
H    1.3708171368  5.0543260916 -0.0003958409
C    1.0663951983  2.8582145204 -0.2434616685
C    2.3673282585  2.4221854104 -0.4699276339
C    2.7898845203  1.0786094604 -0.4240477018
C    4.1266531053  0.6607095822 -0.6174224247
H    4.9472902582  1.3048827930 -0.8663637551
C    4.1492969846 -0.6994347937 -0.4194441386
H    4.9915974594 -1.3564994931 -0.5020564633
C    2.8263137614 -1.0896202677 -0.1074991459
C    3.3977602281  3.4420883406 -0.7759968167
C    4.1248265781  4.0661210724  0.2307874509
C    5.0876920076  5.0071906199 -0.0860916361
C    5.3368837237  5.3318847373 -1.4091003297
H    6.0936426632  6.0623635852 -1.6563086298
C    4.6141799357  4.7151541269 -2.4158957237
C    3.6482683052  3.7759431908 -2.1020860555
N    0.0129949590 -2.0450941688 -0.1087566969
N   -2.0039607942 -0.0028917268 -0.1437240144
C    2.4176397063 -2.4383549176  0.1136728141
C    1.0900638885 -2.8429309695  0.1680052021
C    0.6306402313 -4.1781608483  0.4323074418
H    1.2536925572 -4.9948882748  0.7420064441
C   -0.7138250893 -4.1788167458  0.2474748770
H   -1.3928955751 -4.9974037997  0.3868830582
C   -1.0878060554 -2.8436210033 -0.1176956246
C   -2.3808188178 -2.4306420677 -0.4604522652
C   -2.7607643632 -1.0698483542 -0.5605330666
C   -4.0168023937 -0.6045756576 -1.0165927288
H   -4.7826935732 -1.2038811064 -1.4677203865
C   -4.0437861762  0.7539635246 -0.7937431277
H   -4.8438174301  1.4375088906 -1.0166665177
C   -2.7912522448  1.1008159723 -0.2443315230
C   -3.3855454136 -3.4581109255 -0.7413076425
C   -4.6785107655 -3.3812955275 -0.2193098360
C   -5.6324412325 -4.3202639005 -0.5599628125
C   -5.3137415413 -5.3664793210 -1.4115351715
H   -6.0615054353 -6.0947236843 -1.6821227558
C   -4.0245109122 -5.4762381945 -1.9070143209
C   -3.0715451077 -4.5308358656 -1.5813707554
Fe  -0.0021062469  0.0121789949  0.2392066053
C    3.4547172155 -3.4757028421  0.1590249613
C    3.3691897439 -4.5687047873 -0.7059963215
C    4.5353673741 -3.4009955735  1.0373180350
C    4.3315767585 -5.5592993398 -0.6887675656
C    5.4929267593 -4.3982914379  1.0553110861
H    4.2507429552 -6.3952321393 -1.3687671468
C    5.3960097337 -5.4798187150  0.1944863541
H    6.3190773462 -4.3342160679  1.7497390662
H    6.1465040597 -6.2560701411  0.2102440991
C   -3.5327740215  3.3627846857  0.3506151325
C   -3.6446770279  4.6143357149 -0.2574026712
C   -4.5358967955  2.9618409213  1.2401856157
C   -4.7082622763  5.4464336762  0.0398215389
C   -5.6001475095  3.7939116270  1.5300900771
H   -4.7822272333  6.4127463259 -0.4384767555
C   -5.6871347833  5.0427951313  0.9356502552
H   -6.3628982971  3.4681191075  2.2231829160
H   -6.5202507541  5.6934083808  1.1614356811
H    5.6475066093  5.4868582829  0.7027994869
H    4.8046514920  4.9651073593 -3.4491481618
H   -6.6304870504 -4.2343649513 -0.1593893032
H   -3.7670723146 -6.2979743559 -2.5585764937
H   -2.9161719376  4.9188052669 -0.9933476993
H   -4.4569378671  1.9958512014  1.7171295861
H    2.5527233594 -4.6191635510 -1.4116487616
H    4.5980428706 -2.5703401111  1.7277147186
H   -4.9211886147 -2.5883677179  0.4722642951
H   -2.0799658679 -4.5999626002 -2.0018744743
H    3.9286378842  3.8090044350  1.2614458327
H    3.0849337888  3.2912613319 -2.8857196315
Cl  -0.0023280477  0.0815729715  2.3777004504
78
aligned d3map frame 147
N   -0.0031951282  2.0492256214 -0.2217890534
N    2.0122105342  0.0262975877 -0.0651810008
C   -2.3959198406  2.4334912821  0.1894874850
C   -1.0828064328  2.8551044888 -0.0102983430
C   -0.6734045190  4.2282425571 -0.0998498691
H   -1.3223789681  5.0765417102  0.0033661011
C    0.6581963114  4.2286732569 -0.3602936372
H    1.3085644324  5.0722989966 -0.4804849332
C    1.0788088923  2.8570744793 -0.4093527347
C    2.4077375422  2.4340637127 -0.4894702836
C    2.8291969348  1.0933673319 -0.3103155883
C    4.1776765993  0.6653353224 -0.3148015765
H    5.0272189171  1.2831233386 -0.5264054580
C    4.1733138349 -0.6773760815 -0.0109668437
H    5.0160800349 -1.3358055371  0.0743206358
C    2.8211852595 -1.0555808889  0.1314240671
C    3.4433294691  3.4693835323 -0.6487305702
C    4.4037409597  3.6623896794  0.3437603638
C    5.3477940288  4.6640641011  0.2199161742
C    5.3606179802  5.4766400809 -0.9029144423
H    6.0966779702  6.2622869161 -0.9970724025
C    4.4173011945  5.2850506163 -1.8987592398
C    3.4656228567  4.2903328036 -1.7733952396
N    0.0223050671 -2.0370665469 -0.1561629109
N   -2.0153121266  0.0033900102 -0.0810695393
C    2.3915834131 -2.3952509140  0.3244155857
C    1.0950369503 -2.8432838110  0.1163866526
C    0.6702633743 -4.2121133795  0.1405265574
H    1.3056104613 -5.0510179340  0.3488301624
C   -0.6560006559 -4.2170925615 -0.1473637815
H   -1.3152040412 -5.0614068880 -0.2116941880
C   -1.0598199279 -2.8473943459 -0.3031462888
C   -2.3870379732 -2.4282264182 -0.4292056735
C   -2.8189005906 -1.0861686222 -0.2895090935
C   -4.1729029013 -0.6740932157 -0.3155369617
H   -5.0201507473 -1.3074335089 -0.4961245229
C   -4.1851693407  0.6797191202 -0.0712327695
H   -5.0478867656  1.3102789708  0.0124682511
C   -2.8373862927  1.0884389987  0.0396402443
C   -3.3980839401 -3.4747383482 -0.6466383675
C   -4.4299966034 -3.6979156081  0.2646377433
C   -5.3427216402 -4.7123442083  0.0476073025
C   -5.2491783475 -5.5129216964 -1.0798968202
H   -5.9678057635 -6.3030317649 -1.2397208467
C   -4.2287798234 -5.2968299112 -1.9901821798
C   -3.3066138365 -4.2901357836 -1.7741509207
Fe  -0.0021062469  0.0121789949  0.2392066053
C    3.4273715361 -3.3459419746  0.7732001750
C    3.9180950482 -3.2105010603  2.0703090234
C    3.9344371605 -4.3496036946 -0.0469856773
C    4.8984625970 -4.0649970541  2.5396225717
C    4.9286021151 -5.1887575601  0.4224121609
H    5.2611778945 -3.9556368325  3.5513977049
C    5.4131225679 -5.0516271812  1.7135354228
H    5.3344969343 -5.9555949146 -0.2233285068
H    6.1926993375 -5.7115447722  2.0673243990
C   -3.3661628655  3.4575092817  0.6106759989
C   -3.1173635948  4.1182964202  1.8142125637
C   -4.5090710578  3.7916877827 -0.1118927372
C   -3.9997244809  5.0657367221  2.2968249505
C   -5.3884544215  4.7443636575  0.3731005509
H   -3.7973157262  5.5557550454  3.2381703476
C   -5.1443596212  5.3758694639  1.5811076077
H   -6.2749464374  4.9896173718 -0.1884394634
H   -5.8391990769  6.1086330889  1.9642180482
H    6.0751616011  4.8166694434  1.0023346796
H    4.4318926424  5.9164440365 -2.7780369886
H   -6.1340145930 -4.8812748855  0.7658642087
H   -4.1490767142 -5.9162459214 -2.8717262425
H   -2.2308851282  3.8632247679  2.3766492288
H   -4.6916709723  3.3243085151 -1.0685524618
H    3.5115161476 -2.4374089668  2.7056846206
H    3.5649974930 -4.4536171323 -1.0564048613
H   -4.4920708819 -3.0914271665  1.1554746637
H   -2.5129098298 -4.1153227559 -2.4855771773
H    4.3849887587  3.0418115556  1.2264426904
H    2.7326345633  4.1391143219 -2.5520819164
Cl   0.0603046390  0.0697471497  2.3801658274
78
aligned d3map frame 148
N    0.0140381008  2.0655104334 -0.1481085117
N    2.0014330509  0.0330102480 -0.1329121078
C   -2.3818801507  2.3937270943 -0.5335099782
C   -1.0862995290  2.8534548546 -0.3101420747
C   -0.7033569083  4.2306647601 -0.1861743948
H   -1.3651951295  5.0685713724 -0.2808309410
C    0.6229094211  4.2498054328  0.1017173270
H    1.2298006471  5.1054082626  0.3216779591
C    1.0807995526  2.8892876369  0.0690992993
C    2.4078563605  2.4685267718  0.1562681621
C    2.8208761327  1.1191097531 -0.0470684677
C    4.1568728545  0.7303893625 -0.3019190797
H    5.0059968387  1.3839604820 -0.3307668987
C    4.1411440062 -0.6253089416 -0.5392055509
H    4.9791079350 -1.2590217745 -0.7573151548
C    2.7966955144 -1.0438686304 -0.4234405248
C    3.4738281366  3.4479372155  0.3911437945
C    4.4111861825  3.2120761950  1.3993645162
C    5.4385068986  4.1052300644  1.6310070207
C    5.5523011659  5.2529619570  0.8635189868
H    6.3578846886  5.9496881018  1.0426488185
C    4.6343735896  5.4936025297 -0.1450592894
C    3.6083282983  4.5993169009 -0.3854898262
N   -0.0022541092 -2.0476512330 -0.0854458851
N   -2.0026232453 -0.0326450436 -0.1492429483
C    2.3820936066 -2.3946727901 -0.5003237959
C    1.0836691861 -2.8447555211 -0.2909903764
C    0.6742723111 -4.2195684744 -0.2531486713
H    1.3197204146 -5.0595349574 -0.4180891449
C   -0.6548684533 -4.2301209446  0.0240232491
H   -1.3023186915 -5.0823621756  0.1178556846
C   -1.0754468723 -2.8600129685  0.1170755686
C   -2.3996172679 -2.4417302406  0.2508614674
C   -2.8307037686 -1.1044013277  0.0340845799
C   -4.1793528605 -0.6904913880 -0.0737603749
H   -5.0428046762 -1.3106871697  0.0627909072
C   -4.1601521219  0.6519559216 -0.3748135379
H   -5.0024790208  1.2991040052 -0.5261323476
C   -2.8024859813  1.0471482538 -0.4031396980
C   -3.3867871709 -3.4736539185  0.6008129994
C   -3.2136238070 -4.1795890895  1.7922987929
C   -4.1051986286 -5.1677696395  2.1612267294
C   -5.1811553243 -5.4758872160  1.3442232257
H   -5.8734427452 -6.2538525761  1.6291894745
C   -5.3546385415 -4.7888444166  0.1541285371
C   -4.4672889474 -3.7952747929 -0.2181388240
Fe  -0.0021062469  0.0121789949  0.2392066053
C    3.4239888718 -3.4029196908 -0.7811626505
C    4.0025683814 -3.4760132833 -2.0447054271
C    3.8276155113 -4.3010755550  0.2034596679
C    4.9570384880 -4.4381516338 -2.3208860731
C    4.7920264418 -5.2553253750 -0.0741262632
H    5.3866266272 -4.4989591163 -3.3100737052
C    5.3566265090 -5.3272078971 -1.3350562316
H    5.1057897262 -5.9400270491  0.7004544171
H    6.1052915388 -6.0743832435 -1.5506066035
C   -3.4121200400  3.3755257409 -0.9249299155
C   -3.9530176758  3.2984120767 -2.2075470731
C   -3.8419233365  4.3857587593 -0.0694758270
C   -4.8754593584  4.2329527848 -2.6365715492
C   -4.7813585686  5.3085864977 -0.4966104916
H   -5.2742940136  4.1728682153 -3.6397452366
C   -5.2909148214  5.2420746946 -1.7831863997
H   -5.1124541810  6.0879576152  0.1750101137
H   -6.0071313721  5.9784472553 -2.1234774464
H    6.1574258088  3.9025024091  2.4095087403
H    4.7247517167  6.3793584454 -0.7573691168
H   -3.9568061511 -5.7004380491  3.0895565109
H   -6.1857369777 -5.0324272185 -0.4932735389
H   -3.6233454361  2.5122311314 -2.8715961002
H   -3.4490651745  4.4293253811  0.9374593910
H    3.6857518827 -2.7827586658 -2.8119605023
H    3.3896846532 -4.2309569226  1.1913659093
H   -2.3803496156 -3.9318954240  2.4336210710
H   -4.5880437459 -3.2871821954 -1.1636645367
H    4.3132097674  2.3246731719  2.0061792147
H    2.9281675336  4.7711730400 -1.2066037165
Cl  -0.0245286917  0.0255267011  2.3768715518
78
aligned d3map frame 149
N   -0.0058634353  2.0518293310 -0.2245503636
N    2.0096391298  0.0226573278 -0.0856560635
C   -2.4326001861  2.3835628906 -0.5104331720
C   -1.0903689361  2.8330838490 -0.4922663460
C   -0.6685667385  4.1692798101 -0.7110665133
H   -1.3002879256  4.9933226321 -0.9750465202
C    0.6938164045  4.1928547725 -0.5247486056
H    1.3524036298  5.0378533677 -0.5859609277
C    1.0869698115  2.8665617648 -0.2325735573
C    2.4139930795  2.4448470014  0.0309062738
C    2.8109038080  1.1183663327  0.1336269932
C    4.1682151420  0.6846683240  0.2949193453
H    4.9993272398  1.3269351876  0.5140633778
C    4.1794368624 -0.6611708954  0.1199568182
H    5.0196530812 -1.3243601206  0.1880405260
C    2.8267373947 -1.0643091559 -0.1452407076
C    3.4729708995  3.4734825072  0.1029203393
C    4.0920067083  3.7725780058  1.3125201790
C    5.1160616103  4.7029581648  1.3612545603
C    5.5465326786  5.3274454231  0.2020935290
H    6.3622400955  6.0372976060  0.2368385063
C    4.9349058180  5.0332681877 -1.0059194589
C    3.8958724088  4.1211755528 -1.0549244392
N    0.0097497034 -2.0374944388 -0.1609692188
N   -2.0108940965 -0.0103609065 -0.1041408032
C    2.4344753907 -2.3825077241 -0.4200184253
C    1.0874792722 -2.8177555697 -0.4619284689
C    0.6531463821 -4.1396545360 -0.7286652344
H    1.2744379986 -4.9507795064 -1.0539766529
C   -0.7035458533 -4.1651509506 -0.5056115764
H   -1.3598741707 -5.0059920090 -0.5899320529
C   -1.0825329250 -2.8482117347 -0.1567956870
C   -2.4022188807 -2.4227679183  0.1470209289
C   -2.8112146163 -1.0976069684  0.1435289152
C   -4.1811478480 -0.6763189109  0.1895676609
H   -5.0147446138 -1.3255621337  0.3773623078
C   -4.1964044926  0.6532006874 -0.0867642080
H   -5.0474510036  1.3036004583 -0.1439730840
C   -2.8326818536  1.0653547046 -0.2648892915
C   -3.4013270797 -3.4671432838  0.4576409822
C   -3.7983268539 -3.6403485392  1.7806382054
C   -4.7012400938 -4.6327665700  2.1124701949
C   -5.2317712488 -5.4482294226  1.1273398794
H   -5.9390556208 -6.2208330644  1.3899479459
C   -4.8538904789 -5.2680555561 -0.1924530595
C   -3.9383177300 -4.2893517960 -0.5274426537
Fe  -0.0021062469  0.0121789949  0.2392066053
C    3.4954499339 -3.3692229260 -0.6524236752
C    4.4768214275 -3.1140531031 -1.6132813087
C    3.5580166658 -4.5622175129  0.0666538636
C    5.4836646164 -4.0281272070 -1.8512075321
C    4.5701365243 -5.4724964986 -0.1714861301
H    6.2326975738 -3.8165719654 -2.6013398104
C    5.5349736965 -5.2111495306 -1.1314727893
H    4.6140728584 -6.3909357306  0.3957825830
H    6.3258479600 -5.9241554766 -1.3137888519
C   -3.4842072237  3.3759337628 -0.7817999259
C   -4.3477870374  3.1972397956 -1.8628694299
C   -3.6344553500  4.5066941692  0.0196540254
C   -5.3216849447  4.1359918272 -2.1459563702
C   -4.6181954844  5.4362855434 -0.2609685611
H   -5.9762244670  3.9936926172 -2.9943395629
C   -5.4600865979  5.2600006948 -1.3477126771
H   -4.7315277625  6.3059717109  0.3702623969
H   -6.2212667993  5.9936195098 -1.5685448776
H    5.5857176921  4.9355251826  2.3091981193
H    5.2779331496  5.5068534036 -1.9118696754
H   -4.9909516125 -4.7702973250  3.1453715770
H   -5.2742212636 -5.8949988978 -0.9654647930
H   -4.2299261586  2.3255656326 -2.4890284981
H   -2.9890342854  4.6348555012  0.8759996363
H    4.4295618798 -2.1991229521 -2.1858385200
H    2.8236048369 -4.7548925132  0.8345701577
H   -3.3799174289 -3.0047224491  2.5456942500
H   -3.6446579637 -4.1432912857 -1.5563518652
H    3.7633706510  3.2747412188  2.2149865015
H    3.4194790963  3.8830450921 -1.9951708594
Cl  -0.0021962617  0.0212413959  2.3793679219
78
aligned d3map frame 150
N   -0.0129181473  2.0641050407 -0.1777081206
N    2.0174608500  0.0256196061 -0.0473983029
C   -2.4223122518  2.4389953094  0.0248444222
C   -1.1134175024  2.8744763961 -0.1035826971
C   -0.7005918293  4.2489977673 -0.1334329410
H   -1.3627378505  5.0918661658 -0.0941836803
C    0.6511711082  4.2521160734 -0.2256513227
H    1.3033178399  5.0985654033 -0.3048028619
C    1.0770658129  2.8794246273 -0.2006690563
C    2.4092300386  2.4716624376 -0.1418584211
C    2.8355167165  1.1215551025 -0.0809153827
C    4.1860115014  0.7172892513  0.0446862687
H    5.0353812977  1.3703069690  0.0712413089
C    4.1832151297 -0.6529321631  0.1564514014
H    5.0298983249 -1.2994035478  0.2778668005
C    2.8335913808 -1.0630097083  0.0950843132
C    3.4349789367  3.5189195237  0.0037455977
C    3.3731019373  4.3750570779  1.1040535992
C    4.3338486831  5.3493580544  1.2915075306
C    5.3697461809  5.4903924152  0.3821220606
H    6.1215815926  6.2508114564  0.5322069858
C    5.4355018162  4.6506965106 -0.7172969677
C    4.4782534371  3.6693987432 -0.9058860014
N   -0.0033663995 -2.0477489762 -0.1138873217
N   -2.0165261407 -0.0138439452 -0.0693973839
C    2.4065536896 -2.4103895957  0.1977041518
C    1.0964658084 -2.8429697006  0.0666212825
C    0.6931869412 -4.2195886824  0.0910557325
H    1.3620634710 -5.0510775254  0.2007151273
C   -0.6542713583 -4.2392473413 -0.0565014562
H   -1.3006673857 -5.0944051240 -0.0631358761
C   -1.0844730318 -2.8736091374 -0.1720589080
C   -2.4170104712 -2.4601659612 -0.2280766860
C   -2.8287954309 -1.1035990724 -0.2222510398
C   -4.1699818674 -0.6815969625 -0.3747585097
H   -5.0125148655 -1.3165801444 -0.5646384119
C   -4.1717302096  0.6902082176 -0.2630267568
H   -5.0114778985  1.3533863096 -0.3334977443
C   -2.8305816186  1.0812990652 -0.0709685563
C   -3.4786665623 -3.4750806160 -0.2077110813
C   -4.4586816745 -3.4304392566  0.7859281495
C   -5.4745809258 -4.3652781822  0.8161138379
C   -5.5342981598 -5.3617197441 -0.1453842609
H   -6.3346263055 -6.0864196895 -0.1259696931
C   -4.5631822551 -5.4208505872 -1.1316766139
C   -3.5424022196 -4.4888430777 -1.1636859546
Fe  -0.0021062469  0.0121789949  0.2392066053
C    3.4288036502 -3.4217184499  0.5395960241
C    3.4304718782 -3.9538164520  1.8266059510
C    4.3871838594 -3.8487147882 -0.3726656111
C    4.3804047380 -4.8872388339  2.1970190715
C    5.3267986121 -4.7949481922 -0.0028464103
H    4.3798102367 -5.2830530851  3.2020407954
C    5.3292214128 -5.3123989913  1.2819973957
H    6.0617535704 -5.1300583067 -0.7203190413
H    6.0691358375 -6.0450631553  1.5683960079
C   -3.4824228581  3.4106421446  0.3431758609
C   -4.1051166978  3.3014921387  1.5865411102
C   -3.8756929805  4.4237436693 -0.5247230642
C   -5.0853859955  4.1995357980  1.9604936550
C   -4.8723483680  5.3096646008 -0.1533823668
H   -5.5462252383  4.1144259146  2.9336583961
C   -5.4738601244  5.2049011627  1.0895890320
H   -5.1813515686  6.0861178726 -0.8378697695
H   -6.2452618564  5.9027149770  1.3793168243
H    4.2763839667  5.9988586970  2.1528303576
H    6.2383787949  4.7595401360 -1.4318952718
H   -6.2246323191 -4.3158342450  1.5917980431
H   -4.6055460854 -6.1957723123 -1.8833375443
H   -3.7929798358  2.5167425892  2.2599649866
H   -3.4159557182  4.5002211857 -1.4996407280
H    2.6883066799 -3.6163374579  2.5352567321
H    4.3838014667 -3.4450594797 -1.3747804513
H   -4.4017950941 -2.6648876698  1.5455673007
H   -2.8019984520 -4.5228044999 -1.9494826516
H    2.5751351465  4.2503518185  1.8210941984
H    4.5253091965  3.0252385022 -1.7718726933
Cl  -0.0022892608  0.0669098156  2.3786502327
78
aligned d3map frame 151
N    0.0083837342  2.0525419728 -0.2126327608
N    2.0008241470  0.0209313900 -0.1295812238
C   -2.3941218684  2.3733858311 -0.6293356478
C   -1.0919395855  2.8257589692 -0.3905612972
C   -0.7496737076  4.2017617178 -0.1680848923
H   -1.4348290937  5.0246268238 -0.2365637603
C    0.5582312897  4.2334259141  0.1929625044
H    1.1318923304  5.0893638324  0.4885851201
C    1.0492228278  2.8859464233  0.1088624958
C    2.3665480609  2.4644808528  0.2245025793
C    2.7833587069  1.1318423355 -0.1067565250
C    4.0762472950  0.8221397497 -0.5799166680
H    4.8803910228  1.5224974781 -0.6974338100
C    4.0717508005 -0.5182883928 -0.8972699350
H    4.8741562913 -1.0844465145 -1.3286839610
C    2.7848190983 -1.0130832919 -0.5768538404
C    3.4379020178  3.3808591613  0.6195425532
C    4.3228762081  2.9698664426  1.6238214727
C    5.3484549152  3.7933799069  2.0441162722
C    5.5207025693  5.0411491172  1.4639027258
H    6.3252583430  5.6829890400  1.7884322501
C    4.6635141291  5.4516921769  0.4543171882
C    3.6320654377  4.6311767897  0.0306778346
N    0.0157838878 -2.0358892240 -0.1502236774
N   -2.0042899438 -0.0203658868 -0.1442535733
C    2.3903042915 -2.3702793097 -0.6507659529
C    1.1014529159 -2.8253951251 -0.3393590094
C    0.7348898020 -4.1989613519 -0.1276641776
H    1.4108058091 -5.0306660013 -0.1866778556
C   -0.5824748190 -4.2144311118  0.1974249369
H   -1.1996864809 -5.0627010031  0.4229949117
C   -1.0397694515 -2.8524026131  0.1544346986
C   -2.3609643575 -2.4440651269  0.2352574386
C   -2.8045494595 -1.1179170096 -0.0351299312
C   -4.1511879025 -0.7592460879 -0.2830232662
H   -4.9929850792 -1.4226212509 -0.2478207737
C   -4.1531667997  0.5795801606 -0.5885200022
H   -4.9997341182  1.1749628366 -0.8658896739
C   -2.8147108384  1.0333945189 -0.4732217699
C   -3.3878519934 -3.4576280417  0.5486164915
C   -3.4701193089 -3.9637915682  1.8444927785
C   -4.4439412999 -4.8874807629  2.1712786005
C   -5.3328475773 -5.3368967695  1.2071563840
H   -6.0895704207 -6.0620735672  1.4651344328
C   -5.2422588711 -4.8546260033 -0.0875258309
C   -4.2804122480 -3.9144230319 -0.4146550259
Fe  -0.0021062469  0.0121789949  0.2392066053
C    3.3838742263 -3.3642462842 -1.0717464092
C    3.0863276154 -4.2245251166 -2.1302157549
C    4.6351400782 -3.4655002747 -0.4614451447
C    4.0198041472 -5.1379813010 -2.5815533925
C    5.5617719535 -4.3869494453 -0.9095107140
H    3.7756119859 -5.7830380890 -3.4126996978
C    5.2630178095 -5.2206578415 -1.9759650508
H    6.5267262262 -4.4574766545 -0.4272831557
H    5.9943472153 -5.9316897197 -2.3301376309
C   -3.3776718128  3.3680528317 -1.0824698778
C   -3.1171122897  4.0601561995 -2.2674682706
C   -4.5649910653  3.6260963266 -0.4027821241
C   -4.0407221312  4.9521339582 -2.7791660223
C   -5.4840064367  4.5321733340 -0.9125516663
H   -3.8345170012  5.4627612887 -3.7081326812
C   -5.2313080022  5.1875404466 -2.1061443879
H   -6.4017364789  4.7215997955 -0.3770860566
H   -5.9570482483  5.8705510823 -2.5164308737
H    6.0200527635  3.4597651953  2.8217163689
H    4.8057963012  6.4142827586 -0.0148758336
H   -4.5149967260 -5.2587144644  3.1826436915
H   -5.9218164846 -5.2097578570 -0.8463793639
H   -2.1927724542  3.8682305094 -2.7928407992
H   -4.7533449678  3.1295737075  0.5383226241
H    2.1234537468 -4.1497912885 -2.6143154573
H    4.8642179052 -2.8312665853  0.3822644532
H   -2.7742129778 -3.6088390805  2.5894510215
H   -4.2094997777 -3.5418395213 -1.4262257910
H    4.1772694727  2.0023034552  2.0813232997
H    2.9989512872  4.9365216534 -0.7937248017
Cl  -0.0276364983  0.0428223384  2.3784205153
78
aligned d3map frame 152
N   -0.0256474764  2.0397301239 -0.2646072990
N    2.0058326853  0.0073891237 -0.0958762999
C   -2.3967297293  2.4432466102  0.1745913412
C   -1.0867158984  2.8667895389 -0.0188892229
C   -0.6419000242  4.2305102492 -0.0741259752
H   -1.2508622812  5.0905325095  0.1212574400
C    0.6718432942  4.2043535296 -0.4137897102
H    1.3358441569  5.0378214945 -0.5408464488
C    1.0552256092  2.8235748268 -0.5142443734
C    2.3631459133  2.3768182289 -0.7305942663
C    2.7994017014  1.0460062791 -0.5032848881
C    4.1310648101  0.5911464895 -0.6465929306
H    4.9622754114  1.1655796178 -1.0029204433
C    4.1445351087 -0.7344829464 -0.2760933156
H    4.9835197746 -1.4018958100 -0.2665261002
C    2.8128682380 -1.0824973326  0.0416495686
C    3.3302049576  3.3583542664 -1.2374989458
C    4.5505172860  3.6128196191 -0.6119703413
C    5.4429668304  4.5157658002 -1.1590880927
C    5.1367385566  5.1813080019 -2.3353629818
H    5.8415146617  5.8778677447 -2.7647343369
C    3.9189236530  4.9524052817 -2.9545496424
C    3.0221897798  4.0546640634 -2.4085430992
N    0.0249404479 -2.0271552821 -0.2005162444
N   -2.0068910066  0.0102166054 -0.1158121975
C    2.3891604506 -2.4271660914  0.2513376158
C    1.0810039728 -2.8566927328  0.0547804477
C    0.6383469398 -4.2199624562 -0.0278873678
H    1.2436079659 -5.0813139681  0.1753872015
C   -0.6639030615 -4.1906603960 -0.4118177001
H   -1.3215072474 -5.0204477400 -0.5859002409
C   -1.0485253277 -2.8103375784 -0.4889489382
C   -2.3516299881 -2.3650715178 -0.7129508304
C   -2.7987380952 -1.0435820047 -0.4781375759
C   -4.1441027887 -0.6132827832 -0.5757595128
H   -4.9765317484 -1.2223549197 -0.8657426643
C   -4.1609432193  0.7206873766 -0.2412219278
H   -5.0090982883  1.3761407328 -0.2159288358
C   -2.8228519592  1.0955640548  0.0159124033
C   -3.3168493960 -3.3258568753 -1.2780369422
C   -4.4575058259 -3.7474970764 -0.6016862804
C   -5.3559439382 -4.6017266647 -1.2163675712
C   -5.1366900211 -5.0337246287 -2.5144507776
H   -5.8495398806 -5.6848484702 -2.9988348540
C   -3.9971960531 -4.6293578851 -3.1902582816
C   -3.0882196182 -3.7913856697 -2.5726215755
Fe  -0.0021062469  0.0121789949  0.2392066053
C    3.4504559976 -3.4033975459  0.5353756054
C    3.7208363103 -4.4651197412 -0.3258349943
C    4.2350067052 -3.2468464281  1.6782728655
C    4.7445588129 -5.3510711033 -0.0452161706
C    5.2484350651 -4.1421688741  1.9617331181
H    4.9523338627 -6.1623471123 -0.7276931514
C    5.5079965104 -5.1960487807  1.1000080696
H    5.8420793681 -4.0152219078  2.8552469291
H    6.3074984498 -5.8878515726  1.3174917270
C   -3.4504068361  3.4462232251  0.3941211061
C   -4.2367756174  3.3957112390  1.5435948088
C   -3.6965879052  4.4410132074 -0.5511452274
C   -5.2314856682  4.3332436158  1.7505684575
C   -4.7035485354  5.3663318803 -0.3479473220
H   -5.8271860727  4.2960520260  2.6512441426
C   -5.4696644193  5.3185714336  0.8052805533
H   -4.8933739535  6.1236504218 -1.0945269103
H   -6.2537543774  6.0443297625  0.9636370606
H    6.3854874338  4.7032551471 -0.6655102811
H    3.6683469620  5.4712493861 -3.8685170020
H   -6.2362153312 -4.9288131721 -0.6823939262
H   -3.8175199985 -4.9603578969 -4.2031371744
H   -4.0466920630  2.6274735224  2.2786478901
H   -3.1101020059  4.4621031685 -1.4582652791
H    3.1456963549 -4.5702965893 -1.2341021151
H    4.0273236671 -2.4244395191  2.3465065008
H   -4.6284408777 -3.4144514671  0.4118327441
H   -2.2011047349 -3.4655859390 -3.0964546157
H    4.7822361849  3.1186864733  0.3198982526
H    2.0793612451  3.8629384879 -2.8999746320
Cl  -0.0152306983  0.0627999064  2.3776105898
78
aligned d3map frame 153
N   -0.0251963182  2.0601918045 -0.1860679039
N    2.0065091569  0.0108319631 -0.0894918502
C   -2.4000351882  2.4245798825  0.2505244969
C   -1.0988166591  2.8663172095  0.0887974680
C   -0.6583573155  4.2338747893  0.1618918447
H   -1.2921477813  5.0711243094  0.3800429550
C    0.6716580888  4.2356003118 -0.0967149243
H    1.3383364013  5.0759665546 -0.1301032866
C    1.0677301821  2.8657906870 -0.2816357965
C    2.3855451671  2.4370385789 -0.4211702443
C    2.8047958154  1.0886924040 -0.3743825934
C    4.1376238888  0.6537688779 -0.5533780941
H    4.9693593927  1.2773965689 -0.8162204014
C    4.1449701095 -0.7066301074 -0.3362934247
H    4.9793620180 -1.3767950703 -0.4033476884
C    2.8162559320 -1.0775537642 -0.0363028005
C    3.4528186594  3.4543986417 -0.4981819944
C    4.3373621329  3.5932474587  0.5695413060
C    5.3484894947  4.5337711855  0.5220736180
C    5.5015671753  5.3325728943 -0.5996584716
H    6.2996786920  6.0591311066 -0.6414422764
C    4.6297504465  5.1963953663 -1.6669851415
C    3.6027374840  4.2699983068 -1.6147845192
N    0.0154414190 -2.0447660944 -0.1217557945
N   -2.0075321329  0.0031807844 -0.1109694667
C    2.4025072883 -2.4201590237  0.2427945669
C    1.0850289047 -2.8502967088  0.1654151757
C    0.6252782417 -4.2052085768  0.3144188261
H    1.2344018403 -5.0406119910  0.5973032351
C   -0.7019028978 -4.2080386259  0.0389654515
H   -1.3712246099 -5.0463701104  0.0338252124
C   -1.0842900056 -2.8453401422 -0.2005805790
C   -2.3879922598 -2.4153252444 -0.4424156232
C   -2.8067677584 -1.0691149188 -0.4067613565
C   -4.1526623200 -0.6423123488 -0.5074033509
H   -4.9897740598 -1.2724951456 -0.7360336401
C   -4.1628716806  0.7078196628 -0.2356923505
H   -5.0078561224  1.3682395227 -0.2224776559
C   -2.8234477676  1.0827756262  0.0041330994
C   -3.4226311016 -3.4429161082 -0.6875269567
C   -3.9012903240 -4.2398621043  0.3478416153
C   -4.8593194873 -5.2050907763  0.0973464415
C   -5.3439848768 -5.3906122184 -1.1870186961
H   -6.0871219153 -6.1504414127 -1.3788313767
C   -4.8735336217 -4.5994045844 -2.2212952947
C   -3.9223608084 -3.6263549206 -1.9727772857
Fe  -0.0021062469  0.0121789949  0.2392066053
C    3.4585601435 -3.3518699527  0.6480097331
C    3.6577073550 -4.5883750701  0.0357708837
C    4.2888656870 -2.9890443357  1.7126395278
C    4.6378655880 -5.4486315251  0.4963790883
C    5.2606544829 -3.8534156108  2.1742943708
H    4.7824531990 -6.4049550002  0.0143126564
C    5.4338925066 -5.0907413954  1.5707845289
H    5.8815993522 -3.5639212347  3.0082417732
H    6.1917045118 -5.7685354139  1.9338247207
C   -3.4408031073  3.3571190455  0.7182094725
C   -3.8886645302  4.4341434334 -0.0387541419
C   -3.9908679685  3.1385464241  1.9806829744
C   -4.8704464217  5.2741157956  0.4580049252
C   -4.9536569182  3.9930264614  2.4819118267
H   -5.2253712910  6.0990100149 -0.1424281131
C   -5.3997461392  5.0607189082  1.7199535536
H   -5.3557888154  3.8248850103  3.4718976475
H   -6.1585975862  5.7237949066  2.1079898142
H    6.0209330698  4.6420644754  1.3605163813
H    4.7524563891  5.8139058271 -2.5450253163
H   -5.2299779646 -5.8173880377  0.9065615194
H   -5.2472675103 -4.7406535630 -3.2248715740
H   -3.4817980717  4.5983174207 -1.0261771237
H   -3.6374581652  2.3046287462  2.5694937631
H    3.0606108317 -4.8588067128 -0.8227205235
H    4.1410779477 -2.0315593350  2.1891811696
H   -3.5243885665 -4.0871273083  1.3486914370
H   -3.5503154859 -3.0072648955 -2.7764022283
H    4.2108978543  2.9644014813  1.4383981945
H    2.9229177955  4.1605255433 -2.4471973789
Cl  -0.0122515572  0.0544969074  2.3786876867
78
aligned d3map frame 154
N   -0.0228156580  2.0538291425 -0.1971092812
N    2.0091938498  0.0171095198 -0.0819254912
C   -2.4043070487  2.4404342940  0.2502084656
C   -1.0922194680  2.8626489513  0.0411054301
C   -0.6812372517  4.2349831061 -0.0584611368
H   -1.3287182749  5.0821059343  0.0634463074
C    0.6401029505  4.2323520025 -0.3686916696
H    1.2827798717  5.0782566428 -0.5229056815
C    1.0550744381  2.8592702361 -0.4241084373
C    2.3740806746  2.4279270518 -0.5387589663
C    2.8065272154  1.0904334571 -0.3783273586
C    4.1528755105  0.6676120787 -0.4727081494
H    4.9869949303  1.2907683320 -0.7280969503
C    4.1680480238 -0.6801539743 -0.1952307439
H    5.0156534769 -1.3376989916 -0.1861958479
C    2.8276575636 -1.0624455331  0.0413187012
C    3.4106496140  3.4563601891 -0.7499657470
C    4.3622403740  3.7044469217  0.2382672824
C    5.3140448628  4.6904624420  0.0586428900
C    5.3381969527  5.4304745214 -1.1135556921
H    6.0840072147  6.1995591683 -1.2525381899
C    4.4027624007  5.1809715854 -2.1061786869
C    3.4375080642  4.2073358222 -1.9226887982
N    0.0334960387 -2.0426249511 -0.1293862562
N   -2.0119286819  0.0255294145 -0.0998699867
C    2.4176596822 -2.4114380240  0.2555144990
C    1.1049350257 -2.8529682614  0.1169234715
C    0.6621302257 -4.2187257614  0.1816818683
H    1.2869462992 -5.0633219473  0.3990802605
C   -0.6705479259 -4.2163019400 -0.0714230391
H   -1.3363669185 -5.0563164369 -0.1137121473
C   -1.0660268943 -2.8448639535 -0.2311885124
C   -2.3782654697 -2.4102555981 -0.3803373395
C   -2.8113184627 -1.0687606253 -0.2876596183
C   -4.1700501383 -0.6778553012 -0.2508269677
H   -5.0095276315 -1.3340620646 -0.3766929643
C   -4.1879997743  0.6765508975 -0.0033166232
H   -5.0520350631  1.3021543649  0.1156994582
C   -2.8402298793  1.0969129203  0.0668012581
C   -3.4193394922 -3.4523883245 -0.5450811593
C   -3.9395525778 -4.1141020134  0.5629138819
C   -4.8820659237 -5.1146624456  0.3999212792
C   -5.3082303660 -5.4691497860 -0.8690060261
H   -6.0360755237 -6.2566593951 -0.9954523622
C   -4.8014653670 -4.8065785567 -1.9748114142
C   -3.8655018681 -3.7987402777 -1.8153945943
Fe  -0.0021062469  0.0121789949  0.2392066053
C    3.4761624134 -3.3658161579  0.6077058387
C    4.2421847904 -3.1246022347  1.7492654804
C    3.7484859269 -4.4984098569 -0.1571479680
C    5.2381778529 -4.0046739030  2.1251337031
C    4.7568032203 -5.3683624389  0.2153017688
H    5.8136082649 -3.8118868143  3.0189228419
C    5.5008513862 -5.1292029775  1.3590918385
H    4.9672798659 -6.2363992474 -0.3924392674
H    6.2864593472 -5.8112956307  1.6498451710
C   -3.3629514964  3.4563440761  0.7138496307
C   -3.0907775067  4.0875392701  1.9306037665
C   -4.5108569189  3.8193758041  0.0103123000
C   -3.9595450959  5.0312144300  2.4434795038
C   -5.3746947829  4.7659138950  0.5268401886
H   -3.7399355843  5.5024977642  3.3915374658
C   -5.1090689165  5.3708504769  1.7451896070
H   -6.2612121062  5.0412855719 -0.0291425977
H   -5.7866467036  6.1112239658  2.1479610318
H    6.0381111060  4.8866658019  0.8367712635
H    4.4193952392  5.7552539402 -3.0235641340
H   -5.2803255255 -5.6228347217  1.2667353632
H   -5.1346803759 -5.0750442447 -2.9667481470
H   -2.2021635010  3.8076208721  2.4825716750
H   -4.7076122279  3.3732687045 -0.9538147807
H    4.0328659152 -2.2507203386  2.3481371665
H    3.1873568165 -4.6751238147 -1.0634112644
H   -3.5957509093 -3.8387327394  1.5492150569
H   -3.4688704862 -3.2770077280 -2.6771742200
H    4.3334111611  3.1316046647  1.1541071026
H    2.7070821901  4.0104603687 -2.6964377633
Cl  -0.0176215854  0.0218427972  2.3805674013
78
aligned d3map frame 155
N   -0.0069691830  2.0567436015 -0.1899326798
N    2.0113420338  0.0255259995 -0.0866317126
C   -2.4430363797  2.3946643382 -0.4072672448
C   -1.0995548255  2.8293704019 -0.4546063059
C   -0.6853339335  4.1499005124 -0.7642841363
H   -1.3248652738  4.9532870058 -1.0559424374
C    0.6794159469  4.1767196828 -0.6412578069
H    1.3326399840  5.0106495937 -0.8097985547
C    1.0836170565  2.8682155229 -0.2759820356
C    2.4282770258  2.4539791383 -0.1169355348
C    2.8302227786  1.1201475632 -0.0013363813
C    4.1893892550  0.6921154891  0.1161740659
H    5.0338135140  1.3367525079  0.2608474265
C    4.1874014433 -0.6632782754  0.0295133851
H    5.0275894239 -1.3263571317  0.0563620680
C    2.8247649936 -1.0733452501 -0.0999490306
C    3.4739962018  3.4827884643 -0.1939741739
C    3.4667494818  4.5851470166  0.6596125997
C    4.4644108314  5.5384698232  0.5807340581
C    5.4794378020  5.4138322176 -0.3529776124
H    6.2589429348  6.1619122827 -0.4092493152
C    5.4888473641  4.3317292320 -1.2164567658
C    4.4943235928  3.3761569625 -1.1391811467
N    0.0034696130 -2.0434302751 -0.1264729173
N   -2.0138636234 -0.0128905847 -0.1066825615
C    2.4289552186 -2.4017060879 -0.2478755198
C    1.0946692962 -2.8423423366 -0.2930634294
C    0.6893912931 -4.1977237071 -0.4162716284
H    1.3536097650 -5.0259227158 -0.5774770002
C   -0.6748153719 -4.2139548715 -0.2829396233
H   -1.3337342915 -5.0592692791 -0.3139012231
C   -1.0816338221 -2.8673613262 -0.0994554684
C   -2.4084662515 -2.4356364423  0.1017456784
C   -2.8151655994 -1.1049431420  0.1031046684
C   -4.1804235449 -0.6873447573  0.2080234404
H   -5.0119602545 -1.3410987189  0.3884846619
C   -4.1964225373  0.6588125612  0.0237423836
H   -5.0445934369  1.3142530737  0.0510087879
C   -2.8407256370  1.0721946042 -0.1824418712
C   -3.4484414860 -3.4679072683  0.3143150851
C   -3.7649067190 -3.8571150101  1.6116764480
C   -4.7532042155 -4.7990568258  1.8350321899
C   -5.4343267328 -5.3594997342  0.7671518697
H   -6.2117337098 -6.0879630726  0.9437134103
C   -5.1157576671 -4.9828391134 -0.5262482318
C   -4.1264604271 -4.0420817656 -0.7541259329
Fe  -0.0021062469  0.0121789949  0.2392066053
C    3.5141101690 -3.4078013449 -0.3157652788
C    4.0669386343 -3.7639761067 -1.5407203808
C    4.0343645090 -3.9551120222  0.8513262107
C    5.1479865719 -4.6273403333 -1.5928303405
C    5.1123023910 -4.8213743380  0.7949304498
H    5.5808464870 -4.8861316305 -2.5481525978
C    5.6841315486 -5.1463973287 -0.4253217225
H    5.5151518310 -5.2326261905  1.7083998701
H    6.5429298835 -5.8018379200 -0.4650285044
C   -3.4893348006  3.4090878899 -0.5946707612
C   -4.4539501858  3.2541474254 -1.5905255699
C   -3.5295428236  4.5501628610  0.2064589151
C   -5.4176262754  4.2239938931 -1.7923562606
C   -4.5030211835  5.5107909806  0.0092324392
H   -6.1471810286  4.0963685339 -2.5775656288
C   -5.4451770342  5.3553331882 -0.9942715862
H   -4.5276468933  6.3851202065  0.6418940390
H   -6.1975293641  6.1139860985 -1.1524491480
H    4.4527981691  6.3844352358  1.2517649511
H    6.2712926473  4.2320006645 -1.9525385107
H   -4.9939431856 -5.0919981620  2.8456391075
H   -5.6429392984 -5.4192374728 -1.3619704123
H   -4.4232918206  2.3770320578 -2.2179404691
H   -2.8044439066  4.6636206136  0.9986706023
H    3.6475227277 -3.3488902885 -2.4462359682
H    3.5987978490 -3.6875021872  1.8032659491
H   -3.2324201309 -3.4140418659  2.4407769443
H   -3.8773889030 -3.7416950893 -1.7613242412
H    2.6846308962  4.6769245392  1.4015977452
H    4.4873742807  2.5473514421 -1.8318340300
Cl  -0.0330255143  0.0384837616  2.3797231013
78
aligned d3map frame 156
N   -0.0174488843  2.0588201922 -0.1733850939
N    2.0050344523  0.0306926035 -0.1171016774
C   -2.3955561930  2.3933388572 -0.6277859404
C   -1.0993791500  2.8516553954 -0.3951163283
C   -0.6938974414  4.2314153887 -0.3232812958
H   -1.3365828257  5.0690702633 -0.5072037123
C    0.6185387136  4.2432392809  0.0152577458
H    1.2587619771  5.0921070755  0.1630498861
C    1.0473461048  2.8722798082  0.0828305361
C    2.3667588499  2.4599709649  0.2074818251
C    2.8099619767  1.1305288647 -0.0733715096
C    4.1375835042  0.7633799748 -0.3759384670
H    4.9864750525  1.4157972526 -0.4054110279
C    4.1285480102 -0.5892910121 -0.6348737865
H    4.9580806501 -1.1917802210 -0.9454404201
C    2.8052080839 -1.0391936428 -0.4223205441
C    3.3481764716  3.4433519297  0.6942704298
C    3.1575809656  3.9519459250  1.9808225425
C    4.0771653493  4.8200922143  2.5394910517
C    5.1973690751  5.2005623930  1.8199518951
H    5.9225490607  5.8664555596  2.2636179166
C    5.3749412095  4.7374052361  0.5270670838
C    4.4568453282  3.8660317016 -0.0359924022
N   -0.0077915712 -2.0449092468 -0.1081713330
N   -2.0032084511 -0.0085074580 -0.1407139583
C    2.4023901362 -2.3979142825 -0.4182996624
C    1.0974682838 -2.8338869854 -0.1614008248
C    0.7381874198 -4.1805610693  0.1876218770
H    1.4228298947 -5.0033905790  0.2576795021
C   -0.5895138524 -4.1786473207  0.4656907421
H   -1.1905360455 -4.9993352478  0.8058288399
C   -1.0646850614 -2.8413522627  0.2432549166
C   -2.3844283282 -2.4175252753  0.3283731332
C   -2.8130141052 -1.0913958535  0.0157488476
C   -4.1530499097 -0.7317777556 -0.2505115302
H   -4.9970480112 -1.3919266276 -0.2219207533
C   -4.1483670846  0.6054194177 -0.5762024007
H   -4.9865063359  1.2252527707 -0.8273830062
C   -2.8047691978  1.0438553754 -0.4939321022
C   -3.4305783070 -3.3764343873  0.7055817680
C   -4.2645817353 -3.0867897238  1.7873340118
C   -5.2425766768 -3.9811015198  2.1763206122
C   -5.4174611972 -5.1681218795  1.4820460478
H   -6.1862398909 -5.8667765197  1.7823123983
C   -4.6060206072 -5.4567826008  0.3971961114
C   -3.6155710665 -4.5715129574  0.0122129350
Fe  -0.0021062469  0.0121789949  0.2392066053
C    3.4312000663 -3.4283824671 -0.6100876301
C    3.2459076986 -4.4242620474 -1.5715764691
C    4.5938240045 -3.4532656785  0.1611491001
C    4.1999929353 -5.4051773189 -1.7646905834
C    5.5429840260 -4.4378414418 -0.0315854952
H    4.0443239701 -6.1653255810 -2.5178263549
C    5.3518217548 -5.4161497407 -0.9959176039
H    6.4342879784 -4.4466068713  0.5771724800
H    6.0969040633 -6.1837089386 -1.1472952010
C   -3.4306824728  3.3822935126 -0.9810612213
C   -4.0548241409  3.3227540667 -2.2254797344
C   -3.7939792249  4.3934296604 -0.0950529457
C   -4.9925926804  4.2718677252 -2.5856351466
C   -4.7405887016  5.3347678389 -0.4531878913
H   -5.4548817195  4.2245226006 -3.5608957561
C   -5.3363398750  5.2821014438 -1.7023349322
H   -5.0136977677  6.1134697109  0.2454483197
H   -6.0646601155  6.0266960621 -1.9892230649
H    3.9226824701  5.1924651204  3.5417980119
H    6.2350971977  5.0510592731 -0.0469479789
H   -5.8741756869 -3.7536290258  3.0226773195
H   -4.7500556501 -6.3752752764 -0.1543081394
H   -3.7822942425  2.5349246633 -2.9188599125
H   -3.3314432711  4.4286905354  0.8810229115
H    2.3538587110 -4.4100910008 -2.1822319701
H    4.7311477639 -2.7096069237  0.9303507805
H   -4.1143860453 -2.1638573889  2.3291299605
H   -2.9982396839 -4.7875378056 -0.8478530789
H    2.2909272575  3.6408523190  2.5435720079
H    4.5807414435  3.5389242968 -1.0569530193
Cl  -0.0190896198  0.0834460747  2.3787542604
78
aligned d3map frame 157
N   -0.0124483076  2.0501819862 -0.2051675430
N    2.0144452178  0.0257243434 -0.0869264448
C   -2.4504282899  2.4180418300 -0.2793587925
C   -1.1011559930  2.8101989312 -0.5019507771
C   -0.6843055595  4.0734422512 -0.9770393267
H   -1.3291070107  4.8526730987 -1.3363005337
C    0.6924851427  4.0847959465 -0.9167000936
H    1.3504668696  4.8772514038 -1.2157326793
C    1.0849084915  2.8289835479 -0.4025100915
C    2.4156105965  2.4493677422 -0.0653382217
C    2.8026624546  1.1283959781  0.1369100822
C    4.1107814027  0.7020107691  0.5449950966
H    4.9024836399  1.3531361821  0.8597396604
C    4.1235572397 -0.6528416719  0.4886717906
H    4.9274534266 -1.3141999124  0.7468476302
C    2.8170835338 -1.0723944642  0.0681351555
C    3.3856405006  3.5350894257  0.0917084713
C    3.0485029794  4.6444184295  0.8724605747
C    3.9420160024  5.6820963744  1.0461289601
C    5.1861682240  5.6402119403  0.4375407782
H    5.8824012399  6.4548349813  0.5712136853
C    5.5287852672  4.5501773612 -0.3459355021
C    4.6399251272  3.5056861260 -0.5189003968
N    0.0182290495 -2.0379217141 -0.1387661492
N   -2.0158762197  0.0080487200 -0.1053076833
C    2.4486392973 -2.4018218847 -0.1466722535
C    1.1087543661 -2.8278884514 -0.3405124777
C    0.6886720897 -4.1455815200 -0.6436673349
H    1.3282799109 -4.9648356833 -0.9079007983
C   -0.6841873806 -4.1568815285 -0.5455881236
H   -1.3420254287 -4.9906827350 -0.6924918027
C   -1.0769992905 -2.8392168828 -0.2227632413
C   -2.4001823500 -2.4150422958  0.0716155453
C   -2.8036767639 -1.0931795464  0.1302837917
C   -4.1595425298 -0.6739401584  0.3469300118
H   -4.9759248984 -1.3386256413  0.5533916987
C   -4.1834360268  0.6744461011  0.2212296152
H   -5.0239127715  1.3319101028  0.3276117296
C   -2.8423422763  1.0976728535 -0.0738176568
C   -3.3708829915 -3.4762047734  0.4147072428
C   -3.6337535089 -3.7155707017  1.7602525363
C   -4.4883555730 -4.7357268026  2.1365224195
C   -5.0960919513 -5.5219116995  1.1723644555
H   -5.7583497515 -6.3233674796  1.4641564121
C   -4.8511081653 -5.2772775132 -0.1684079254
C   -3.9907197415 -4.2622592302 -0.5488905123
Fe  -0.0021062469  0.0121789949  0.2392066053
C    3.4878943418 -3.4355882758 -0.1249430768
C    3.3413813470 -4.5753209777  0.6692989370
C    4.6370150119 -3.3120498850 -0.9064949756
C    4.3046005366 -5.5645552101  0.6668591306
C    5.5971461701 -4.3064145002 -0.9094839372
H    4.1753137998 -6.4380475432  1.2891527917
C    5.4327771581 -5.4387976075 -0.1285889331
H    6.4771249914 -4.2009204501 -1.5276507394
H    6.1803907449 -6.2184004032 -0.1386763639
C   -3.4238315622  3.5095552882 -0.1692190371
C   -3.1503727728  4.5491285639  0.7238521604
C   -4.6062449991  3.5577638748 -0.9059986453
C   -4.0387769778  5.5919271518  0.8912998080
C   -5.4870863654  4.6124582634 -0.7466593750
H   -3.8145703668  6.3765137989  1.5989526238
C   -5.2122574037  5.6278788343  0.1548079355
H   -6.3945301166  4.6450456636 -1.3308059085
H   -5.9053860420  6.4457076072  0.2824967501
H    3.6661609062  6.5268855675  1.6600092191
H    6.4950132078  4.5177233906 -0.8277085562
H   -4.6739246495 -4.9153090604  3.1853914928
H   -5.3309371927 -5.8840858631 -0.9226201629
H   -2.2409148784  4.5129049338  1.3045633727
H   -4.8189634755  2.7824319570 -1.6279355948
H    2.4732450332 -4.6638079589  1.3063840333
H    4.7581772599 -2.4408661126 -1.5339553930
H   -3.1518626918 -3.1035852425  2.5087624962
H   -3.8002741014 -4.0729448652 -1.5955459151
H    2.0850783398  4.6682252013  1.3589080345
H    4.9014277276  2.6741546570 -1.1565356546
Cl  -0.0330550390  0.0123291040  2.3795756148
78
aligned d3map frame 158
N   -0.0241194979  2.0644002674 -0.1488080476
N    2.0050006700  0.0247422931 -0.1263598464
C   -2.4206410948  2.4131110080  0.2335116291
C   -1.1055523436  2.8519199672  0.1393963525
C   -0.6849881619  4.2225504693  0.2098890958
H   -1.3288787309  5.0536864059  0.4195532160
C    0.6463009411  4.2427624008 -0.0452971020
H    1.3015228200  5.0914230228 -0.0611180841
C    1.0565238068  2.8819755026 -0.2557966018
C    2.3753732252  2.4620952304 -0.4280905884
C    2.7989325164  1.1053190784 -0.3902639534
C    4.1371998109  0.6829833053 -0.5633279378
H    4.9655749772  1.3094130937 -0.8277511185
C    4.1588019860 -0.6764806297 -0.3472566309
H    5.0070470846 -1.3317845402 -0.3767084190
C    2.8264425073 -1.0673963319 -0.0900134601
C    3.4136035794  3.4931929457 -0.5677086115
C    4.4777094837  3.5530066080  0.3346555844
C    5.4493112491  4.5269224831  0.2137224307
C    5.3866082638  5.4530159189 -0.8166082719
H    6.1477691189  6.2100592046 -0.9163452138
C    4.3379657498  5.3982654134 -1.7213985117
C    3.3529009254  4.4349275786 -1.5948779343
N    0.0031032613 -2.0489389350 -0.0822063266
N   -2.0045946885  0.0033640122 -0.1496174038
C    2.4170138047 -2.4095435861  0.1127665166
C    1.1017057270 -2.8465349963  0.0659624141
C    0.7041700634 -4.2237168951 -0.0218519506
H    1.3706084086 -5.0612008475  0.0676965662
C   -0.6266488050 -4.2351927189 -0.2846087340
H   -1.2556904314 -5.0883053581 -0.4525609647
C   -1.0649668614 -2.8661884219 -0.2987527014
C   -2.3688188081 -2.4288852155 -0.5272675185
C   -2.7962936949 -1.0811429063 -0.3966581800
C   -4.1554923974 -0.6907079213 -0.3919101765
H   -4.9919297988 -1.3450345912 -0.5372111434
C   -4.1830490533  0.6584151311 -0.1173506952
H   -5.0470955048  1.2824964460 -0.0142169798
C   -2.8399503297  1.0754188402  0.0050228832
C   -3.3739559726 -3.4073397056 -0.9758304497
C   -3.7524809851 -4.5086323880 -0.2108645001
C   -4.6641408593 -5.4268474360 -0.7088989617
C   -5.2047471373 -5.2645154219 -1.9747011420
H   -5.9017595440 -5.9914115536 -2.3676480299
C   -4.8458586652 -4.1629634217 -2.7381471210
C   -3.9449487359 -3.2374385187 -2.2387542218
Fe  -0.0021062469  0.0121789949  0.2392066053
C    3.4848445269 -3.4176600554  0.2918999362
C    4.2132948932 -3.8888383353 -0.7938388276
C    3.7862513228 -3.8793902490  1.5677599438
C    5.2276959910 -4.8121386168 -0.6050906603
C    4.8120850365 -4.7899307436  1.7556066257
H    5.7873881773 -5.1753154816 -1.4553201293
C    5.5336906841 -5.2580087948  0.6699485991
H    5.0538532353 -5.1239529534  2.7527103043
H    6.3303700808 -5.9726135426  0.8177401450
C   -3.4512142674  3.4153660522  0.5597668385
C   -4.4360383643  3.7751459744 -0.3554930103
C   -3.4363633691  4.0244880965  1.8128431333
C   -5.3895717371  4.7202013842 -0.0214434408
C   -4.3972310099  4.9601558189  2.1470465713
H   -6.1441669835  4.9972386704 -0.7421981692
C   -5.3759683753  5.3106436751  1.2312138748
H   -4.3813962633  5.4177239022  3.1260612977
H   -6.1238475463  6.0448418363  1.4938838470
H    6.2613672754  4.5646538063  0.9244935002
H    4.2861909575  6.1125545545 -2.5311186519
H   -4.9528749318 -6.2772885055 -0.1070000219
H   -5.2618512725 -4.0293456559 -3.7259605586
H   -4.4368670005  3.3254925148 -1.3378109327
H   -2.6748626293  3.7448325792  2.5263701519
H    3.9782385342 -3.5319221025 -1.7861762846
H    3.2241160704 -3.5060361818  2.4119840241
H   -3.3462583547 -4.6307303403  0.7834129117
H   -3.6482090052 -2.3853619050 -2.8378560148
H    4.5163910050  2.8415440097  1.1461450677
H    2.5398802575  4.3925526519 -2.3059850462
Cl   0.0068144567  0.1021289168  2.3776152646
78
aligned d3map frame 159
N   -0.0061558668  2.0430340001 -0.2304684440
N    2.0024950381  0.0252376742 -0.1425845662
C   -2.3896594566  2.3569934048 -0.7072322354
C   -1.0401851060  2.7714557707 -0.7506316229
C   -0.5395099862  4.0148029772 -1.2142450259
H   -1.1011003875  4.7685669644 -1.7298172618
C    0.7989653385  4.0489089692 -0.8983817002
H    1.5064952503  4.8294265123 -1.1081710277
C    1.1027442212  2.8130409650 -0.2812372140
C    2.4019225322  2.4158043310  0.1821910253
C    2.7960345969  1.0847280220  0.2401426796
C    4.1036871596  0.5866916809  0.5616910970
H    4.9040819960  1.1607093381  0.9841490024
C    4.1148127076 -0.7360028667  0.2599562351
H    4.9234121088 -1.4305086572  0.3741249734
C    2.7942864190 -1.0801610884 -0.1838355122
C    3.3081001512  3.4914047919  0.5818937309
C    4.6486656739  3.5428539556  0.1963472198
C    5.4840937555  4.5329212685  0.6804789441
C    4.9957511451  5.4974898629  1.5474304315
H    5.6529043953  6.2595412088  1.9371318463
C    3.6549319690  5.4903539452  1.8953680844
C    2.8180571512  4.5043095943  1.4143099785
N    0.0016359805 -2.0288188409 -0.1672311296
N   -2.0019716576 -0.0155577792 -0.1623631803
C    2.3966078639 -2.3743784769 -0.5557334863
C    1.0448084172 -2.7812569044 -0.6271567157
C    0.5580964163 -4.0421421525 -1.0498776382
H    1.1355116367 -4.8163887825 -1.5167508559
C   -0.7917423760 -4.0578046224 -0.7725408938
H   -1.4903828175 -4.8492094778 -0.9552241920
C   -1.1075824904 -2.8001968149 -0.2126648060
C   -2.4128919030 -2.3906974380  0.2250229952
C   -2.8033736994 -1.0584278386  0.2430791867
C   -4.1193330780 -0.5498240623  0.5235131748
H   -4.9245205664 -1.1159485152  0.9481894622
C   -4.1241629866  0.7580522243  0.1615780863
H   -4.9375317280  1.4586467438  0.2277776529
C   -2.7941596095  1.0858338425 -0.2671368269
C   -3.3216915509 -3.4698687385  0.6101434472
C   -2.8415996315 -4.4733207222  1.4599078925
C   -3.6631576589 -5.5027083371  1.8706423300
C   -4.9786825806 -5.5612871407  1.4371439252
H   -5.6225432837 -6.3715492017  1.7547692616
C   -5.4585505153 -4.5903430545  0.5724526551
C   -4.6392129541 -3.5545532163  0.1605338565
Fe  -0.0021062469  0.0121789949  0.2392066053
C    3.4412468844 -3.3655617302 -0.8185166860
C    3.4061016937 -4.6281226983 -0.2242715487
C    4.5002213015 -3.0637442694 -1.6796505521
C    4.3911943165 -5.5591875056 -0.4904847102
C    5.4821579575 -3.9974143933 -1.9466954971
H    4.3520597127 -6.5293091228 -0.0196101440
C    5.4304724587 -5.2494700037 -1.3551888951
H    6.2897923643 -3.7475896631 -2.6201667895
H    6.1998649244 -5.9791159691 -1.5643633550
C   -3.4272143822  3.2948720237 -1.1434840940
C   -3.4681021718  4.6188724025 -0.7027210777
C   -4.3906148899  2.8663919073 -2.0607351951
C   -4.4272241650  5.4910999294 -1.1820571522
C   -5.3427919093  3.7433146080 -2.5413008086
H   -4.4442712778  6.5148076878 -0.8335128046
C   -5.3633442798  5.0610288190 -2.1088898454
H   -6.0702392547  3.4000205442 -3.2635316543
H   -6.1021269240  5.7495910761 -2.4900877415
H    6.5194662724  4.5503646340  0.3800135061
H    3.2623823176  6.2514433548  2.5540038484
H   -3.2768322618 -6.2666023953  2.5309346617
H   -6.4780722947 -4.6413935814  0.2077796996
H   -2.7564360110  4.9517451050  0.0391147298
H   -4.3609014070  1.8459668743 -2.4154627004
H    2.6113953494 -4.8648527900  0.4677579699
H    4.5284759214 -2.0930168061 -2.1571973457
H   -1.8239971182 -4.4181337473  1.8196494391
H   -5.0062559519 -2.8232003616 -0.5439770722
H    5.0285759853  2.8222577338 -0.5142520874
H    1.7793702543  4.4833510920  1.7057986165
Cl  -0.0415343034  0.0747592378  2.3791894368
78
aligned d3map frame 160
N   -0.0085010784  2.0517080056 -0.2112363014
N    2.0082369136  0.0373687227 -0.0944966768
C   -2.3889961166  2.3459595140 -0.7151825477
C   -1.0913155390  2.8145886474 -0.5434962563
C   -0.6811935777  4.1805986334 -0.6867803935
H   -1.3284373393  4.9911604349 -0.9596118829
C    0.6477240996  4.2269880867 -0.4110663743
H    1.2923603809  5.0842611504 -0.4306406075
C    1.0654452463  2.8835505606 -0.1266643022
C    2.3909192223  2.4813790794  0.0600216717
C    2.8209536359  1.1285392318  0.0405101494
C    4.1743957052  0.7134077318  0.0595731819
H    5.0270981231  1.3476405133  0.2028969656
C    4.1770832634 -0.6475805930 -0.1366531750
H    5.0342348635 -1.2911113042 -0.2052220086
C    2.8253329196 -1.0546135106 -0.2195345555
C    3.4010531326  3.5445946326  0.1630343238
C    3.2962402513  4.5020367943  1.1742854010
C    4.2178263363  5.5262443770  1.2695689635
C    5.2540966173  5.6218440137  0.3537571805
H    5.9645180757  6.4304106727  0.4212647902
C    5.3622836870  4.6818507232 -0.6576884803
C    4.4465346339  3.6500507669 -0.7525843633
N   -0.0235134569 -2.0386975325 -0.1482774760
N   -2.0070267713 -0.0269077238 -0.1192094742
C    2.3933279112 -2.3897609808 -0.4222637789
C    1.0725461507 -2.8257457497 -0.3343670552
C    0.6853742476 -4.2057310193 -0.2452873092
H    1.3529684483 -5.0383547088 -0.3519555812
C   -0.6384482048 -4.2288199257  0.0544541157
H   -1.2578577901 -5.0825928707  0.2404395971
C   -1.0840523674 -2.8656627369  0.0867263615
C   -2.3941624785 -2.4376138911  0.2931785620
C   -2.8219081523 -1.0988583740  0.0862693413
C   -4.1710832416 -0.7247815969 -0.1242497075
H   -5.0173839682 -1.3782617602 -0.0416355156
C   -4.1622197827  0.5999298708 -0.4919475635
H   -5.0026172317  1.2192481618 -0.7367996730
C   -2.8103513711  1.0207370397 -0.4709640536
C   -3.4299223941 -3.4054738553  0.6823883649
C   -4.1052080655 -3.2093061190  1.8872107705
C   -5.0740102826 -4.1031815562  2.3036110691
C   -5.4021089700 -5.1919271952  1.5120117271
H   -6.1770720103 -5.8858963186  1.8273269383
C   -4.7506957539 -5.3826238089  0.3037890479
C   -3.7661889701 -4.5021874298 -0.1076959709
Fe  -0.0021062469  0.0121789949  0.2392066053
C    3.4085658676 -3.4091665618 -0.7456000962
C    3.3405226188 -4.0414526274 -1.9866255955
C    4.4226113308 -3.7652238523  0.1394851924
C    4.2815431794 -4.9881168777 -2.3464048536
C    5.3539403505 -4.7236142170 -0.2194430080
H    4.2248205923 -5.4607193417 -3.3165429628
C    5.2933997798 -5.3304029514 -1.4640488883
H    6.1332421291 -5.0013300399  0.4749047739
H    6.0286373904 -6.0709047376 -1.7448803624
C   -3.4106902600  3.3024024588 -1.1928124449
C   -3.8092946746  3.2595180735 -2.5268779773
C   -3.9642039986  4.2580678813 -0.3501443984
C   -4.7287598064  4.1728303899 -3.0107705785
C   -4.8932251377  5.1632646432 -0.8337170553
H   -5.0221865537  4.1430022206 -4.0507610816
C   -5.2721997976  5.1265791308 -2.1661587463
H   -5.3282833221  5.8921530755 -0.1669270463
H   -5.9933120610  5.8400037825 -2.5485102146
H    4.1276519644  6.2572315400  2.0599733165
H    6.1616218587  4.7556317075 -1.3812485512
H   -5.5793644262 -3.9467442688  3.2450932743
H   -5.0187036908 -6.2220358001 -0.3242192515
H   -3.3810528904  2.5144973871 -3.1816221790
H   -3.6661311770  4.2840234951  0.6890244105
H    2.5504990731 -3.7691231416 -2.6715977382
H    4.4603552571 -3.3059219371  1.1167210997
H   -3.8443925849 -2.3612569818  2.5014225980
H   -3.2761972552 -4.6407510636 -1.0607075704
H    2.4929529364  4.4218917571  1.8920940536
H    4.5180381348  2.9364283067 -1.5601696020
Cl  -0.0062505109  0.0085921896  2.3789623728
78
aligned d3map frame 161
N   -0.0121748194  2.0529875714 -0.2040889098
N    2.0090433296  0.0073539736 -0.1055169300
C   -2.4426837834  2.3892863591 -0.4891581555
C   -1.0906724084  2.8127462742 -0.5555288822
C   -0.6522429897  4.0965136897 -0.9603369461
H   -1.2762712916  4.8836412507 -1.3353130988
C    0.7155137919  4.1172000372 -0.8087777901
H    1.3835196552  4.9254284223 -1.0331297787
C    1.0909256435  2.8426490125 -0.3280118809
C    2.4245949163  2.4297962245 -0.0514804018
C    2.8050975968  1.1024500422  0.1215936943
C    4.1299543742  0.6629810181  0.4518178919
H    4.9338780013  1.3026029463  0.7597819625
C    4.1400153933 -0.6895443388  0.3357765854
H    4.9557671866 -1.3579338332  0.5294302746
C    2.8175059371 -1.0907563149 -0.0487637164
C    3.4734125739  3.4550952367 -0.0605604731
C    3.3680592602  4.6137342788  0.7097348188
C    4.3690287388  5.5667973192  0.6842896124
C    5.4856662346  5.3900825915 -0.1178766912
H    6.2643104727  6.1382662693 -0.1408874658
C    5.5962300885  4.2490070661 -0.8958190454
C    4.6022584978  3.2904225599 -0.8668527912
N    0.0244397299 -2.0379703996 -0.1415991513
N   -2.0109251710 -0.0042707969 -0.1227909692
C    2.4435701799 -2.4107555461 -0.3338648412
C    1.0937438254 -2.8270042061 -0.4482237192
C    0.6403135214 -4.1314131065 -0.7673487757
H    1.2470896399 -4.9404833833 -1.1221104789
C   -0.7195535623 -4.1416312385 -0.5578721133
H   -1.4000055427 -4.9615185499 -0.6820031246
C   -1.0772607989 -2.8332223582 -0.1669134437
C   -2.3880660096 -2.4078669787  0.1796424404
C   -2.8001690388 -1.0891071641  0.1785149132
C   -4.1574170181 -0.6588722694  0.3464208178
H   -4.9767579266 -1.3036937405  0.5995482911
C   -4.1830540857  0.6739773501  0.0949598438
H   -5.0278326390  1.3334436196  0.1342534751
C   -2.8349499168  1.0767094380 -0.1983827389
C   -3.3167713433 -3.4714258966  0.6215423339
C   -3.3449037354 -3.7669172818  1.9818278103
C   -4.1330707421 -4.7987332796  2.4557709217
C   -4.9018606158 -5.5447436738  1.5773381990
H   -5.5074953928 -6.3585953911  1.9470636472
C   -4.8891327878 -5.2444090231  0.2260419103
C   -4.0997489968 -4.2122918533 -0.2537990188
Fe  -0.0021062469  0.0121789949  0.2392066053
C    3.4987101095 -3.4100361420 -0.5092337898
C    3.4409588656 -4.6550273342  0.1214513379
C    4.5866362013 -3.1393158405 -1.3453783619
C    4.4194052632 -5.6044185166 -0.1022819282
C    5.5656134986 -4.0887148759 -1.5606390899
H    4.3567644521 -6.5652348497  0.3874142201
C    5.4812587922 -5.3299155201 -0.9490880983
H    6.3959676857 -3.8630986528 -2.2143042993
H    6.2400958863 -6.0763042807 -1.1279954821
C   -3.4927556236  3.3849844798 -0.7249962369
C   -3.5078283052  4.5992830746 -0.0367669661
C   -4.5058928808  3.1331063853 -1.6535579427
C   -4.5059068778  5.5269282332 -0.2671715747
C   -5.4977897282  4.0654430600 -1.8857536574
H   -4.5087464873  6.4579971709  0.2800511416
C   -5.5037664069  5.2658476608 -1.1926523188
H   -6.2698685726  3.8571767494 -2.6120795746
H   -6.2811635739  5.9913032492 -1.3714527401
H    4.2800461799  6.4539970075  1.2933719190
H    6.4588512681  4.1071228996 -1.5306376285
H   -4.1416865504 -5.0245845986  3.5120744553
H   -5.4913782365 -5.8208655234 -0.4612582953
H   -2.7449883107  4.7956346553  0.7020856683
H   -4.4917443350  2.2066520938 -2.2098739236
H    2.6359197783 -4.8623962958  0.8112242448
H    4.6386920615 -2.1842139177 -1.8475038692
H   -2.7364814607 -3.1835241316  2.6571717170
H   -4.0852143830 -3.9816509468 -1.3092991210
H    2.5068727896  4.7481790112  1.3474897625
H    4.6779998898  2.4127072313 -1.4922485432
Cl  -0.0385028708  0.0031910467  2.3795770641
78
aligned d3map frame 162
N   -0.0245784427  2.0555890538 -0.1932677527
N    2.0117140830  0.0104762748 -0.0754828987
C   -2.4242364253  2.4302262540  0.1772826395
C   -1.1119454368  2.8599287183 -0.0400791966
C   -0.7178524198  4.2289434405 -0.1989723855
H   -1.3826305678  5.0697096856 -0.1587215532
C    0.6211062108  4.2320985496 -0.4290894104
H    1.2585194881  5.0795517363 -0.5867575029
C    1.0548013140  2.8650948951 -0.3959241312
C    2.3844185178  2.4454138029 -0.4081653372
C    2.8136134516  1.1065025185 -0.2348298909
C    4.1729366023  0.7104306455 -0.2081207005
H    5.0165465394  1.3592834101 -0.3383184313
C    4.1895374858 -0.6461096782  0.0107255497
H    5.0503373584 -1.2757615467  0.1157168015
C    2.8401999414 -1.0685521807  0.0693810659
C    3.4161107056  3.4939572831 -0.5117366329
C    4.2808795033  3.7404587954  0.5540234805
C    5.2053231708  4.7663457614  0.4801735942
C    5.2893852181  5.5501908058 -0.6600472895
H    6.0107216737  6.3527989353 -0.7149493836
C    4.4439294103  5.3020783728 -1.7304655864
C    3.5082436908  4.2861781259 -1.6550919410
N    0.0217576433 -2.0414294297 -0.1285893063
N   -2.0138896210  0.0086677417 -0.0958920528
C    2.4191266490 -2.4144304439  0.2216501208
C    1.1015677930 -2.8478771013  0.0604226553
C    0.6963178162 -4.2200125873 -0.0377401314
H    1.3546766708 -5.0622261938  0.0563769481
C   -0.6387240793 -4.2218094221 -0.2923792357
H   -1.2836204492 -5.0677695411 -0.4334481458
C   -1.0610894636 -2.8523772182 -0.3159033577
C   -2.3822982258 -2.4283801363 -0.3847111665
C   -2.8148693044 -1.0911804100 -0.2301354041
C   -4.1752229140 -0.7076197273 -0.1382026177
H   -5.0180863173 -1.3641872149 -0.2212656013
C   -4.1929890436  0.6477151132  0.0864824950
H   -5.0520133207  1.2703088470  0.2454945527
C   -2.8453126278  1.0816162169  0.0798931022
C   -3.4378978125 -3.4552802926 -0.5321666545
C   -4.1522645368 -3.8903577017  0.5801022011
C   -5.1553408506 -4.8320552264  0.4416107901
C   -5.4622450950 -5.3428138281 -0.8087060601
H   -6.2550894005 -6.0685103256 -0.9200066356
C   -4.7538061302 -4.9144991443 -1.9197735620
C   -3.7413078733 -3.9810634441 -1.7833720597
Fe  -0.0021062469  0.0121789949  0.2392066053
C    3.4284353932 -3.4302582859  0.5701835064
C    3.3179863026 -4.0865718959  1.7962861530
C    4.4891713623 -3.7533051170 -0.2727810042
C    4.2640060959 -5.0184808382  2.1827274236
C    5.4239779571 -4.6989248275  0.1100130315
H    4.1749993417 -5.5043316926  3.1441528442
C    5.3209621578 -5.3259069337  1.3421450325
H    6.2366774067 -4.9486861833 -0.5573249879
H    6.0588948072 -6.0545963124  1.6430484320
C   -3.4138034685  3.4595851916  0.5348364051
C   -3.2067941008  4.1940443610  1.7036127277
C   -4.5417052352  3.7260665420 -0.2391516249
C   -4.1206149862  5.1512202796  2.1006075304
C   -5.4474167970  4.6940485967  0.1556529178
H   -3.9552254202  5.7054121639  3.0121951266
C   -5.2438451405  5.4038641124  1.3288795249
H   -6.3142124726  4.9009087329 -0.4559859380
H   -5.9561849171  6.1545864348  1.6402246535
H    5.8590186172  4.9602715474  1.3183669022
H    4.5088090070  5.9068525132 -2.6238332871
H   -5.7030983598 -5.1663855498  1.3113821625
H   -5.0021171433 -5.2986513775 -2.9007651423
H   -2.3335405464  3.9869570322  2.3043124244
H   -4.6879110046  3.1886547462 -1.1657151679
H    2.4961574506 -3.8403238166  2.4525984504
H    4.5625437727 -3.2762458919 -1.2389374485
H   -3.9119275660 -3.4838251996  1.5517065722
H   -3.1931161408 -3.6419880562 -2.6501315881
H    4.2023316242  3.1389222669  1.4484408276
H    2.8476506823  4.0889515941 -2.4870992656
Cl  -0.0310792499  0.0430573200  2.3841786492
78
aligned d3map frame 163
N   -0.0156056075  2.0623965441 -0.1624732800
N    2.0062523533  0.0247700580 -0.1201100132
C   -2.4098221833  2.4014916849 -0.5945630404
C   -1.0784624434  2.8361265545 -0.5299817118
C   -0.6202644566  4.1563480540 -0.8246748367
H   -1.2244686863  4.9599243414 -1.1959262656
C    0.7193899770  4.1795770156 -0.5701429598
H    1.3969281542  5.0027184314 -0.6939860563
C    1.0871958378  2.8636483585 -0.1639107839
C    2.4072725920  2.4489361412  0.0839688481
C    2.8207524272  1.1079998757  0.1112539525
C    4.1643459239  0.6683605696  0.2566323803
H    5.0010171995  1.2936187775  0.4996420810
C    4.1644918535 -0.6834092732  0.0397713326
H    5.0004742611 -1.3537935854  0.0760417873
C    2.8160448942 -1.0647047506 -0.2035439157
C    3.4179818662  3.5096955690  0.2011884498
C    3.2705532969  4.5033521023  1.1697042481
C    4.2006457892  5.5209408761  1.2761669959
C    5.2839882185  5.5732749288  0.4116406933
H    6.0045294452  6.3759803134  0.4897412626
C    5.4329647591  4.5954489164 -0.5590266272
C    4.5106854693  3.5694618243 -0.6626911844
N    0.0080175729 -2.0469026695 -0.0964864166
N   -2.0063973026 -0.0002318177 -0.1407586087
C    2.4095717072 -2.3999026706 -0.4563104170
C    1.0768291975 -2.8374198960 -0.3909030569
C    0.6300002125 -4.1814328651 -0.5971620789
H    1.2409112147 -5.0047984916 -0.9066344494
C   -0.7123242047 -4.1955250960 -0.3605612169
H   -1.3822797457 -5.0319677510 -0.4123056754
C   -1.0945528329 -2.8537590676 -0.0674075606
C   -2.4148559572 -2.4236436991  0.0802506230
C   -2.8258886741 -1.0844781043  0.0603217790
C   -4.1798917875 -0.6598239413  0.1051101008
H   -5.0203792870 -1.2995542678  0.2877585220
C   -4.1776856323  0.6895469217 -0.1241552595
H   -5.0209932856  1.3505270528 -0.1459883661
C   -2.8202804425  1.0783901901 -0.2957153520
C   -3.4890870847 -3.4437505803  0.0710116126
C   -3.8019766131 -4.1875143271  1.2032020122
C   -4.8437801422 -5.0999953106  1.1661498633
C   -5.5636732572 -5.2921372202 -0.0020538484
H   -6.3759146746 -6.0038847364 -0.0269412601
C   -5.2405510298 -4.5682213957 -1.1390159386
C   -4.2138197902 -3.6432737636 -1.1017061878
Fe  -0.0021062469  0.0121789949  0.2392066053
C    3.4525191838 -3.3599839101 -0.8286145677
C    4.3264090555 -3.0453870989 -1.8737210487
C    3.5863749137 -4.5998888925 -0.2025257799
C    5.2716167649 -3.9568124351 -2.3025398719
C    4.5331313207 -5.5084068301 -0.6357629469
H    5.9297495454 -3.7040317964 -3.1207602759
C    5.3724766347 -5.1971305421 -1.6929995078
H    4.6173135459 -6.4671974459 -0.1481059910
H    6.1028793199 -5.9133425376 -2.0376440774
C   -3.4452990902  3.3338682278 -1.0512810303
C   -4.2800645747  2.9504818915 -2.1059140013
C   -3.6168197884  4.6054061167 -0.4985408671
C   -5.2333418014  3.8146375447 -2.6057374547
C   -4.5750876643  5.4674484229 -1.0003859164
H   -5.8616381000  3.5006481387 -3.4266768375
C   -5.3820817350  5.0811497186 -2.0583852996
H   -4.6934523050  6.4501127285 -0.5640821232
H   -6.1237778871  5.7596318865 -2.4538602706
H    4.0830751423  6.2809923305  2.0361664802
H    6.2720237411  4.6286205376 -1.2369863671
H   -5.1009751791 -5.6634561949  2.0529335098
H   -5.7938394055 -4.7212271203 -2.0543036721
H   -4.1535563417  1.9738848883 -2.5479003536
H   -3.0136980422  4.9021112063  0.3468243947
H    4.2324399492 -2.0891157322 -2.3672245699
H    2.9596095289 -4.8344627421  0.6440807320
H   -3.2412113095 -4.0334719378  2.1131991259
H   -3.9585476492 -3.0698461063 -1.9820821522
H    2.4286789763  4.4599687691  1.8456484543
H    4.6132969763  2.8214641965 -1.4361822847
Cl  -0.0015107864  0.0263634653  2.3824878925
78
aligned d3map frame 164
N   -0.0109454204  2.0552237679 -0.1982942869
N    2.0066980063  0.0058337739 -0.0960191032
C   -2.4257277740  2.4376152665  0.0733152621
C   -1.1069769367  2.8577790730 -0.1368523312
C   -0.7323977848  4.1993996788 -0.4724665371
H   -1.4018639736  5.0355392997 -0.5179519151
C    0.5949402232  4.1808212946 -0.7626777448
H    1.1991578003  5.0001102175 -1.0966468642
C    1.0529149751  2.8386744586 -0.5489618355
C    2.3706703852  2.4005258387 -0.6506513880
C    2.8068628663  1.0845803564 -0.3356275141
C    4.1648417972  0.7119569415 -0.2046825287
H    5.0057999259  1.3688178401 -0.3100149512
C    4.1836811930 -0.6284816376  0.1023537986
H    5.0401482233 -1.2535912809  0.2609022193
C    2.8349047529 -1.0571599324  0.1424611143
C    3.3934391737  3.3354564113 -1.1428711173
C    3.6432058880  4.5612207398 -0.5290075718
C    4.5806794721  5.4311182037 -1.0542962328
C    5.2837723947  5.0926735802 -2.1991952743
H    6.0078578251  5.7788526980 -2.6147800743
C    5.0570896631  3.8690740615 -2.8078544865
C    4.1249603567  2.9949436686 -2.2819782438
N    0.0403228948 -2.0394524823 -0.1338351963
N   -2.0115835385  0.0091494410 -0.1105497995
C    2.4331901255 -2.4129248488  0.2177451882
C    1.1233258855 -2.8514659061  0.0136507650
C    0.7106061768 -4.2222549283 -0.0825172578
H    1.3599445310 -5.0697291320  0.0188429737
C   -0.6271787598 -4.2177386049 -0.3184947254
H   -1.2831352698 -5.0578856239 -0.4465626876
C   -1.0472365595 -2.8458914056 -0.3242250907
C   -2.3654851570 -2.4223965160 -0.4151291391
C   -2.8084933124 -1.0892527498 -0.2357378634
C   -4.1675390167 -0.7089970417 -0.1451318491
H   -5.0004604662 -1.3748605252 -0.2093499551
C   -4.1900447326  0.6493606143  0.0541787750
H   -5.0478857028  1.2742660624  0.2004841565
C   -2.8429710506  1.0864144028  0.0384652320
C   -3.3944907701 -3.4395481918 -0.7328766112
C   -4.1514678402 -4.0626709979  0.2521570139
C   -5.1002785947 -5.0090569670 -0.0953150135
C   -5.3069637559 -5.3372121199 -1.4248609089
H   -6.0498771394 -6.0744965975 -1.6917194775
C   -4.5577332005 -4.7171705688 -2.4109551433
C   -3.6047739461 -3.7763825081 -2.0663025674
Fe  -0.0021062469  0.0121789949  0.2392066053
C    3.4987822766 -3.4084794146  0.4269428028
C    4.1913993067 -3.4416966701  1.6346679231
C    3.8527795160 -4.3029934758 -0.5804444956
C    5.2135108082 -4.3513620318  1.8303553718
C    4.8883516564 -5.1989279435 -0.3870648150
H    5.7360878259 -4.3727426377  2.7754195175
C    5.5701442341 -5.2278141649  0.8178826467
H    5.1668348140 -5.8756011507 -1.1827963632
H    6.3781978760 -5.9301413946  0.9656578171
C   -3.4366783486  3.4933691385  0.2300861521
C   -4.4836003110  3.6435507973 -0.6794158772
C   -3.3258521319  4.3975007131  1.2858048432
C   -5.3940657409  4.6733980914 -0.5335045838
C   -4.2426416645  5.4215131009  1.4304766031
H   -6.1907499515  4.7916704408 -1.2530671184
C   -5.2770341334  5.5655337219  0.5192948572
H   -4.1472227273  6.1090464469  2.2561027856
H   -5.9815122411  6.3713265087  0.6250775294
H    4.7638962324  6.3787552637 -0.5696449190
H    5.6090064555  3.5956035307 -3.6944099843
H   -5.6825020136 -5.4940800598  0.6753333364
H   -4.7144739629 -4.9666006013 -3.4502110371
H   -4.5558344023  2.9659397755 -1.5177039762
H   -2.5192533182  4.2793194618  1.9968645844
H    3.9099479868 -2.7554019371  2.4207674489
H    3.3364107257 -4.2694952287 -1.5276190057
H   -3.9898245574 -3.8064064437  1.2889725437
H   -3.0174402937 -3.2896502914 -2.8324283943
H    3.1149331130  4.8169828589  0.3776504231
H    3.9375823896  2.0455111741 -2.7631019076
Cl  -0.0434294755  0.0507786175  2.3806926785
78
aligned d3map frame 165
N   -0.0148617373  2.0668802143 -0.1584038529
N    2.0134684596  0.0178034924 -0.0871281796
C   -2.4309546096  2.4506313023 -0.1425098553
C   -1.1127675615  2.8786795444 -0.1410208331
C   -0.6990426771  4.2522471218 -0.1996629665
H   -1.3672417572  5.0906489829 -0.1972727944
C    0.6553173896  4.2537055001 -0.2684176815
H    1.3210413333  5.0929653119 -0.3291692089
C    1.0757335645  2.8832626361 -0.2299259514
C    2.3986086798  2.4651824537 -0.2314754583
C    2.8216816369  1.1225931412 -0.1313239376
C    4.1804650055  0.7328668275 -0.0938151158
H    5.0200042755  1.4000463726 -0.1027816130
C    4.1961047301 -0.6398293156 -0.0371125608
H    5.0556277144 -1.2765012165  0.0305879360
C    2.8467502933 -1.0643937550 -0.0628578808
C    3.4632027622  3.4795743789 -0.4093444591
C    4.0936686263  4.0713994177  0.6782971711
C    5.1120635831  4.9874057421  0.4776144781
C    5.5086081787  5.3161083589 -0.8083192076
H    6.3075947295  6.0266957400 -0.9636536773
C    4.8803697758  4.7332849129 -1.8961224169
C    3.8611856838  3.8190557306 -1.6990697498
N    0.0188972403 -2.0510562591 -0.0929618780
N   -2.0137112551  0.0030225584 -0.1056662598
C    2.4459626795 -2.4272772019 -0.0742614053
C    1.1250524698 -2.8592887700 -0.0610983081
C    0.7098935527 -4.2308051309 -0.0605715172
H    1.3679191873 -5.0770624840 -0.0599895146
C   -0.6469875182 -4.2369211193 -0.0575100894
H   -1.2957715994 -5.0898661294 -0.0203626500
C   -1.0728016073 -2.8678500276 -0.0993618292
C   -2.4039071844 -2.4495292935 -0.1229263472
C   -2.8246705922 -1.0962233288 -0.1672079399
C   -4.1720281642 -0.6941840759 -0.3208788906
H   -5.0165186979 -1.3437172756 -0.4361364214
C   -4.1793300363  0.6816657880 -0.3184288459
H   -5.0285653586  1.3328265125 -0.4060852711
C   -2.8362902764  1.0942920868 -0.1888687967
C   -3.4579316694 -3.4750925791 -0.1052188229
C   -4.4184782009 -3.4801394132  0.9069368545
C   -5.4110269461 -4.4399473142  0.9242241336
C   -5.4677010553 -5.4085809737 -0.0662653709
H   -6.2491762915 -6.1530464055 -0.0520126393
C   -4.5215797085 -5.4099809546 -1.0774231509
C   -3.5231923968 -4.4532926008 -1.0972931012
Fe  -0.0021062469  0.0121789949  0.2392066053
C    3.5259613982 -3.4222045304 -0.1765158599
C    3.7227737932 -4.4078682369  0.7876686662
C    4.3899831452 -3.3747500027 -1.2712111069
C    4.7594760964 -5.3158417280  0.6579630976
C    5.4200617611 -4.2849754420 -1.3986124310
H    4.9065016513 -6.0700779400  1.4179595418
C    5.6118990408 -5.2595471658 -0.4303361184
H    6.0803285385 -4.2312853587 -2.2525179158
H    6.4210053296 -5.9674293604 -0.5274708437
C   -3.4969122138  3.4750266471 -0.0842932918
C   -3.8219055573  4.0523150721  1.1408268618
C   -4.1909210808  3.8666200690 -1.2232109176
C   -4.8279659186  4.9969865505  1.2244578363
C   -5.1921107090  4.8195016090 -1.1367613265
H   -5.0761099409  5.4319319214  2.1819010457
C   -5.5153286790  5.3844646368  0.0850938096
H   -5.7230820301  5.1202232909 -2.0283098734
H   -6.3013047049  6.1211351139  0.1505754886
H    5.6033673884  5.4409052830  1.3256274912
H    5.1873154769  4.9890244561 -2.8995022349
H   -6.1473708696 -4.4344668970  1.7149075214
H   -4.5626095287 -6.1573482848 -1.8564325206
H   -3.2825053681  3.7466490153  2.0261255551
H   -3.9398398315  3.4283183983 -2.1791046477
H    3.0763813923 -4.4434258415  1.6525290042
H    4.2346428552 -2.6188418483 -2.0282424025
H   -4.3649480204 -2.7350977394  1.6864858724
H   -2.8005579782 -4.4383474342 -1.8995310464
H    3.7830696618  3.8036455038  1.6773850958
H    3.3693909458  3.3542931709 -2.5414742524
Cl  -0.0451847401  0.0395011813  2.3802663314
78
aligned d3map frame 166
N   -0.0188720907  2.0649504098 -0.1620845537
N    2.0147604848  0.0152465991 -0.0720907672
C   -2.4349053491  2.4389297824 -0.0238874295
C   -1.1204374312  2.8709713065 -0.1522732474
C   -0.7140168133  4.2414197405 -0.2618376817
H   -1.3847332636  5.0776999508 -0.2946679991
C    0.6418670745  4.2462469313 -0.3275050588
H    1.2950765012  5.0895958273 -0.4403312704
C    1.0713680003  2.8802790891 -0.2287817836
C    2.4013968485  2.4669486120 -0.1806038026
C    2.8264075077  1.1167613031 -0.1059989667
C    4.1795318178  0.7202666666  0.0115064106
H    5.0263000446  1.3772138183  0.0380363028
C    4.1862149110 -0.6497490162  0.1154888140
H    5.0385193139 -1.2878285281  0.2370678112
C    2.8376252596 -1.0718044710  0.0525222084
C    3.4401866893  3.5091544023 -0.1256018689
C    3.4581555749  4.4080470024  0.9401442672
C    4.4406008656  5.3764867429  1.0242014064
C    5.4100544524  5.4715342229  0.0394369011
H    6.1759362968  6.2300948960  0.1058614748
C    5.3939571600  4.5900599677 -1.0296522306
C    4.4211127896  3.6111329897 -1.1095810414
N    0.0121174243 -2.0484265710 -0.0978510904
N   -2.0153178867 -0.0023575347 -0.0927745375
C    2.4238106480 -2.4246659641  0.1294326663
C    1.1040701765 -2.8561246521  0.0133685658
C    0.6940949445 -4.2298017139 -0.0474043414
H    1.3606640395 -5.0695328530 -0.0147105068
C   -0.6575972880 -4.2343281906 -0.1716416366
H   -1.3168846779 -5.0766283329 -0.2533119773
C   -1.0799395126 -2.8637930936 -0.1782601575
C   -2.4034103905 -2.4465276641 -0.2126622280
C   -2.8274853658 -1.0990521867 -0.1838711123
C   -4.1840178685 -0.6980170101 -0.2072194918
H   -5.0269176136 -1.3566162315 -0.2830467908
C   -4.1934374682  0.6731650933 -0.1155869519
H   -5.0431141269  1.3273232440 -0.1111816490
C   -2.8416496965  1.0850610824 -0.0465612186
C   -3.4629492496 -3.4801026999 -0.1663937484
C   -3.8270603639 -4.0105861457  1.0675157650
C   -4.8326204171 -4.9551072760  1.1544962950
C   -5.4812835436 -5.3850809372  0.0087625942
H   -6.2693185171 -6.1203983700  0.0762751635
C   -5.1169146178 -4.8684859533 -1.2229644948
C   -4.1142859542 -3.9179362520 -1.3128082088
Fe  -0.0021062469  0.0121789949  0.2392066053
C    3.4517680277 -3.4435999137  0.4052689355
C    3.3815663481 -4.1586705668  1.6001319475
C    4.4984184604 -3.7018968219 -0.4759250114
C    4.3506370677 -5.0913972758  1.9172463360
C    5.4587159114 -4.6460109977 -0.1594796892
H    4.2928519910 -5.6256710704  2.8544790072
C    5.3942153991 -5.3362075298  1.0396694717
H    6.2647171775 -4.8430342935 -0.8516492915
H    6.1528125712 -6.0628126922  1.2898869617
C   -3.4955898508  3.4474026339  0.1828746459
C   -4.0166178854  3.6069426549  1.4643413110
C   -3.9864962607  4.2333636176 -0.8532334111
C   -5.0020783025  4.5454682316  1.7061829554
C   -4.9836438359  5.1615464085 -0.6092289306
H   -5.3912813304  4.6684774434  2.7063602129
C   -5.4902225439  5.3239498762  0.6693918579
H   -5.3683166440  5.7618071823 -1.4213589948
H   -6.2638258244  6.0533203744  0.8572814993
H    4.4531469810  6.0579107008  1.8621216899
H    6.1445539294  4.6669929407 -1.8025865303
H   -5.1106773487 -5.3531043327  2.1195561385
H   -5.6176478630 -5.2049095303 -2.1191672066
H   -3.6328429656  2.9954481404  2.2676043186
H   -3.5930258704  4.1043332135 -1.8512883176
H    2.5713966372 -3.9558243229  2.2856790719
H    4.5443928995 -3.1712147561 -1.4151594824
H   -3.3182711179 -3.6673842949  1.9565971571
H   -3.8332114827 -3.5124821600 -2.2742163459
H    2.7078863542  4.3225856298  1.7125173534
H    4.4028364259  2.9280323381 -1.9461860006
Cl  -0.0114024500  0.0380210569  2.3793212393
78
aligned d3map frame 167
N    0.0080650842  2.0558402890 -0.1917497645
N    2.0020238393  0.0347267504 -0.1355408196
C   -2.3898207669  2.3635871393 -0.6595405754
C   -1.0568451137  2.8174171864 -0.5752163515
C   -0.6150144830  4.1362871424 -0.8631807831
H   -1.2361849673  4.9360674718 -1.2119866550
C    0.7338666056  4.1670467316 -0.6075536664
H    1.3988338498  5.0009428355 -0.7294249066
C    1.1027316644  2.8646936547 -0.1911769745
C    2.4338529444  2.4426525763  0.0844158074
C    2.8217891327  1.1063259857  0.1349629429
C    4.1595715484  0.6350986203  0.3354647101
H    4.9919065512  1.2365166147  0.6448102475
C    4.1509349263 -0.7003474669  0.0784119223
H    4.9738827928 -1.3854197780  0.1386707641
C    2.7997007324 -1.0624372511 -0.2267708561
C    3.4615970634  3.4822966123  0.2053753442
C    3.2959991830  4.5406578217  1.1009633421
C    4.2766406799  5.5036562726  1.2400758172
C    5.4359154576  5.4366403617  0.4830571357
H    6.2040679772  6.1882369255  0.5966758458
C    5.5991029621  4.4068331443 -0.4286636483
C    4.6215220693  3.4403427815 -0.5703501670
N    0.0024048753 -2.0415102980 -0.1276075103
N   -2.0043378708 -0.0199687586 -0.1525217638
C    2.3997405364 -2.3713314183 -0.5487984719
C    1.0622173640 -2.8202169965 -0.4949096027
C    0.6104250403 -4.1431738803 -0.7447018524
H    1.2165824706 -4.9506752114 -1.1071041110
C   -0.7327133721 -4.1662661739 -0.4616465540
H   -1.4061465847 -4.9988892170 -0.5326074326
C   -1.0926352965 -2.8474234044 -0.0940048851
C   -2.4234293602 -2.4191278769  0.1459556431
C   -2.8284644179 -1.0946852365  0.0828826939
C   -4.1923937602 -0.6556641945  0.0848388093
H   -5.0406142262 -1.2852283504  0.2721436570
C   -4.1801553216  0.6681586338 -0.2173806750
H   -5.0181109382  1.3318851447 -0.3049571238
C   -2.8071695706  1.0560985975 -0.3654817348
C   -3.4426453498 -3.4725077639  0.3482077682
C   -3.5590156495 -4.0846916703  1.5929533191
C   -4.5062433826 -5.0705897820  1.8004153985
C   -5.3380970242 -5.4669732158  0.7641968670
H   -6.0719196612 -6.2428371065  0.9289820664
C   -5.2228325062 -4.8682896238 -0.4777579887
C   -4.2842791646 -3.8721376015 -0.6842170852
Fe  -0.0021062469  0.0121789949  0.2392066053
C    3.4541366938 -3.2859148613 -0.9968898845
C    3.6370742101 -4.5618257516 -0.4665552601
C    4.3071053732 -2.8626310781 -2.0216886849
C    4.6271002613 -5.3927723205 -0.9590258941
C    5.2916979519 -3.6953357484 -2.5129865017
H    4.7581710260 -6.3785128495 -0.5367688435
C    5.4528481478 -4.9676661983 -1.9870989014
H    5.9346632132 -3.3531143664 -3.3107348267
H    6.2217759024 -5.6196421600 -2.3749757556
C   -3.4261525099  3.3004004628 -1.1195447675
C   -3.7079535614  4.4918252400 -0.4533710696
C   -4.1554268718  2.9832583985 -2.2661500813
C   -4.7030670300  5.3348784930 -0.9166982209
C   -5.1315090640  3.8398754769 -2.7386422303
H   -4.9272023537  6.2406560598 -0.3716485075
C   -5.4141732921  5.0166144993 -2.0614322868
H   -5.6741580833  3.5851769866 -3.6384449177
H   -6.1881931538  5.6769583570 -2.4251569880
H    4.1400967179  6.3106662086  1.9453934030
H    6.4932938829  4.3549060829 -1.0352858383
H   -4.5970228741 -5.5346601663  2.7715917720
H   -5.8656653301 -5.1761408113 -1.2903649363
H   -3.1627583228  4.7395996310  0.4466925434
H   -3.9357913007  2.0659396694 -2.7948926296
H    3.0211887232 -4.8883284609  0.3584498972
H    4.1717630372 -1.8773159351 -2.4450941754
H   -2.9102783099 -3.7713924631  2.3987859644
H   -4.1923588147 -3.4053398907 -1.6549206311
H    2.4009739523  4.5820958588  1.7051501334
H    4.7354652237  2.6568846864 -1.3067505341
Cl  -0.0092802724  0.0457467081  2.3778848166
78
aligned d3map frame 168
N   -0.0178039853  2.0477103742 -0.2304987241
N    2.0091276425  0.0124283459 -0.0691161930
C   -2.3809154042  2.4396659892  0.2860727671
C   -1.0774567201  2.8599925966  0.0374990261
C   -0.6591201734  4.2317522081 -0.0743640878
H   -1.2983293667  5.0807726959  0.0617017327
C    0.6527868587  4.2203749272 -0.4179891134
H    1.3002850116  5.0591518364 -0.5859675326
C    1.0608875259  2.8438086879 -0.4742748382
C    2.3766244316  2.4067823935 -0.5990696678
C    2.8095546404  1.0742680119 -0.3910436032
C    4.1550951575  0.6466278969 -0.4541610986
H    4.9959331473  1.2584468071 -0.7157202284
C    4.1644163715 -0.6920909660 -0.1295066162
H    5.0117867312 -1.3470185244 -0.0859162545
C    2.8225902322 -1.0650684854  0.1017875501
C    3.4151703057  3.4197490333 -0.8682541143
C    4.3594785176  3.7355431220  0.1060949904
C    5.3270255111  4.6899977128 -0.1449912696
C    5.3742490665  5.3294062385 -1.3736372850
H    6.1370973889  6.0680699969 -1.5703956017
C    4.4411239787  5.0170539041 -2.3469780211
C    3.4592240820  4.0765008195 -2.0948349893
N    0.0358920201 -2.0337847040 -0.1642449999
N   -2.0124237295  0.0183100877 -0.0856657405
C    2.3976290882 -2.4060837135  0.3465658847
C    1.0920514181 -2.8457047207  0.1546956183
C    0.6322206677 -4.2047797267  0.2207894352
H    1.2260663359 -5.0496691686  0.5058061481
C   -0.6799976719 -4.1991338251 -0.1225227283
H   -1.3485253735 -5.0361098756 -0.1760779402
C   -1.0562747228 -2.8273393517 -0.3279106612
C   -2.3763667108 -2.4000796709 -0.4840985694
C   -2.8181655508 -1.0661114806 -0.3090198799
C   -4.1689556230 -0.6570461512 -0.2759757343
H   -5.0197306159 -1.2836361134 -0.4499559522
C   -4.1754790243  0.6864087006  0.0233927995
H   -5.0325952716  1.3091464043  0.1678567067
C   -2.8282249765  1.0956914272  0.1021834199
C   -3.3732113828 -3.4450543971 -0.7711936509
C   -4.4307120211 -3.7174854986  0.0936740875
C   -5.3269234749 -4.7305845062 -0.1919220731
C   -5.1909108802 -5.4819954357 -1.3471250110
H   -5.8889225394 -6.2763220352 -1.5643499278
C   -4.1432183917 -5.2191675941 -2.2145642009
C   -3.2369576699 -4.2142085276 -1.9260533756
Fe  -0.0021062469  0.0121789949  0.2392066053
C    3.4322527725 -3.3455939766  0.7903963439
C    4.1947325291 -3.0175051303  1.9158361711
C    3.6830107151 -4.5544756029  0.1417799025
C    5.1484883254 -3.8905539941  2.3986611263
C    4.6444626565 -5.4221241967  0.6248590085
H    5.7207366207 -3.6293137370  3.2766990423
C    5.3733307459 -5.0996245253  1.7586070051
H    4.8292100613 -6.3565428018  0.1136294894
H    6.1194518056 -5.7811460421  2.1363772776
C   -3.3282936088  3.4435805356  0.7941639491
C   -3.0065652585  4.0828190013  1.9950090647
C   -4.5239434351  3.7745441974  0.1598637862
C   -3.8769083989  4.9947321425  2.5628770982
C   -5.3945736570  4.6838646304  0.7331379643
H   -3.6157080730  5.4739397670  3.4966186847
C   -5.0803372237  5.2902040864  1.9407104078
H   -6.3235868540  4.9257012110  0.2359627972
H   -5.7682487083  5.9888714677  2.3928668896
H    6.0476569666  4.9365119407  0.6216712676
H    4.4783620790  5.5092461017 -3.3091078267
H   -6.1337279761 -4.9417578048  0.4960542345
H   -4.0294130359 -5.7976524148 -3.1188987940
H   -2.0791276284  3.8360804548  2.4896727988
H   -4.7626938094  3.3334720460 -0.7976111537
H    4.0070470483 -2.0811219704  2.4198749151
H    3.1406450010 -4.7965087237 -0.7602262406
H   -4.5235875515 -3.1535750288  1.0091798083
H   -2.4232463011 -4.0083380236 -2.6062772405
H    4.3169871555  3.2366136884  1.0628013028
H    2.7292055569  3.8314108159 -2.8537965687
Cl  -0.0211525590  0.0916780278  2.3761662942
78
aligned d3map frame 169
N   -0.0329687232  2.0557641253 -0.1729655607
N    2.0033732248  0.0186798355 -0.1255440087
C   -2.4242019021  2.4219699491  0.2464096412
C   -1.1100485927  2.8566845705  0.0741812199
C   -0.6971114454  4.2278407070  0.0220903229
H   -1.3412768081  5.0747502070  0.1557097597
C    0.6319441414  4.2338516972 -0.2566116864
H    1.2792196792  5.0827429418 -0.3565439113
C    1.0456075686  2.8642471626 -0.3596735190
C    2.3655361784  2.4398100866 -0.5166126476
C    2.7970480844  1.0932054744 -0.4106855964
C    4.1411674147  0.6695259321 -0.5518675802
H    4.9682308962  1.2965681450 -0.8218853760
C    4.1634631565 -0.6808006748 -0.2971474887
H    5.0117055414 -1.3366537270 -0.3042763385
C    2.8271334041 -1.0693108982 -0.0474151797
C    3.3899819057  3.4712270007 -0.7404236679
C    4.4524218089  3.6318054457  0.1476394228
C    5.4030763949  4.6103320342 -0.0681104905
C    5.3159869938  5.4362734541 -1.1768089029
H    6.0624744647  6.1973484276 -1.3458581266
C    4.2649833457  5.2839075746 -2.0659212724
C    3.3051286297  4.3143381800 -1.8469655873
N    0.0116127900 -2.0479261131 -0.1069641820
N   -2.0041510289  0.0150723381 -0.1493455231
C    2.4168621339 -2.4084200093  0.1577693816
C    1.1033006623 -2.8499696020  0.0636183033
C    0.7064525323 -4.2239426039 -0.0497208955
H    1.3689024424 -5.0632351504  0.0465543320
C   -0.6187530145 -4.2294169488 -0.3451577127
H   -1.2432352997 -5.0798789926 -0.5389170523
C   -1.0556714717 -2.8593327172 -0.3458855609
C   -2.3623768544 -2.4166979066 -0.5506138008
C   -2.7930882951 -1.0742861074 -0.3788936806
C   -4.1556714315 -0.7015882854 -0.2963489733
H   -4.9908136793 -1.3630183498 -0.4147617257
C   -4.1853957446  0.6390759756  0.0082905897
H   -5.0558290727  1.2391493798  0.1833219245
C   -2.8432556878  1.0779357255  0.0599413057
C   -3.3816962984 -3.3889649708 -0.9784141742
C   -3.7219658404 -4.5028692658 -0.2149040002
C   -4.6524542859 -5.4134130721 -0.6843382580
C   -5.2496578396 -5.2283003977 -1.9215510621
H   -5.9663577899 -5.9476424146 -2.2909322973
C   -4.9314853568 -4.1133010579 -2.6797193194
C   -4.0097016938 -3.1966328314 -2.2109187030
Fe  -0.0021062469  0.0121789949  0.2392066053
C    3.4832867974 -3.4084635113  0.3903684257
C    4.1877054988 -3.9746871810 -0.6659677233
C    3.8030497201 -3.7730006720  1.6941543781
C    5.1998363318 -4.8859924303 -0.4194870219
C    4.8192412121 -4.6793227746  1.9367708899
H    5.7411531741 -5.3216280535 -1.2461663041
C    5.5210623826 -5.2368853120  0.8812099387
H    5.0655099261 -4.9489185278  2.9535824681
H    6.3172651360 -5.9425354471  1.0701950444
C   -3.4163427379  3.4381411858  0.6250935418
C   -4.5576373292  3.7043883654 -0.1304439659
C   -3.1976755343  4.1778839451  1.7885605470
C   -5.4607580223  4.6690363558  0.2786174091
C   -4.1018850583  5.1405914167  2.1940765003
H   -6.3430777523  4.8634254027 -0.3151942765
C   -5.2396366230  5.3873966917  1.4427289495
H   -3.9190821857  5.7009263124  3.0990598043
H   -5.9481021710  6.1386840272  1.7596562494
H    6.2156475332  4.7315325470  0.6328796359
H    4.1935019626  5.9230459056 -2.9333927766
H   -4.9111603874 -6.2722548240 -0.0818734785
H   -5.3981325819 -3.9627522267 -3.6419025877
H   -4.7184585810  3.1742757847 -1.0576561354
H   -2.3186602983  3.9751967997  2.3813210859
H    3.9364943336 -3.6968898083 -1.6797489235
H    3.2547137383 -3.3327823062  2.5140713846
H   -3.2709032579 -4.6356372778  0.7576649694
H   -3.7499534149 -2.3323346763 -2.8036932829
H    4.5105547953  2.9989710393  1.0203188879
H    2.4895355491  4.1874706062 -2.5431157800
Cl  -0.0050006559  0.0469817144  2.3771497041
78
aligned d3map frame 170
N   -0.0138013392  2.0606358467 -0.1599122566
N    2.0058216538 -0.0057734339 -0.1268620595
C   -2.4387077256  2.4027912822  0.0914187120
C   -1.1064353764  2.8662431298 -0.0238236493
C   -0.7044449841  4.2218879919 -0.0892424398
H   -1.3454145391  5.0743022873  0.0142073309
C    0.6548240473  4.2223744654 -0.3071867072
H    1.2849126449  5.0804508394 -0.4422571334
C    1.0682782347  2.8692952658 -0.3205174816
C    2.4062704127  2.4113818892 -0.4530947998
C    2.8108734967  1.0827989073 -0.3275328112
C    4.1845529252  0.6825228668 -0.2047962771
H    5.0295515393  1.3340578455 -0.3137715866
C    4.1900015365 -0.6330693834  0.1256878655
H    5.0414439953 -1.2512921152  0.3350357574
C    2.8250360332 -1.0685344335  0.1511375939
C    3.4587604230  3.4255109899 -0.6319838087
C    3.6717306161  4.4058595730  0.3347332956
C    4.6704945531  5.3484353249  0.1735116844
C    5.4639127424  5.3345219391 -0.9616743979
H    6.2411098246  6.0741130431 -1.0955816104
C    5.2603382662  4.3635021659 -1.9288007817
C    4.2712044077  3.4117547365 -1.7642216007
N    0.0231042186 -2.0411449179 -0.1003444982
N   -2.0077509288 -0.0171935850 -0.1447196159
C    2.4063872388 -2.3737627520  0.4153318054
C    1.0808962751 -2.8368623560  0.2182379197
C    0.6834921211 -4.1935352429  0.1726426035
H    1.3137995804 -5.0382676151  0.3736110585
C   -0.6419406135 -4.2048207450 -0.2019106116
H   -1.2765404158 -5.0612544570 -0.3287223466
C   -1.0336828106 -2.8534011825 -0.3557430895
C   -2.3564035731 -2.4070883940 -0.6334133099
C   -2.7892907530 -1.0911333498 -0.4788097745
C   -4.1485793239 -0.6515787354 -0.6316486135
H   -4.9632782518 -1.2757647202 -0.9424962761
C   -4.1795475943  0.6703124154 -0.3294495879
H   -5.0229859795  1.3335719897 -0.3366631911
C   -2.8290538421  1.0711751227 -0.0566080109
C   -3.2891552861 -3.4303177660 -1.1268196750
C   -4.4965866916 -3.7349517630 -0.5011372220
C   -5.3370838791 -4.6975719927 -1.0334917513
C   -4.9867101034 -5.3684471025 -2.1941017730
H   -5.6477806151 -6.1169707996 -2.6064333205
C   -3.7824283498 -5.0829379748 -2.8173493782
C   -2.9372936289 -4.1290512217 -2.2850711635
Fe  -0.0021062469  0.0121789949  0.2392066053
C    3.3713426002 -3.3489938082  0.9449132127
C    3.1262506342 -3.8796967205  2.2135228517
C    4.5122470806 -3.7480686683  0.2555404170
C    4.0205504560 -4.7593110741  2.7892504673
C    5.4015971017 -4.6394540948  0.8333052187
H    3.8282991226 -5.1500111388  3.7777598916
C    5.1645834783 -5.1387111983  2.1029275932
H    6.2829612291 -4.9467049024  0.2900086852
H    5.8665534330 -5.8220992489  2.5600959194
C   -3.4998607623  3.4058852214  0.2925735793
C   -4.2578776389  3.3734617620  1.4612479280
C   -3.7573011480  4.3954032186 -0.6537581513
C   -5.2323705190  4.3274826867  1.6887001444
C   -4.7428640203  5.3384180805 -0.4282423612
H   -5.8018341064  4.3032850563  2.6062322375
C   -5.4766004042  5.3130921659  0.7464132590
H   -4.9403421496  6.1000418721 -1.1685477343
H   -6.2393991190  6.0558342940  0.9268699095
H    4.8323773816  6.0937892853  0.9384111013
H    5.8782060921  4.3460076878 -2.8155565870
H   -6.2704651186 -4.9295659900 -0.5378032666
H   -3.5001230030 -5.6036087238 -3.7208428351
H   -4.0563353274  2.6069746369  2.1942551874
H   -3.1933260912  4.4053952092 -1.5753606604
H    2.2382766455 -3.5699298069  2.7457383849
H    4.6879392839 -3.3778600503 -0.7441414216
H   -4.7590129951 -3.2389537479  0.4230252600
H   -2.0006354245 -3.8969478175 -2.7703554799
H    3.0650667365  4.4051563704  1.2280962993
H    4.1101827475  2.6572401374 -2.5210592193
Cl  -0.0209307494  0.0554139229  2.3796100092
78
aligned d3map frame 171
N   -0.0077319696  2.0581980477 -0.1868945754
N    2.0079837597  0.0264217357 -0.0838341222
C   -2.3944516236  2.4307422206  0.2599828860
C   -1.0862798439  2.8594612697  0.0555206795
C   -0.6753708041  4.2339368880  0.0108559673
H   -1.3257300466  5.0767784190  0.1415331777
C    0.6564566900  4.2415777583 -0.2465887779
H    1.3052424542  5.0912237476 -0.3313836390
C    1.0726752570  2.8719189878 -0.3527985519
C    2.3939048638  2.4437670603 -0.4927457666
C    2.8053761087  1.0902586705 -0.4095297760
C    4.1327286222  0.6421160974 -0.6040391517
H    4.9587071891  1.2463975002 -0.9231996554
C    4.1419182406 -0.7073305946 -0.3312197953
H    4.9732715260 -1.3828061670 -0.3853199779
C    2.8156512179 -1.0634993942 -0.0048162319
C    3.4469452119  3.4588404664 -0.6319956855
C    4.5022596984  3.5013985389  0.2806736113
C    5.4923689309  4.4567009520  0.1662287004
C    5.4530059905  5.3815577228 -0.8660439834
H    6.2308177015  6.1246807779 -0.9568743952
C    4.4117557532  5.3483966617 -1.7770943684
C    3.4123685748  4.3996360847 -1.6605754359
N    0.0267390758 -2.0459550910 -0.1195519563
N   -2.0117193384  0.0125406355 -0.0999248637
C    2.4121492175 -2.4077248642  0.2637705185
C    1.1074737806 -2.8588652044  0.0905042328
C    0.6811028849 -4.2280336929  0.0596912472
H    1.3092796834 -5.0813587472  0.2169652132
C   -0.6448729645 -4.2250703444 -0.2260350609
H   -1.2812443665 -5.0737220973 -0.3813745076
C   -1.0627103156 -2.8518691810 -0.2707483960
C   -2.3895438932 -2.4280480347 -0.3543681407
C   -2.8190266672 -1.0850597611 -0.2141442235
C   -4.1713619079 -0.6990129476 -0.0498127982
H   -5.0170807724 -1.3585272534 -0.0623929178
C   -4.1753196019  0.6571875486  0.1762312396
H   -5.0257080643  1.2795559839  0.3707648544
C   -2.8292509142  1.0845346769  0.1197465053
C   -3.4402855759 -3.4483282274 -0.5081352758
C   -3.5908692658 -4.4733188115  0.4246933964
C   -4.5736640312 -5.4315239000  0.2611929743
C   -5.4212304469 -5.3826911147 -0.8333748865
H   -6.1846803125 -6.1357178965 -0.9612291081
C   -5.2888077862 -4.3602831244 -1.7588244976
C   -4.3106647143 -3.3971863453 -1.5961191011
Fe  -0.0021062469  0.0121789949  0.2392066053
C    3.4725085405 -3.2899183857  0.7597270583
C    4.1835114115 -2.8527958939  1.8830383908
C    3.8108358957 -4.5194692748  0.1968415773
C    5.1729953920 -3.6337774744  2.4434851631
C    4.8074521084 -5.2970371215  0.7599470686
H    5.7022263763 -3.2822263531  3.3172001666
C    5.4861495446 -4.8647662349  1.8872304800
H    5.0605875805 -6.2471504673  0.3115110737
H    6.2598546025 -5.4773446113  2.3256426609
C   -3.3733692502  3.4442285206  0.6849317634
C   -4.5089535848  3.7595217842 -0.0563325487
C   -3.1469314255  4.1141579150  1.8877332426
C   -5.3982834355  4.7154917569  0.4011579835
C   -4.0422960755  5.0606652019  2.3455293893
H   -6.2728602144  4.9570867420 -0.1854233803
C   -5.1722942612  5.3643356438  1.6039181132
H   -3.8591736064  5.5613956785  3.2856199455
H   -5.8742840457  6.1042154772  1.9608836439
H    6.2983366113  4.4844257826  0.8854832346
H    4.3791718277  6.0651168462 -2.5851410921
H   -4.6804294677 -6.2201347293  0.9917829498
H   -5.9510722146 -4.3141935058 -2.6110306111
H   -4.6787945869  3.2722962420 -1.0054278039
H   -2.2706860393  3.8667755183  2.4685572015
H    3.9277583960 -1.9004295171  2.3233551437
H    3.3222887214 -4.8482676975 -0.7087153004
H   -2.9469557738 -4.4964383086  1.2916364112
H   -4.2012574350 -2.6044752468 -2.3214390685
H    4.5234298946  2.7903734799  1.0934197576
H    2.6097038935  4.3638114903 -2.3820008296
Cl  -0.0239263975  0.0484477797  2.3786420466
78
aligned d3map frame 172
N   -0.0067038746  2.0490414199 -0.2156819278
N    2.0084630059  0.0430350738 -0.1187136974
C   -2.4210843361  2.3836390494 -0.5532953529
C   -1.0668768865  2.7831898502 -0.6640111667
C   -0.6028077094  4.0318781304 -1.1456845995
H   -1.1993287435  4.7781512641 -1.6301140027
C    0.7497789076  4.0736744542 -0.9052993719
H    1.4356390298  4.8640089381 -1.1468510330
C    1.0937115004  2.8339791889 -0.3183601785
C    2.4264625232  2.4517870164  0.0216033816
C    2.8325613351  1.1205853894  0.0865284107
C    4.1886423216  0.6700572777  0.1956475327
H    5.0321164763  1.2888297928  0.4300311921
C    4.1817598236 -0.6646552457 -0.0526148999
H    5.0175479331 -1.3367955085 -0.0836715478
C    2.8170934983 -1.0539493071 -0.2340258675
C    3.3676248664  3.5585581865  0.2117891483
C    3.0110657457  4.5900546189  1.0875660630
C    3.8463518162  5.6706952216  1.2837578261
C    5.0502334959  5.7552853061  0.6006906782
H    5.6988225707  6.6067171512  0.7474329746
C    5.4082102374  4.7481647378 -0.2796101902
C    4.5769865397  3.6597258740 -0.4758520659
N   -0.0109497789 -2.0364674191 -0.1493093869
N   -2.0073176140 -0.0101861017 -0.1407800392
C    2.4056613039 -2.3604276630 -0.4887752622
C    1.0713612896 -2.8084977581 -0.4513881529
C    0.6601863786 -4.1503208338 -0.6553465276
H    1.3061332724 -4.9663988364 -0.9154736205
C   -0.6974071440 -4.1812562353 -0.4498661451
H   -1.3529838055 -5.0260668503 -0.5285040850
C   -1.0934086743 -2.8571899159 -0.1343600570
C   -2.4310029711 -2.4257883343  0.0779448293
C   -2.8161591353 -1.0882443168  0.1174200402
C   -4.1596857999 -0.6340062264  0.3292654022
H   -4.9833978122 -1.2578628294  0.6169189119
C   -4.1618027381  0.7081672491  0.1241274431
H   -4.9912535058  1.3821828384  0.2165260048
C   -2.8197103218  1.0884428631 -0.2019316805
C   -3.4750410538 -3.4593177386  0.1151265148
C   -3.4240748168 -4.5101407193  1.0320132911
C   -4.3997758775 -5.4888715771  1.0299097445
C   -5.4321483517 -5.4461806069  0.1045884689
H   -6.1849938247 -6.2213793686  0.0958221873
C   -5.4903592685 -4.4102053795 -0.8119436084
C   -4.5242384429 -3.4220237848 -0.8039117246
Fe  -0.0021062469  0.0121789949  0.2392066053
C    3.4342749131 -3.3703189290 -0.8315063817
C    3.9889552016 -4.2035845455  0.1318603737
C    3.8275604174 -3.5081645274 -2.1597858634
C    4.9173437398 -5.1647129323 -0.2298411750
C    4.7502835803 -4.4727430350 -2.5183289165
H    5.3417697561 -5.8103873515  0.5250623768
C    5.2956370224 -5.3047765329 -1.5538064874
H    5.0426792993 -4.5802210894 -3.5526438565
H    6.0099237465 -6.0644167138 -1.8369195181
C   -3.4438963048  3.3993182282 -0.8134052762
C   -3.3438584733  4.6760544534 -0.2506564717
C   -4.5195974782  3.1307798145 -1.6640172556
C   -4.2723930204  5.6548874411 -0.5494863079
C   -5.4462959034  4.1128337906 -1.9578727017
H   -4.1741234621  6.6383295567 -0.1115161883
C   -5.3231607380  5.3809201144 -1.4098565806
H   -6.2654666934  3.8944021580 -2.6267259038
H   -6.0408571665  6.1511071153 -1.6526870803
H    3.5569578753  6.4562309105  1.9664149981
H    6.3378941700  4.8175954689 -0.8263236598
H   -4.3572139144 -6.2951309591  1.7462807864
H   -6.2884493475 -4.3732188625 -1.5395381838
H   -2.5406479876  4.8874426454  0.4388618425
H   -4.5989232179  2.1542246639 -2.1185297854
H    3.6882705710 -4.0967786358  1.1633808987
H    3.3918656932 -2.8594803933 -2.9057396972
H   -2.6229787310 -4.5379833013  1.7562450233
H   -4.5563126823 -2.6273470112 -1.5347905655
H    2.0763380991  4.5196024945  1.6233707374
H    4.8406934622  2.9024163680 -1.1985906229
Cl  -0.0174747049  0.0304846509  2.3800195401
78
aligned d3map frame 173
N   -0.0444878093  2.0581598552 -0.1819561636
N    2.0053448236  0.0007226746 -0.1115516295
C   -2.4096162736  2.4109088177  0.3093189250
C   -1.1045578369  2.8603927217  0.1531853994
C   -0.6420113558  4.2148598855  0.2806123668
H   -1.2416844243  5.0503022594  0.5825871336
C    0.6767132203  4.2176827507 -0.0377804211
H    1.3495395715  5.0529585493 -0.0502576801
C    1.0510332194  2.8549010509 -0.2947638943
C    2.3672545335  2.4238633761 -0.4846793488
C    2.8001240389  1.0806779663 -0.3930388136
C    4.1447559071  0.6556437659 -0.5106879566
H    4.9793057898  1.2747600454 -0.7657702509
C    4.1619705933 -0.6979605803 -0.2532915815
H    5.0207056185 -1.3464434563 -0.2366157058
C    2.8241482755 -1.0853090903 -0.0233768655
C    3.3847133850  3.4601831590 -0.7235630887
C    4.4658971987  3.6315002036  0.1387178104
C    5.4065021985  4.6137280370 -0.1067449418
C    5.2892119916  5.4322851279 -1.2188951056
H    6.0293832424  6.1962301381 -1.4118545828
C    4.2184367047  5.2686770805 -2.0816260471
C    3.2679745138  4.2963637485 -1.8325577901
N    0.0055968745 -2.0413286435 -0.1188472885
N   -2.0026538949  0.0027108098 -0.1383945690
C    2.3953390175 -2.4235228456  0.2258533298
C    1.0781469703 -2.8473067290  0.1319922095
C    0.6509611225 -4.2216495864  0.1051693067
H    1.2935250785 -5.0648935016  0.2701799190
C   -0.6691330832 -4.2202332728 -0.2058592360
H   -1.3211218497 -5.0643321405 -0.3296237949
C   -1.0728159861 -2.8458630447 -0.3195593575
C   -2.3685141055 -2.4050734824 -0.5753689342
C   -2.7914872883 -1.0625054843 -0.4876021494
C   -4.1325336751 -0.6346485538 -0.6109605796
H   -4.9604570763 -1.2606687885 -0.8815144160
C   -4.1522713248  0.7051392115 -0.2939745974
H   -4.9988001574  1.3627136972 -0.2812654095
C   -2.8215555189  1.0751552017 -0.0037720486
C   -3.3980532339 -3.4192330385 -0.8951690103
C   -4.0031349013 -4.1635307799  0.1103433302
C   -4.9623323821 -5.1091154941 -0.2039944302
C   -5.3189830774 -5.3251386104 -1.5241307152
H   -6.0635463635 -6.0666413113 -1.7679829193
C   -4.7174957564 -4.5876636080 -2.5305747105
C   -3.7653818303 -3.6347835062 -2.2199338671
Fe  -0.0021062469  0.0121789949  0.2392066053
C    3.4189838918 -3.4323565214  0.5538574405
C    4.3696913497 -3.8499609704 -0.3725688346
C    3.4272745346 -3.9905000381  1.8299827478
C    5.3157878788 -4.7978803680 -0.0250860418
C    4.3816367351 -4.9274281539  2.1782264093
H    6.0484215582 -5.1119785717 -0.7461205061
C    5.3285434221 -5.3346591657  1.2525270349
H    4.3844458183 -5.3432330070  3.1735755275
H    6.0728911474 -6.0679303625  1.5250080335
C   -3.4565274987  3.2933997311  0.8315577723
C   -3.7461723240  4.5529438076  0.3065378924
C   -4.1950989605  2.8397418439  1.9289763552
C   -4.7267218361  5.3416131219  0.8798675763
C   -5.1614619085  3.6355216718  2.5073123096
H   -4.9473388934  6.3130823701  0.4617627790
C   -5.4295690413  4.8921667104  1.9861798721
H   -5.7123923545  3.2739789012  3.3627637706
H   -6.1898231363  5.5135132603  2.4358853876
H    6.2342558601  4.7481656396  0.5729448173
H    4.1232869357  5.9018685431 -2.9510957960
H   -5.4324955886 -5.6787205902  0.5840041011
H   -4.9932486237 -4.7560325395 -3.5606083188
H   -3.2263639464  4.8950841145 -0.5767157918
H   -3.9759320882  1.8658070503  2.3420430011
H    4.3517616967 -3.4422719258 -1.3724564473
H    2.6877969505 -3.6687669306  2.5476741131
H   -3.7206260115 -3.9895419090  1.1379972447
H   -3.2939439434 -3.0541953797 -3.0002449915
H    4.5463133766  3.0047881272  1.0139512257
H    2.4352325298  4.1620231679 -2.5068945167
Cl  -0.0127160182  0.0467775248  2.3768508936
78
aligned d3map frame 174
N    0.0128203859  2.0410557644 -0.2496229188
N    2.0079121346  0.0158100105 -0.1069367002
C   -2.4240188049  2.4061516470 -0.2579357725
C   -1.0857976253  2.7747213712 -0.5743400817
C   -0.6850950883  3.9823293388 -1.1905402534
H   -1.3424238344  4.7280191042 -1.5943724236
C    0.6926126222  3.9879864112 -1.1940241962
H    1.3396814808  4.7356986558 -1.6102155615
C    1.1061562229  2.7888539669 -0.5703927432
C    2.4391328444  2.4219982018 -0.2318131013
C    2.7860959097  1.1186723485  0.1279066707
C    4.0496558944  0.6993032437  0.6595750967
H    4.8115575077  1.3558599590  1.0326413247
C    4.0575658063 -0.6595285479  0.6418764668
H    4.8274119453 -1.3155429339  0.9990731265
C    2.7979704999 -1.0802213941  0.1025023252
C    3.4920884907  3.4305136137 -0.3193631582
C    3.2998462008  4.7316843185  0.1527678335
C    4.3029900255  5.6749012603  0.0467598306
C    5.5211979314  5.3435040906 -0.5267380884
H    6.3042159393  6.0827222656 -0.6066384657
C    5.7262450520  4.0568592382 -0.9999933519
C    4.7230924926  3.1132133413 -0.9041268168
N    0.0367347363 -2.0269493531 -0.1869543251
N   -2.0134527283 -0.0085041010 -0.1172383113
C    2.4602533294 -2.3861442156 -0.2724166408
C    1.1226555623 -2.7654290452 -0.5625356804
C    0.6855547904 -3.9779066344 -1.1432628680
H    1.3112875474 -4.7197301732 -1.5991668944
C   -0.6892501196 -3.9942499202 -1.0420082612
H   -1.3607935863 -4.7579064111 -1.3825719378
C   -1.0650637377 -2.7827310840 -0.4219528661
C   -2.3934318917 -2.4251600444 -0.0334315274
C   -2.7949688503 -1.1048558703  0.1485743406
C   -4.0959163073 -0.6653134723  0.5685744127
H   -4.8864247698 -1.3058165689  0.9071189227
C   -4.1074738270  0.6887695512  0.4850044766
H   -4.9090529985  1.3547607555  0.7385933901
C   -2.8089234683  1.0967321317  0.0284575690
C   -3.3100506601 -3.5408632042  0.1984559605
C   -2.8604691766 -4.6306406703  0.9519729853
C   -3.6859018262 -5.7064122018  1.2048750499
C   -4.9786546368 -5.7242610693  0.7059296418
H   -5.6243659279 -6.5672389700  0.9015987193
C   -5.4332220262 -4.6576675357 -0.0516374627
C   -4.6107119623 -3.5762224642 -0.3057429215
Fe  -0.0021062469  0.0121789949  0.2392066053
C    3.5244560517 -3.3787608406 -0.3845873356
C    3.3498124796 -4.6929852506  0.0601282157
C    4.7554296255 -3.0329922431 -0.9551125039
C    4.3646071549 -5.6212623082 -0.0644704155
C    5.7736634923 -3.9590187568 -1.0601778482
H    4.2076531643 -6.6340797176  0.2775898272
C    5.5828539923 -5.2596297194 -0.6200132185
H    6.7196616038 -3.6677355093 -1.4954937874
H    6.3775271733 -5.9852818641 -0.7093688910
C   -3.4028944825  3.4940821455 -0.2139592536
C   -3.0896470471  4.6693628081  0.4751214860
C   -4.6385428959  3.4092167586 -0.8573023800
C   -3.9835442165  5.7198878698  0.5236048970
C   -5.5277029334  4.4667007885 -0.8116972697
H   -3.7263401195  6.6178255256  1.0661575591
C   -5.2058163272  5.6242512082 -0.1218928629
H   -6.4759849269  4.3911474229 -1.3223876495
H   -5.9011282209  6.4469787542 -0.0886516810
H    4.1366131812  6.6760561682  0.4149233396
H    6.6695728903  3.7897759482 -1.4518126209
H   -3.3210294257 -6.5344558408  1.7939424123
H   -6.4359542255 -4.6724974016 -0.4519341537
H   -2.1441234176  4.7373432275  0.9930003106
H   -4.8826299837  2.5213841611 -1.4216707134
H    2.4187976112 -4.9721170583  0.5298793625
H    4.8959503771 -2.0341480241 -1.3435012344
H   -1.8601999935 -4.6091319316  1.3564803825
H   -4.9615131176 -2.7684023854 -0.9306126601
H    2.3652111546  4.9877599904  0.6284266401
H    4.8739549201  2.1240024080 -1.3104304093
Cl  -0.0306742240  0.0375054553  2.3784938627
78
aligned d3map frame 175
N   -0.0132841011  2.0677255608 -0.1332657616
N    2.0011595979  0.0106987861 -0.1478693592
C   -2.4226370692  2.4369999973 -0.0639438076
C   -1.1085230220  2.8669114824  0.0162667961
C   -0.6878076842  4.2398413293  0.1045011116
H   -1.3504550825  5.0760182199  0.2170287266
C    0.6615338549  4.2484413261 -0.0206676694
H    1.3247823268  5.0919479359 -0.0233931092
C    1.0791819676  2.8796703801 -0.1592851808
C    2.3843166417  2.4517547934 -0.3635414275
C    2.7809466100  1.0963923250 -0.4491049966
C    4.0910990267  0.6729904898 -0.7687525918
H    4.9016102413  1.3162378311 -1.0511472995
C    4.1069277044 -0.6974138966 -0.6424301354
H    4.9284498124 -1.3584031586 -0.8379535236
C    2.8131883224 -1.0847337248 -0.2288682904
C    3.4396340692  3.4825438370 -0.4732205523
C    3.8996198348  4.1300991162  0.6689673961
C    4.8823564459  5.0987199224  0.5737338506
C    5.4082812127  5.4384424279 -0.6613892373
H    6.1718277943  6.1987171489 -0.7336673217
C    4.9508621724  4.8009299324 -1.8023529187
C    3.9753392002  3.8243212803 -1.7103524355
N    0.0192005285 -2.0510511178 -0.0697013965
N   -2.0026185885 -0.0053132956 -0.1661796527
C    2.4303914984 -2.4226356114  0.0870437634
C    1.1060937033 -2.8194251386  0.2439567974
C    0.6599604726 -4.1093982059  0.6899901360
H    1.2934407607 -4.8820231344  1.0797074361
C   -0.6916713792 -4.1239252931  0.5713076112
H   -1.3668129076 -4.9121501399  0.8419572023
C   -1.0828705851 -2.8370093295  0.0705321813
C   -2.3918960879 -2.4522748736 -0.2337413828
C   -2.7815159589 -1.1020296544 -0.4340233625
C   -4.0687597282 -0.6832991723 -0.8379914198
H   -4.8619924291 -1.3202218913 -1.1763652557
C   -4.0918593277  0.6901860453 -0.7384389190
H   -4.9176775285  1.3424865592 -0.9419931221
C   -2.8052829980  1.0893628494 -0.3212066907
C   -3.4008708300 -3.5070337903 -0.3400516151
C   -4.6472139977 -3.4077661552  0.2832025904
C   -5.5813825713 -4.4175599897  0.1528896750
C   -5.2922897877 -5.5488028957 -0.5943215993
H   -6.0247552988 -6.3355420941 -0.6958070671
C   -4.0549842375 -5.6655893945 -1.2088992602
C   -3.1200791767 -4.6572790226 -1.0853181149
Fe  -0.0021062469  0.0121789949  0.2392066053
C    3.4824649683 -3.4332523160  0.1988231180
C    3.3542695937 -4.6582200612 -0.4633577278
C    4.6357905466 -3.2026265914  0.9534944646
C    4.3423219738 -5.6185800148 -0.3701456428
C    5.6234352336 -4.1649372342  1.0410805566
H    4.2256579623 -6.5589427783 -0.8896635701
C    5.4824978464 -5.3757836465  0.3806220150
H    6.5092956732 -3.9713846825  1.6297412600
H    6.2570460425 -6.1249913284  0.4489308072
C   -3.4919076611  3.4354776523  0.1321139379
C   -4.2922382668  3.8814276978 -0.9147717496
C   -3.7008884408  3.9470747996  1.4103714935
C   -5.2879688924  4.8136750090 -0.6831021832
C   -4.7036601377  4.8708349661  1.6396776207
H   -5.9003776293  5.1591044320 -1.5033220512
C   -5.5008414367  5.3056876723  0.5938759695
H   -4.8632805524  5.2516749869  2.6377062427
H   -6.2833640945  6.0280508275  0.7733973015
H    5.2385989318  5.5892964032  1.4666869145
H    5.3538412214  5.0660894108 -2.7682358706
H   -6.5409175310 -4.3242793331  0.6398963756
H   -3.8197141529 -6.5456805000 -1.7905183365
H   -4.1170834740  3.5086411451 -1.9135134851
H   -3.0783079241  3.6017825074  2.2227708603
H    2.4827158802 -4.8366491326 -1.0767731499
H    4.7370471103 -2.2718570422  1.4916753085
H   -4.8653460214 -2.5454130668  0.8954164464
H   -2.1672122656 -4.7388686254 -1.5896865272
H    3.4866597373  3.8612663751  1.6299932859
H    3.6140223612  3.3274787310 -2.5990846367
Cl  -0.0178332162  0.0578830098  2.3788695858
78
aligned d3map frame 176
N   -0.0094196239  2.0705174178 -0.1294884018
N    2.0101928936  0.0240052780 -0.0959659361
C   -2.4246692393  2.4411660362 -0.2558387487
C   -1.1084535666  2.8759143739 -0.1665330459
C   -0.6992433789  4.2524133454 -0.1219118590
H   -1.3688990154  5.0898741217 -0.1563119907
C    0.6533324493  4.2598303149 -0.0360101117
H    1.3148938944  5.1033158023  0.0120839118
C    1.0816909525  2.8879487449 -0.0458464913
C    2.4033607464  2.4729774655 -0.0558352935
C    2.8210266899  1.1214166167 -0.1777963224
C    4.1624740422  0.7212299016 -0.3557229914
H    5.0052474957  1.3761828486 -0.4541796339
C    4.1647511175 -0.6554539944 -0.3752169293
H    5.0054377286 -1.3053459417 -0.5194499346
C    2.8276205686 -1.0687032184 -0.1851934508
C    3.4609676384  3.4924949743  0.1001864315
C    3.6641816979  4.0663634746  1.3522864295
C    4.6735254279  4.9925869835  1.5414351690
C    5.4807926999  5.3669374036  0.4805052141
H    6.2698861725  6.0893990893  0.6283537706
C    5.2736895372  4.8118944964 -0.7716628186
C    4.2735026877  3.8752145282 -0.9619141822
N    0.0114807870 -2.0545295859 -0.0641345976
N   -2.0122337149 -0.0039284953 -0.1149300409
C    2.4316181874 -2.4271732280 -0.0659103415
C    1.1111820246 -2.8610999496 -0.0050370480
C    0.6986959085 -4.2196893964  0.2148907342
H    1.3652913558 -5.0548838762  0.3078782534
C   -0.6532085641 -4.2139946198  0.3042729847
H   -1.3104155580 -5.0482833147  0.4550800512
C   -1.0793544000 -2.8509866747  0.1457674532
C   -2.4019468287 -2.4328901552  0.1784973827
C   -2.8319934603 -1.0949945577 -0.0389322239
C   -4.1821080260 -0.6954415928 -0.1479329929
H   -5.0362387618 -1.3409146474 -0.1054660429
C   -4.1802181866  0.6713723163 -0.3013354273
H   -5.0305253353  1.3150916692 -0.4103855486
C   -2.8292660651  1.0850086460 -0.2620952426
C   -3.4304491565 -3.4244351734  0.5440422872
C   -3.4025065426 -3.9733494300  1.8251852363
C   -4.3741951801 -4.8726459069  2.2237656625
C   -5.3779958366 -5.2461060954  1.3458673649
H   -6.1378715815 -5.9475752169  1.6585155040
C   -5.4040663622 -4.7176380675  0.0650745258
C   -4.4403623502 -3.8097604759 -0.3344852910
Fe  -0.0021062469  0.0121789949  0.2392066053
C    3.5092888726 -3.4118618032  0.1186900284
C    4.3864275877 -3.2593178252  1.1931422419
C    3.6753986878 -4.5002620474 -0.7357879943
C    5.3936578462 -4.1793203881  1.4148684144
C    4.6951346780 -5.4090186173 -0.5194570369
H    6.0545428416 -4.0544106297  2.2600571926
C    5.5529655000 -5.2554541615  0.5580753409
H    4.8224241890 -6.2438382209 -1.1941653123
H    6.3424713899 -5.9730913235  0.7297658904
C   -3.5004349718  3.4552773686 -0.2510421351
C   -4.2515855201  3.7173864603 -1.3926009742
C   -3.7908068735  4.1402290842  0.9254018047
C   -5.2773011819  4.6450299558 -1.3539359115
C   -4.8270918200  5.0550925812  0.9639775077
H   -5.8520021980  4.8468182399 -2.2464753879
C   -5.5735032339  5.3087714928 -0.1749228504
H   -5.0555058475  5.5674662067  1.8868892658
H   -6.3854918267  6.0190948374 -0.1435428429
H    4.8312699656  5.4193266518  2.5212619603
H    5.8969500477  5.1077985553 -1.6029321542
H   -4.3493188581 -5.2796628993  3.2243706671
H   -6.1817928622 -5.0137037950 -0.6244896939
H   -4.0207732902  3.1939196784 -2.3090430282
H   -3.2087269425  3.9320799025  1.8112470303
H    4.2522731293 -2.4228145277  1.8625620535
H    3.0161128380 -4.6162834197 -1.5840236544
H   -2.6237999145 -3.6695759791  2.5096590967
H   -4.4516587670 -3.4059628070 -1.3363727299
H    3.0342513822  3.7658446217  2.1767662559
H    4.1093472873  3.4408498155 -1.9374778280
Cl  -0.0136385071  0.0199478427  2.3800367291
78
aligned d3map frame 177
N   -0.0097892750  2.0593227569 -0.1908709857
N    2.0093605254  0.0229358862 -0.0956337662
C   -2.4055554834  2.3895670719 -0.6096246951
C   -1.0843190885  2.8240001884 -0.5544289393
C   -0.6330992473  4.1435557650 -0.8869895670
H   -1.2530800864  4.9374346605 -1.2539232551
C    0.7075075141  4.1719443407 -0.6747483167
H    1.3795222779  4.9921431442 -0.8317463648
C    1.0906044165  2.8612608587 -0.2423457738
C    2.4127955677  2.4587599818 -0.0212931760
C    2.8188529347  1.1125490946  0.1021078775
C    4.1506698349  0.6843225925  0.3186495228
H    4.9820646300  1.3173766615  0.5586044479
C    4.1541096708 -0.6836698233  0.1824263856
H    4.9864578566 -1.3515367159  0.2903926601
C    2.8220377635 -1.0699585474 -0.0953465260
C    3.4511134044  3.4959656055 -0.0724078576
C    3.3840520343  4.6216208828  0.7488411964
C    4.3369463047  5.6180585875  0.6506340857
C    5.3649317917  5.5159148154 -0.2753297428
H    6.1000659114  6.3018538388 -0.3577428670
C    5.4445096894  4.3981521935 -1.0912357243
C    4.5004619084  3.3938960637 -0.9872306770
N    0.0067350732 -2.0447386701 -0.1268639433
N   -2.0097690743 -0.0092809488 -0.1153492429
C    2.4190943562 -2.4129231488 -0.3507736288
C    1.0953567549 -2.8414387945 -0.3466361214
C    0.6573964592 -4.1929773428 -0.5549809436
H    1.2952956687 -5.0209152026 -0.7928130334
C   -0.6900607321 -4.2052835426 -0.3941119102
H   -1.3563021839 -5.0429809678 -0.4540920286
C   -1.0918751848 -2.8531531277 -0.1432791360
C   -2.4111291524 -2.4386718403  0.0340684835
C   -2.8282846698 -1.0927512854  0.0718983349
C   -4.1810900065 -0.6743402401  0.0845821385
H   -5.0303878864 -1.3131938288  0.2255713393
C   -4.1763692181  0.6804545461 -0.1434430690
H   -5.0217086574  1.3373769897 -0.1887401664
C   -2.8231789035  1.0682407483 -0.2881283234
C   -3.4832369469 -3.4561920741  0.0169560038
C   -4.2272825361 -3.7355415309  1.1579892321
C   -5.2633501778 -4.6521101627  1.1068972568
C   -5.5755994629 -5.2884879991 -0.0828780935
H   -6.3941524540 -5.9927565707 -0.1236295324
C   -4.8362636914 -5.0170833414 -1.2224602532
C   -3.7930200112 -4.1111048867 -1.1729546128
Fe  -0.0021062469  0.0121789949  0.2392066053
C    3.4880806744 -3.3649149185 -0.6769317226
C    4.3632431989 -3.0574022310 -1.7216040756
C    3.6535446747 -4.5748872883 -0.0032280086
C    5.3502587572 -3.9450492902 -2.1028944804
C    4.6479258577 -5.4581313513 -0.3835999215
H    6.0079335958 -3.6958215138 -2.9232505261
C    5.4924487911 -5.1538857229 -1.4390637600
H    4.7656511414 -6.3919663275  0.1475472047
H    6.2583213562 -5.8538003701 -1.7407483725
C   -3.4378808403  3.3035731939 -1.1157801504
C   -4.2054695802  2.9015421989 -2.2122722338
C   -3.6557108751  4.5689603005 -0.5769721912
C   -5.1432127783  3.7482245890 -2.7663877548
C   -4.6032354045  5.4108339549 -1.1299620707
H   -5.7159116895  3.4211547530 -3.6227297298
C   -5.3433038206  5.0091161666 -2.2297808229
H   -4.7658295218  6.3880144856 -0.7001985193
H   -6.0755506597  5.6712085977 -2.6634630416
H    4.2770513991  6.4849562446  1.2939839204
H    6.2446304316  4.3070669272 -1.8094511624
H   -5.8358467738 -4.8661301799  1.9974263124
H   -5.0774838629 -5.5087096343 -2.1543032672
H   -4.0409654515  1.9221738728 -2.6386055742
H   -3.1001047471  4.8778409579  0.2963866671
H    4.2419892438 -2.1217298052 -2.2483109951
H    3.0170638528 -4.8078186298  0.8384507286
H   -3.9834628124 -3.2347729338  2.0846361498
H   -3.2171951989 -3.8880796005 -2.0608863113
H    2.5861427503  4.7024134265  1.4740784217
H    4.5494295830  2.5343409018 -1.6392793049
Cl   0.0184363427  0.0200402660  2.3804408865
78
aligned d3map frame 178
N   -0.0096490568  2.0637734258 -0.1533654252
N    2.0027540049  0.0320999606 -0.1329056628
C   -2.3808208725  2.3997150109 -0.6297558130
C   -1.0676140618  2.8454949679 -0.5161664774
C   -0.6020789051  4.1877913888 -0.7306898978
H   -1.1960649107  5.0084038534 -1.0738727197
C    0.7179279361  4.2074293321 -0.4132642489
H    1.3943013932  5.0387504581 -0.4573642275
C    1.0874481186  2.8663921440 -0.0733509674
C    2.4007088752  2.4478478943  0.1631398983
C    2.8295919505  1.1038285588  0.0863043232
C    4.1767085027  0.6677765748  0.1124753586
H    5.0362248430  1.2766060868  0.3104932957
C    4.1613864214 -0.6796757792 -0.1532721333
H    4.9994430375 -1.3464795587 -0.2132896285
C    2.8046088243 -1.0544144650 -0.2986224760
C    3.3959251292  3.4967876695  0.4334479795
C    3.2241242658  4.3121328228  1.5526458501
C    4.1459534561  5.2969950707  1.8500662730
C    5.2403129561  5.5010150333  1.0237306650
H    5.9533898328  6.2767189323  1.2563681260
C    5.4078365576  4.7101385758 -0.1015273808
C    4.4971420764  3.7101586863 -0.3922301977
N   -0.0071764615 -2.0482869510 -0.0884284598
N   -2.0020591226 -0.0144669771 -0.1549021473
C    2.3760856392 -2.3900921925 -0.5413531838
C    1.0645318673 -2.8314846215 -0.4075547244
C    0.6196237876 -4.1849247801 -0.5892541916
H    1.2420242762 -5.0077848435 -0.8785009746
C   -0.7145159736 -4.2015243530 -0.3412587338
H   -1.3823380384 -5.0393886343 -0.3939821304
C   -1.1041227479 -2.8544125654 -0.0359428453
C   -2.4228896359 -2.4299815316  0.1520647464
C   -2.8240574218 -1.0728576459  0.1465166154
C   -4.1501806092 -0.6076175953  0.3136183546
H   -4.9893898851 -1.1988703262  0.6267170111
C   -4.1376377835  0.7389322914  0.0296057617
H   -4.9673757753  1.4185585066  0.0645080564
C   -2.7989138002  1.0800068631 -0.2717879688
C   -3.4747698499 -3.4525569690  0.2229243294
C   -3.3995090032 -4.4942744084  1.1492615370
C   -4.3871005136 -5.4603079732  1.2001444376
C   -5.4626587246 -5.4076048891  0.3270398607
H   -6.2325805132 -6.1639615170  0.3684868922
C   -5.5433864097 -4.3810405886 -0.5992125966
C   -4.5605009892 -3.4106563576 -0.6523061702
Fe  -0.0021062469  0.0121789949  0.2392066053
C    3.4030106307 -3.3408539225 -0.9953998078
C    4.0690903998 -3.0790709897 -2.1950122961
C    3.7146348791 -4.5038712879 -0.2959715008
C    4.9982449225 -3.9689907422 -2.6952614565
C    4.6589494651 -5.3844074004 -0.7924442363
H    5.4868372355 -3.7604048197 -3.6358082510
C    5.2968963336 -5.1274335608 -1.9949616426
H    4.9002815729 -6.2802838036 -0.2380819259
H    6.0211565948 -5.8248141055 -2.3880627410
C   -3.4271838506  3.2706446335 -1.1730455087
C   -4.2023032347  2.7779724610 -2.2287750399
C   -3.6775813048  4.5628348552 -0.7103885976
C   -5.1733701060  3.5609092518 -2.8194264992
C   -4.6548872756  5.3423767178 -1.3026312911
H   -5.7533445480  3.1669201663 -3.6412977746
C   -5.4022577318  4.8480016950 -2.3597054175
H   -4.8423299196  6.3396975439 -0.9329999451
H   -6.1680856798  5.4543037899 -2.8181537488
H    4.0095218049  5.9108156186  2.7293264051
H    6.2508685057  4.8740911850 -0.7567586256
H   -4.3216530326 -6.2607824440  1.9229989319
H   -6.3741175691 -4.3347990919 -1.2881727925
H   -4.0114184972  1.7769692453 -2.5950400079
H   -3.1284806743  4.9415566839  0.1383188993
H    3.8287720859 -2.1786078264 -2.7423433533
H    3.2313500375 -4.7055650102  0.6482215878
H   -2.5711667359 -4.5269147075  1.8396370614
H   -4.6127000893 -2.6268388024 -1.3936348390
H    2.3709365651  4.1504932932  2.1942413631
H    4.6159311854  3.1034569755 -1.2788048540
Cl  -0.0338998197  0.0516856022  2.3786975549
78
aligned d3map frame 179
N   -0.0102343478  2.0607055435 -0.1930808743
N    2.0145382207  0.0210184146 -0.0715277498
C   -2.4276099941  2.4471049463 -0.1932567741
C   -1.1095823382  2.8733084471 -0.2234515473
C   -0.6944415575  4.2414397523 -0.3512058517
H   -1.3613506911  5.0802450683 -0.4006779994
C    0.6605472099  4.2401023861 -0.3993866845
H    1.3262574945  5.0771085938 -0.4826691439
C    1.0800297410  2.8710287369 -0.2924396803
C    2.4068572592  2.4612177667 -0.2420799643
C    2.8289588768  1.1233022192 -0.0732146848
C    4.1819630805  0.7260981287  0.0220874192
H    5.0257194922  1.3865871225  0.0494901489
C    4.1891056396 -0.6482903611  0.0643630200
H    5.0392444753 -1.2938195545  0.1643068678
C    2.8425017647 -1.0657304881 -0.0322180195
C    3.4626306674  3.4682588478 -0.4776030887
C    4.3032141305  3.9146042468  0.5355700494
C    5.3133097839  4.8186123515  0.2546297862
C    5.5046876962  5.2737770467 -1.0392344604
H    6.3047412105  5.9647462069 -1.2609528427
C    4.6658913204  4.8381441077 -2.0520492512
C    3.6455945082  3.9486423091 -1.7724423114
N    0.0178319236 -2.0458775400 -0.1278948580
N   -2.0163495873  0.0005200650 -0.0895410414
C    2.4424274619 -2.4243370553 -0.1471904497
C    1.1201132197 -2.8524448105 -0.1901445554
C    0.7053890252 -4.2167757571 -0.3513634299
H    1.3644493091 -5.0561363449 -0.4567928765
C   -0.6504309659 -4.2215140859 -0.3536017338
H   -1.3032549185 -5.0691509294 -0.4249185875
C   -1.0753957085 -2.8568288514 -0.2303604797
C   -2.4063854742 -2.4453438311 -0.2074560799
C   -2.8335403397 -1.0979192432 -0.1250092942
C   -4.1867231909 -0.6898727015 -0.1908347692
H   -5.0358781754 -1.3411618678 -0.2457229637
C   -4.1885859684  0.6845481980 -0.1899399678
H   -5.0382239202  1.3374731811 -0.2273910430
C   -2.8371285656  1.0921602391 -0.1435193640
C   -3.4527623792 -3.4694077168 -0.3720418368
C   -4.4300030244 -3.6718173304  0.6007784591
C   -5.4252542344 -4.6118176700  0.4059111978
C   -5.4645169806 -5.3582165139 -0.7613062095
H   -6.2507334648 -6.0825760904 -0.9140034024
C   -4.4942477812 -5.1677628344 -1.7305683621
C   -3.4939675081 -4.2334014769 -1.5373888984
Fe  -0.0021062469  0.0121789949  0.2392066053
C    3.5143312301 -3.4137883062 -0.3398437587
C    3.6766532673 -4.5089413028  0.5067964226
C    4.3918786912 -3.2629223498 -1.4150255036
C    4.6896214708 -5.4240851551  0.2835022121
C    5.3967972423 -4.1834396944 -1.6402802219
H    4.8104536365 -6.2641515147  0.9519795143
C    5.5507963303 -5.2671531316 -0.7904498793
H    6.0617417040 -4.0546882941 -2.4821287635
H    6.3397012267 -5.9840490499 -0.9646879703
C   -3.4916753029  3.4714083298 -0.2760505814
C   -3.8154905484  4.2456054897  0.8329848920
C   -4.1777215690  3.6744824762 -1.4696620018
C   -4.8140145861  5.1998058747  0.7503636099
C   -5.1656986751  4.6386520060 -1.5525545391
H   -5.0664686562  5.7887147362  1.6199766849
C   -5.4888914066  5.4009671171 -0.4420579365
H   -5.6853075913  4.7947526712 -2.4869299168
H   -6.2651578422  6.1489956947 -0.5073929550
H    5.9588535295  5.1634616091  1.0493820400
H    4.8106180798  5.1881464588 -3.0642911919
H   -6.1782131439 -4.7612868268  1.1659036487
H   -4.5182361080 -5.7434333712 -2.6446604330
H   -3.2864635680  4.0858439129  1.7611319911
H   -3.9243387105  3.0767977344 -2.3334106045
H    3.0189528628 -4.6238775777  1.3563816770
H    4.2650491346 -2.4245153178 -2.0844626522
H   -4.3932671926 -3.0980506054  1.5148624746
H   -2.7476909960 -4.0690052949 -2.3013129178
H    4.1564849509  3.5546386608  1.5435305725
H    2.9911603191  3.6026893365 -2.5593013911
Cl  -0.0124845224  0.0695099214  2.3783349238
78
aligned d3map frame 180
N   -0.0141208990  2.0512069391 -0.2145347350
N    2.0049751381  0.0182918144 -0.1017709335
C   -2.3796580566  2.4217266094  0.3075923426
C   -1.0666383633  2.8460855556  0.1375548168
C   -0.6320608654  4.2161459818  0.1699599738
H   -1.2595119198  5.0519622849  0.4072807731
C    0.6765025887  4.2253389383 -0.1843932975
H    1.3304507965  5.0716932541 -0.2730279226
C    1.0669462039  2.8577170316 -0.3873849209
C    2.3791458449  2.4230463386 -0.5821873828
C    2.7936545692  1.0741484056 -0.4766943522
C    4.1199583246  0.6212175321 -0.6731025546
H    4.9419232245  1.2220035726 -1.0163625240
C    4.1336464236 -0.7202240729 -0.3645180947
H    4.9674327995 -1.3931623922 -0.4043908692
C    2.8125295278 -1.0690190014 -0.0078194351
C    3.4182135924  3.4420620564 -0.7935005317
C    4.4887083941  3.5565121781  0.0927898821
C    5.4503529568  4.5314033009 -0.0923600093
C    5.3679698774  5.3976278924 -1.1712036619
H    6.1229907942  6.1577572178 -1.3143742002
C    4.3134012669  5.2861294555 -2.0624473206
C    3.3404571205  4.3214152013 -1.8723854452
N    0.0326353588 -2.0389584808 -0.1476715046
N   -2.0072836056  0.0170722654 -0.1179612742
C    2.3999800785 -2.4017370380  0.3161022021
C    1.0870624250 -2.8387032720  0.2069397645
C    0.6152462879 -4.1830453072  0.3930326610
H    1.2130805812 -5.0060113917  0.7312052147
C   -0.7051206193 -4.1864904260  0.0819720098
H   -1.3850825198 -5.0156694111  0.1156580237
C   -1.0664768253 -2.8339066774 -0.2393180254
C   -2.3715723324 -2.4043068834 -0.4968054725
C   -2.7908959881 -1.0529573552 -0.4609038608
C   -4.1201945866 -0.6132148396 -0.6571110974
H   -4.9410374435 -1.2172277007 -0.9892961843
C   -4.1468106306  0.7305666356 -0.3538575022
H   -5.0060055264  1.3715745263 -0.3608599932
C   -2.8252462037  1.1039514176 -0.0358631101
C   -3.3801293457 -3.4463419990 -0.7406147217
C   -4.5319892322 -3.5522436098  0.0368787581
C   -5.4508885412 -4.5547333811 -0.2054257355
C   -5.2425269800 -5.4629405404 -1.2314105618
H   -5.9658094772 -6.2456992143 -1.4184787400
C   -4.1021658220 -5.3667309082 -2.0101001995
C   -3.1735059210 -4.3735919007 -1.7627745441
Fe  -0.0021062469  0.0121789949  0.2392066053
C    3.4668044072 -3.3181219942  0.7266275350
C    4.3140844572 -2.9313322840  1.7701269850
C    3.6827216116 -4.5497270151  0.1108551858
C    5.3359029137 -3.7586146500  2.1879287720
C    4.7134022367 -5.3719828667  0.5303967697
H    5.9793590525 -3.4498703888  2.9992256345
C    5.5422351852 -4.9823560509  1.5684994146
H    4.8741183492 -6.3197435955  0.0363158594
H    6.3479429671 -5.6260115957  1.8879159386
C   -3.3082844412  3.3648421805  0.9472264067
C   -2.9482601479  3.8217712301  2.2198190386
C   -4.5047926918  3.8135242619  0.3918876994
C   -3.7742145459  4.6762900874  2.9234305680
C   -5.3294257521  4.6697993833  1.1013251928
H   -3.4766533504  5.0090779372  3.9093268129
C   -4.9719690015  5.0998349901  2.3696638644
H   -6.2566103181  5.0079879275  0.6594780183
H   -5.6209246678  5.7635102338  2.9211287026
H    6.2675374725  4.6156821112  0.6072585177
H    4.2497025248  5.9550454434 -2.9083013472
H   -6.3344719837 -4.6331874917  0.4101523635
H   -3.9285898435 -6.0726262870 -2.8104867310
H   -2.0237384732  3.4721654497  2.6561853714
H   -4.7780914622  3.5215235035 -0.6125133004
H    4.1444529648 -1.9826456092  2.2585034930
H    3.0623758872 -4.8402370375 -0.7240365992
H   -4.6864060278 -2.8594382435  0.8516094185
H   -2.2859580531 -4.2965225380 -2.3737595665
H    4.5439239934  2.8891253950  0.9402787123
H    2.5221478726  4.2302524620 -2.5719481501
Cl  -0.0066954686  0.0648472194  2.3784280626
78
aligned d3map frame 181
N   -0.0208589182  2.0702544787 -0.1467522988
N    2.0025226037 -0.0125970901 -0.1315090967
C   -2.4457480442  2.4193410863 -0.1695126436
C   -1.1304223594  2.8499982378 -0.0007331208
C   -0.7370703114  4.1710392676  0.4108628665
H   -1.4145253863  4.9713053528  0.6344932814
C    0.6137108326  4.1722773464  0.5077988058
H    1.2494134897  4.9754778916  0.8244548428
C    1.0637288865  2.8580206909  0.1373512352
C    2.3840170445  2.4377823788  0.0746509175
C    2.7714074049  1.1044311720 -0.2686711269
C    4.0343555872  0.7621338899 -0.7885460589
H    4.8183152967  1.4529875935 -1.0311980608
C    4.0376913383 -0.6071644302 -0.9533265195
H    4.8233763583 -1.2062493010 -1.3686981891
C    2.7855707985 -1.0769921511 -0.4989579976
C    3.4759536399  3.3560489910  0.4064647347
C    4.4279910993  2.9462183521  1.3442115162
C    5.4556991933  3.7874447397  1.7202703297
C    5.5665903938  5.0475616073  1.1537552788
H    6.3718180690  5.7051037475  1.4444467429
C    4.6417512149  5.4569207396  0.2064828346
C    3.6022809472  4.6230282495 -0.1636902049
N    0.0216884166 -2.0486191299 -0.0876972052
N   -2.0033809230 -0.0184015335 -0.1509313051
C    2.4179665746 -2.4418075160 -0.3661585930
C    1.1187704645 -2.8460274214 -0.0325521022
C    0.7259918744 -4.1779564813  0.3412528252
H    1.4011120948 -4.9888118023  0.5348081185
C   -0.6265177018 -4.1814141539  0.4390356937
H   -1.2743147646 -4.9965733833  0.6978741398
C   -1.0671443904 -2.8489083720  0.1386853413
C   -2.3801883120 -2.4587739221 -0.0432254434
C   -2.7854356704 -1.1286454935 -0.3102520679
C   -4.0856315283 -0.7525557318 -0.7085269543
H   -4.8894697544 -1.4294736775 -0.9222710289
C   -4.0966213987  0.6230466160 -0.7666706316
H   -4.9097796673  1.2569837497 -1.0615740372
C   -2.8077199894  1.0591455366 -0.3820125977
C   -3.4221199495 -3.5104489221 -0.0149918206
C   -4.0640152437 -3.8439024813  1.1713922329
C   -5.0112298609 -4.8528775798  1.1901204299
C   -5.3283709054 -5.5330861635  0.0263487140
H   -6.0659128298 -6.3217510010  0.0423883739
C   -4.6957564101 -5.2002388853 -1.1595209758
C   -3.7451931054 -4.1950161685 -1.1812917307
Fe  -0.0021062469  0.0121789949  0.2392066053
C    3.4026692551 -3.4919182542 -0.6235693482
C    3.0351722984 -4.5894862498 -1.4124869063
C    4.7008193306 -3.4553581222 -0.1090926080
C    3.9226281304 -5.6165352712 -1.6610879452
C    5.5910964914 -4.4796071002 -0.3724744835
H    3.6117681037 -6.4576172097 -2.2642772826
C    5.2068791439 -5.5666358955 -1.1424091564
H    6.5917941742 -4.4358580846  0.0325339251
H    5.9027061192 -6.3694235791 -1.3361854456
C   -3.5474471201  3.3740533715 -0.0223489028
C   -3.5779244394  4.5915675637 -0.7041452434
C   -4.6064890338  3.0645077767  0.8369167859
C   -4.6342470932  5.4667544483 -0.5301223437
C   -5.6574319532  3.9421489910  1.0088071508
H   -4.6483842103  6.4034676742 -1.0684721003
C   -5.6768979558  5.1477870119  0.3250271447
H   -6.4637744518  3.6862365260  1.6808084423
H   -6.5002529433  5.8337783608  0.4573743843
H    6.1734913616  3.4605041694  2.4587701342
H    4.7330835506  6.4325180774 -0.2483467427
H   -5.4999268289 -5.1085835157  2.1180754340
H   -4.9389698047 -5.7265909282 -2.0708847568
H   -2.7841452274  4.8348067273 -1.3957925401
H   -4.5783464133  2.1363770173  1.3872108299
H    2.0473670799 -4.6157485489 -1.8492463343
H    4.9973541774 -2.6354042006  0.5278317096
H   -3.8103297615 -3.3127010162  2.0769766285
H   -3.2442534982 -3.9349326639 -2.1027518060
H    4.3316042034  1.9692673168  1.7947125458
H    2.9009661848  4.9385682982 -0.9225406953
Cl  -0.0270821877  0.0952446220  2.3780967395
78
aligned d3map frame 182
N   -0.0093962733  2.0530981122 -0.2209630058
N    2.0085987378 -0.0017127647 -0.0849627661
C   -2.4242120935  2.4368753474  0.0073259165
C   -1.1076071542  2.8619748508 -0.1799300543
C   -0.7092728125  4.2139814428 -0.4441969924
H   -1.3583639662  5.0677856464 -0.4379968567
C    0.6221544056  4.1917171170 -0.7098123101
H    1.2395165344  5.0169007937 -1.0039685525
C    1.0661395251  2.8405939847 -0.5174075257
C    2.3908655920  2.4081644343 -0.5564270643
C    2.8065876748  1.0953698535 -0.1906891751
C    4.1416796537  0.7513628882  0.1230095054
H    4.9698602343  1.4312488965  0.1679451517
C    4.1524218114 -0.5966845461  0.3953171772
H    4.9897701708 -1.1920217708  0.7012113513
C    2.8282882575 -1.0599569826  0.2125841486
C    3.4558426776  3.3006886464 -1.0285293843
C    3.6833649716  4.5765375647 -0.5146528981
C    4.6859412735  5.3746528166 -1.0373364542
C    5.4831659446  4.9159832356 -2.0731402326
H    6.2612735754  5.5434808216 -2.4816774625
C    5.2823114845  3.6395748915 -2.5762606857
C    4.2837155200  2.8402930047 -2.0580953725
N    0.0360241893 -2.0360681982 -0.1595212785
N   -2.0112225134 -0.0043306808 -0.0996362497
C    2.4343632099 -2.4183487827  0.1980889653
C    1.1267327753 -2.8468849715 -0.0438606699
C    0.7412659503 -4.2011519714 -0.3070159949
H    1.4032568565 -5.0447144265 -0.3039399999
C   -0.5901283011 -4.1899793405 -0.5763412102
H   -1.2173894067 -5.0284602450 -0.8088876851
C   -1.0291865652 -2.8286265969 -0.4712508887
C   -2.3567734307 -2.4120043314 -0.5658357028
C   -2.8076679927 -1.0887299729 -0.3289233976
C   -4.1648573596 -0.6830757940 -0.3687886239
H   -5.0034989150 -1.3225390630 -0.5593066058
C   -4.1835828766  0.6707739902 -0.1439422542
H   -5.0394973496  1.3159691364 -0.1173633924
C   -2.8354823052  1.0825099031 -0.0006691504
C   -3.3516432867 -3.4263365165 -0.9543398459
C   -4.4061511402 -3.7821040427 -0.1167555092
C   -5.3153110423 -4.7482402681 -0.5079160388
C   -5.1909726130 -5.3673875446 -1.7407607215
H   -5.9020145761 -6.1216925068 -2.0436615708
C   -4.1479482024 -5.0171853310 -2.5826718141
C   -3.2328504736 -4.0585956677 -2.1920248313
Fe  -0.0021062469  0.0121789949  0.2392066053
C    3.4923745385 -3.4326746113  0.3033775993
C    3.4323611344 -4.4436639796  1.2617828189
C    4.5775337701 -3.4027350382 -0.5734001668
C    4.4406809233 -5.3853547515  1.3501697608
C    5.5791216492 -4.3506916971 -0.4872147607
H    4.3898719811 -6.1575164645  2.1039975246
C    5.5173915025 -5.3418624512  0.4783880086
H    6.4096370210 -4.3147936683 -1.1775221913
H    6.3039957975 -6.0784123714  0.5497769280
C   -3.4949050360  3.4472318689  0.0691219630
C   -4.3178609380  3.5284282375  1.1907830000
C   -3.7251225821  4.3115235373 -0.9993899418
C   -5.3344066014  4.4643897422  1.2464108906
C   -4.7465241182  5.2415211498 -0.9422982738
H   -5.9629504277  4.5226769767  2.1229017606
C   -5.5518334799  5.3234924867  0.1813558858
H   -4.9169973586  5.9007022247 -1.7809450506
H   -6.3504123920  6.0493602048  0.2258360723
H    4.8489414817  6.3617193736 -0.6286987388
H    5.9060619505  3.2670053647 -3.3744853762
H   -6.1235383752 -5.0222691897  0.1542926870
H   -4.0475432402 -5.4947154722 -3.5466017489
H   -4.1444974134  2.8614421701  2.0221043090
H   -3.1154926147  4.2289967123 -1.8871343706
H    2.6014405082 -4.4696583950  1.9519547090
H    4.6156885922 -2.6410025101 -1.3383467576
H   -4.4929297390 -3.3146679769  0.8529318950
H   -2.4237427868 -3.7771271355 -2.8506077434
H    3.0965337155  4.9279645280  0.3219415070
H    4.1181387768  1.8514644347 -2.4600811253
Cl  -0.0126914281  0.0572879364  2.3782822583
78
aligned d3map frame 183
N   -0.0161000547  2.0554357110 -0.1891339193
N    2.0062335301  0.0162222181 -0.1080789160
C   -2.4275994171  2.3880322827 -0.5581327009
C   -1.0912091921  2.8436378416 -0.4727823608
C   -0.6656679971  4.1883037328 -0.6256659260
H   -1.2940293926  5.0174882826 -0.8856230725
C    0.6871079762  4.2073257493 -0.3863518831
H    1.3449492364  5.0542409620 -0.3968803361
C    1.0747587628  2.8706617465 -0.1302579379
C    2.3985836057  2.4354936461  0.1192063637
C    2.8067412580  1.1097511263  0.1268191324
C    4.1706410055  0.6812731389  0.2274054782
H    5.0042182862  1.3265415827  0.4296936540
C    4.1834850175 -0.6590276114  0.0056833714
H    5.0306992035 -1.3169846018  0.0225072751
C    2.8246175547 -1.0649946762 -0.2168140173
C    3.4368088726  3.4735287772  0.3006251324
C    3.9183511071  3.7627201279  1.5726562328
C    4.9003995751  4.7214004760  1.7440958651
C    5.4175380635  5.3916392177  0.6483132430
H    6.1872916533  6.1295061359  0.7845182641
C    4.9412949370  5.1098060092 -0.6200991013
C    3.9519307745  4.1588871174 -0.7944968600
N    0.0126905254 -2.0407591520 -0.1252256003
N   -2.0071393978 -0.0034129766 -0.1281279442
C    2.4272257945 -2.3902170077 -0.4661188256
C    1.0829538809 -2.8314762322 -0.4211345053
C    0.6395789483 -4.1654008543 -0.5984234769
H    1.2448103827 -4.9933453920 -0.9063067704
C   -0.7050715884 -4.1812474961 -0.3170600100
H   -1.3613630107 -5.0254389973 -0.3191492594
C   -1.0791987042 -2.8489693010 -0.0383445933
C   -2.3942010848 -2.4027740594  0.2575601041
C   -2.8069966322 -1.0800409628  0.1589310805
C   -4.1772962317 -0.6611211628  0.1681375312
H   -5.0140666874 -1.3024576340  0.3698681475
C   -4.1917629194  0.6572781375 -0.1581368742
H   -5.0402196033  1.3066377721 -0.2502629161
C   -2.8261439079  1.0655323115 -0.3261994723
C   -3.3902804712 -3.4016520564  0.6889103120
C   -3.8289040414 -3.3591602058  2.0115940279
C   -4.7299609271 -4.2974199165  2.4771546315
C   -5.2173739408 -5.2775660098  1.6292432483
H   -5.9188561474 -6.0123473062  1.9963999649
C   -4.8034574851 -5.3098166489  0.3077937667
C   -3.8940776830 -4.3777351246 -0.1619204539
Fe  -0.0021062469  0.0121789949  0.2392066053
C    3.4819165602 -3.3655405966 -0.7598124781
C    3.5877824482 -4.5782140164 -0.0738226157
C    4.4155436590 -3.0865280879 -1.7635768127
C    4.5789974316 -5.4862832767 -0.3956782912
C    5.4075535477 -3.9936475580 -2.0793626784
H    4.6433427857 -6.4223148672  0.1417544293
C    5.4911382927 -5.2010446659 -1.3989748279
H    6.1213538927 -3.7587453052 -2.8541035721
H    6.2578079222 -5.9107757261 -1.6599388538
C   -3.4835157257  3.3657107927 -0.8638409998
C   -3.7108797990  4.4734472164 -0.0489907910
C   -4.2903259728  3.1818924672 -1.9864020845
C   -4.7201421687  5.3688299938 -0.3483353761
C   -5.2897118414  4.0863313185 -2.2895737272
H   -4.8938196290  6.2156735949  0.2993765300
C   -5.5101541140  5.1821392612 -1.4703819385
H   -5.8998356253  3.9361220647 -3.1693047398
H   -6.2940241333  5.8857446462 -1.7051226320
H    5.2646672865  4.9442884864  2.7353640567
H    5.3411493585  5.6296677853 -1.4788114673
H   -5.0525141602 -4.2644682151  3.5079486934
H   -5.1918995520 -6.0639309954 -0.3600524923
H   -3.1104535946  4.6083717348  0.8379291710
H   -4.1158880958  2.3299792127 -2.6272183989
H    2.9050655588 -4.7898462445  0.7358054574
H    4.3422508618 -2.1550065493 -2.3025046540
H   -3.4383045306 -2.5965599805  2.6685220073
H   -3.5835786324 -4.3940674829 -1.1965524182
H    3.5145769464  3.2328982543  2.4229582010
H    3.5802727322  3.9313215353 -1.7831787807
Cl  -0.0562143269 -0.0339797856  2.3793105718
78
aligned d3map frame 184
N   -0.0068245247  2.0509540006 -0.2287736849
N    2.0176509469  0.0218455128 -0.0456316944
C   -2.4380326193  2.4200516479 -0.0146171276
C   -1.1074135983  2.8592322562 -0.2279622601
C   -0.7133327478  4.2067886652 -0.3948250178
H   -1.3716408661  5.0531557451 -0.4196079183
C    0.6566347710  4.2099080791 -0.4889482730
H    1.2939424434  5.0640115120 -0.5993259441
C    1.0800121857  2.8606272497 -0.3749083622
C    2.4302330724  2.4383485471 -0.2873077257
C    2.8377747688  1.1141778266 -0.1002855334
C    4.2016167090  0.6914679462  0.0035382833
H    5.0585213456  1.3362799634 -0.0451913851
C    4.1929384976 -0.6586147761  0.1548302501
H    5.0311960463 -1.3208052211  0.2535515844
C    2.8263764307 -1.0763941739  0.0973186203
C    3.4624279968  3.4853044300 -0.3519718054
C    4.3499321544  3.6705383198  0.7062125644
C    5.3035574052  4.6664716767  0.6615415836
C    5.3927261899  5.4964008458 -0.4427707954
H    6.1347172700  6.2810675902 -0.4746278875
C    4.5230212364  5.3176314904 -1.5059252422
C    3.5632186224  4.3235374720 -1.4617972915
N    0.0125658142 -2.0358970404 -0.1649749834
N   -2.0200892229 -0.0073654737 -0.0640105897
C    2.4337161500 -2.4072838265  0.0268886411
C    1.1128111547 -2.8353144135 -0.2544688278
C    0.7236408137 -4.1566294775 -0.5724882110
H    1.3849136097 -4.9874501313 -0.7258990873
C   -0.6483590086 -4.1521982107 -0.6584436307
H   -1.2868908598 -4.9754320035 -0.9138008822
C   -1.0735453565 -2.8346459885 -0.3548409082
C   -2.4236226267 -2.4317016330 -0.1957341882
C   -2.8296028045 -1.1062202635 -0.0154180805
C   -4.1814135792 -0.6965903116  0.2298520168
H   -5.0127935205 -1.3608799975  0.3596412507
C   -4.1829164173  0.6592040135  0.2841232739
H   -5.0213272543  1.3110364718  0.4301605226
C   -2.8291930966  1.0908227496  0.0974161696
C   -3.4337640347 -3.4967126529 -0.1502321164
C   -3.2741048687 -4.5605086713  0.7417778454
C   -4.2096831518 -5.5745769220  0.8054704363
C   -5.3195987191 -5.5517557121 -0.0280465407
H   -6.0511095195 -6.3450638425  0.0207643290
C   -5.4891997918 -4.5021023386 -0.9181268681
C   -4.5566067104 -3.4816812432 -0.9796027738
Fe  -0.0021062469  0.0121789949  0.2392066053
C    3.4225643245 -3.4522681553  0.3676947758
C    3.7959878822 -3.5634699963  1.7070294703
C    3.9428162321 -4.3529974262 -0.5568808546
C    4.6456639153 -4.5738600064  2.1185611926
C    4.8052120954 -5.3550681125 -0.1428982896
H    4.9089925514 -4.6609223079  3.1637720976
C    5.1481444593 -5.4764558639  1.1950943270
H    5.2068122312 -6.0517264982 -0.8651411768
H    5.8056084597 -6.2722607474  1.5179162460
C   -3.4890501042  3.4520757452  0.0668558379
C   -4.2158677290  3.6400704529  1.2394207755
C   -3.7792113356  4.2452959849 -1.0415833561
C   -5.2093112729  4.6017921953  1.2997576802
C   -4.7813765442  5.1966723461 -0.9813944282
H   -5.7609051332  4.7421727002  2.2181191792
C   -5.4975234770  5.3793365406  0.1908114221
H   -5.0045487744  5.7962455068 -1.8521847379
H   -6.2778090734  6.1245132979  0.2389377068
H    5.9782629632  4.8031787477  1.4939316160
H    4.5861736188  5.9596021024 -2.3733355717
H   -4.0725251667 -6.3885693868  1.5037927561
H   -6.3517217342 -4.4776985446 -1.5642239875
H   -3.9856867787  3.0431514677  2.1114451117
H   -3.2257163064  4.0920839349 -1.9567678515
H    3.3900234519 -2.8641599398  2.4243123651
H    3.6788188670 -4.2574634311 -1.6012715537
H   -2.4161191530 -4.5721646869  1.3986300804
H   -4.6804618808 -2.6773262542 -1.6916607779
H    4.2651928264  3.0404504215  1.5777004178
H    2.8962569585  4.1761160732 -2.2989666234
Cl  -0.0366734568  0.0633197589  2.3792553870
78
aligned d3map frame 185
N   -0.0095373615  2.0513098832 -0.1912621836
N    1.9965586560  0.0216212427 -0.1538860429
C   -2.4147112846  2.3923153637  0.2501241664
C   -1.1031696560  2.8427871998 -0.0573131000
C   -0.7690234448  4.1753841434 -0.4092789738
H   -1.4497506192  5.0042517584 -0.4140465874
C    0.5518981393  4.1674385788 -0.7824434161
H    1.1275076313  4.9924878830 -1.1523907977
C    1.0248272955  2.8381517653 -0.6019376076
C    2.3531720799  2.3910620175 -0.7611744188
C    2.7875517491  1.0884948504 -0.4480280394
C    4.1609141215  0.7109736097 -0.3097049462
H    4.9982348178  1.3631167053 -0.4646178599
C    4.1825247328 -0.5908391448  0.0895826507
H    5.0376316279 -1.2069339966  0.2916372511
C    2.8235599544 -1.0301205010  0.1493690715
C    3.3639957740  3.3327938216 -1.2605108084
C    3.6096159301  4.5572392599 -0.6416384499
C    4.5574055050  5.4232944914 -1.1547455694
C    5.2703130546  5.0870124486 -2.2940873280
H    6.0055598817  5.7687127962 -2.6955328286
C    5.0387160143  3.8694615897 -2.9133602555
C    4.0999117717  2.9969233881 -2.3986958072
N    0.0270869832 -2.0382710346 -0.1246149775
N   -1.9992366431  0.0101388662 -0.1701482949
C    2.4273414775 -2.3568070940  0.2992827933
C    1.1202891056 -2.8318098150  0.0307372466
C    0.7588323212 -4.1849674926 -0.1925160929
H    1.4210955218 -5.0260061909 -0.1298114224
C   -0.5727442487 -4.1901877431 -0.5222650405
H   -1.1747866334 -5.0352532695 -0.7926703964
C   -1.0255155342 -2.8444578759 -0.4397026845
C   -2.3546884670 -2.4012011951 -0.5925146654
C   -2.7877897212 -1.0837972058 -0.3552127141
C   -4.1566635487 -0.7195955356 -0.1612732733
H   -4.9905715016 -1.3912083672 -0.2256916560
C   -4.1776821035  0.6007976512  0.1744218838
H   -5.0316960097  1.1982909733  0.4258432639
C   -2.8274181060  1.0658781891  0.1221384962
C   -3.3817469349 -3.3733455270 -0.9969930492
C   -3.6594828346 -4.5199590115 -0.2564614051
C   -4.6261553289 -5.4120854462 -0.6838082208
C   -5.3209669151 -5.1806113735 -1.8599039109
H   -6.0696294661 -5.8824984814 -2.1955204883
C   -5.0553405671 -4.0407573166 -2.6013810559
C   -4.1013738650 -3.1396265444 -2.1696408731
Fe  -0.0021062469  0.0121789949  0.2392066053
C    3.4505264176 -3.3456262989  0.6970664200
C    3.8752044318 -3.3713511184  2.0223421012
C    3.9871695651 -4.2562965090 -0.2068622913
C    4.8046281545 -4.3067620754  2.4392681774
C    4.9268991224 -5.1815149099  0.2116018970
H    5.1165507067 -4.3277632952  3.4731592807
C    5.3317959018 -5.2144336560  1.5356950807
H    5.3438231385 -5.8811685682 -0.4985223187
H    6.0571107507 -5.9449241631  1.8618226190
C   -3.3702422702  3.4288825264  0.6678728171
C   -4.5250115463  3.7309230973 -0.0488203505
C   -3.0881165778  4.1482305057  1.8300397620
C   -5.3768993296  4.7300811078  0.3896165686
C   -3.9506721616  5.1313234432  2.2728634751
H   -6.2634395358  4.9667296085 -0.1815310617
C   -5.0964661966  5.4294417510  1.5511284138
H   -3.7287711544  5.6710340110  3.1824709264
H   -5.7646300460  6.2073854332  1.8908559528
H    4.7438826071  6.3668800450 -0.6625391840
H    5.5914583229  3.6002157005 -3.8018439641
H   -4.8407961709 -6.2914650537 -0.0948013969
H   -5.5933532518 -3.8547222827 -3.5193268875
H   -4.7357589781  3.2011376651 -0.9663009644
H   -2.1960877304  3.9097504865  2.3902493958
H    3.4588841901 -2.6627766615  2.7233355199
H    3.6745916969 -4.2251951136 -1.2405343824
H   -3.1319009107 -4.6920780347  0.6703035262
H   -3.8876731826 -2.2529736297 -2.7488413195
H    3.0738602817  4.8119971717  0.2604660041
H    3.9103450993  2.0514546201 -2.8859305174
Cl  -0.0252022290  0.0519627328  2.3786025873
78
aligned d3map frame 186
N   -0.0334870896  2.0552782863 -0.1938862469
N    2.0033230156 -0.0131792712 -0.1190009253
C   -2.4218040432  2.4300160831  0.1632417252
C   -1.1053033660  2.8700118640  0.0288378534
C   -0.6637245472  4.2356989895  0.0268656816
H   -1.2788222923  5.0900893011  0.2288491572
C    0.6614890704  4.2258699789 -0.2725341523
H    1.3186856622  5.0665650262 -0.3798486494
C    1.0567756941  2.8521883244 -0.3747878532
C    2.3610272171  2.4010815519 -0.5681554454
C    2.7953348212  1.0700093176 -0.3828824487
C    4.1569899012  0.6902761954 -0.3093861704
H    4.9939021142  1.3432402732 -0.4633733367
C    4.1818294608 -0.6416645517  0.0317647650
H    5.0478282298 -1.2456687110  0.2132677497
C    2.8354092071 -1.0700276759  0.1124746286
C    3.3771667679  3.3882742558 -0.9910581132
C    3.8944952091  4.3498396261 -0.1307394141
C    4.8166888346  5.2728001629 -0.5930432278
C    5.2212968620  5.2538960299 -1.9175948928
H    5.9313209838  5.9831152993 -2.2788307890
C    4.7133920003  4.2949976508 -2.7782566975
C    3.8040701433  3.3621300057 -2.3164726749
N    0.0288225326 -2.0371663313 -0.1328225106
N   -2.0032169013  0.0013755821 -0.1396901996
C    2.4068469739 -2.4097608457  0.3293537016
C    1.0953514975 -2.8420755401  0.1260036768
C    0.6920249415 -4.2135915757 -0.0067945778
H    1.3358136166 -5.0603614212  0.1319422283
C   -0.6158190759 -4.2092737000 -0.3761934071
H   -1.2488872619 -5.0521989772 -0.5754220585
C   -1.0333240530 -2.8389843564 -0.4264890734
C   -2.3384973773 -2.4027485551 -0.6426061059
C   -2.7838774285 -1.0722726575 -0.4795811805
C   -4.1286150384 -0.6515050817 -0.6181101469
H   -4.9508174803 -1.2792093247 -0.9011795478
C   -4.1585526254  0.6921651132 -0.3271708872
H   -5.0077395259  1.3468161043 -0.3437589044
C   -2.8275013566  1.0793899886 -0.0428674991
C   -3.3412316350 -3.4137910768 -1.0404925917
C   -4.3288050361 -3.8384176437 -0.1559174570
C   -5.2603033384 -4.7803381753 -0.5491689906
C   -5.2292725681 -5.2980748868 -1.8340310807
H   -5.9648709051 -6.0250457686 -2.1448200518
C   -4.2506248063 -4.8788233804 -2.7201608242
C   -3.3049750520 -3.9498019524 -2.3239012481
Fe  -0.0021062469  0.0121789949  0.2392066053
C    3.3939498260 -3.4176805017  0.7415255175
C    4.5189581016 -3.7247939803 -0.0202178802
C    3.1912190096 -4.0947116342  1.9455182277
C    5.4290582528 -4.6670438951  0.4232877453
C    4.1083597144 -5.0270605542  2.3893312837
H    6.2947991129 -4.9003686146 -0.1799712327
C    5.2331921642 -5.3131106412  1.6326032091
H    3.9479136372 -5.5325792101  3.3303545267
H    5.9502169273 -6.0411856685  1.9821527131
C   -3.4775551716  3.4018496904  0.4704884619
C   -3.6965945024  4.5351222114 -0.3115411751
C   -4.2820756761  3.1926815008  1.5919018174
C   -4.6745283414  5.4483675308  0.0368010648
C   -5.2505238815  4.1130167999  1.9415947942
H   -4.8349969858  6.3219207248 -0.5782564151
C   -5.4464574125  5.2467453305  1.1686742921
H   -5.8534223941  3.9477221931  2.8225722636
H   -6.2011011829  5.9672829297  1.4437237825
H    5.2196621449  6.0130485294  0.0829200692
H    5.0241366262  4.2751290500 -3.8132862053
H   -6.0160043942 -5.1137002986  0.1477062030
H   -4.2247999913 -5.2775830049 -3.7238625024
H   -3.1140646480  4.6791556358 -1.2095942048
H   -4.1182510552  2.3136167124  2.1975212104
H    4.6619458764 -3.2438194702 -0.9766575257
H    2.3186000742 -3.8606286823  2.5365410866
H   -4.3511686936 -3.4310464537  0.8443250536
H   -2.5387338591 -3.6235771422 -3.0125470087
H    3.5802844684  4.3630489893  0.9028987444
H    3.4025742574  2.6119414970 -2.9824627968
Cl  -0.0092134762  0.0572055746  2.3786528921
78
aligned d3map frame 187
N   -0.0275243607  2.0714459783 -0.1270550827
N    2.0072742330  0.0048434046 -0.1151428601
C   -2.4305956256  2.4343951261  0.1018790153
C   -1.1093073772  2.8748103044  0.0846235971
C   -0.6700708927  4.2337182223  0.2511581741
H   -1.3036681168  5.0671665947  0.4803487234
C    0.6738490293  4.2396525665  0.0787081485
H    1.3442638257  5.0767892892  0.1075346371
C    1.0778633189  2.8764644335 -0.1265698383
C    2.3915994933  2.4533662358 -0.2618025006
C    2.8124886969  1.1010207088 -0.2691981116
C    4.1684795891  0.7034990083 -0.2879198516
H    5.0097415666  1.3606689570 -0.3905402288
C    4.1849477452 -0.6608202784 -0.1187479281
H    5.0452146441 -1.2962272630 -0.0539733267
C    2.8375821153 -1.0770543625 -0.0225489802
C    3.4549676780  3.4791397494 -0.3232696012
C    3.7929993308  4.2177880577  0.8062813991
C    4.7996700094  5.1650155115  0.7462581596
C    5.4713703214  5.3946378263 -0.4427961943
H    6.2542859175  6.1369561213 -0.4890298226
C    5.1361199188  4.6662755729 -1.5720850739
C    4.1397041042  3.7087222238 -1.5128592692
N    0.0091579500 -2.0518756432 -0.0641717443
N   -2.0061879828 -0.0070102136 -0.1379314206
C    2.4200608686 -2.4211223901  0.1697266604
C    1.0976492209 -2.8502926051  0.1120111975
C    0.6814404755 -4.2250680057  0.1462272067
H    1.3444313824 -5.0630950302  0.2409980408
C   -0.6671111290 -4.2336656390  0.0024650750
H   -1.3202724751 -5.0839418230 -0.0362510022
C   -1.0865839408 -2.8659323613 -0.1112699488
C   -2.3995240976 -2.4472792126 -0.2829981317
C   -2.8044494181 -1.0937753405 -0.3937762484
C   -4.1273365051 -0.6663940145 -0.6371554768
H   -4.9572191029 -1.2998850884 -0.8808312164
C   -4.1349059877  0.7035430299 -0.4966337382
H   -4.9640547350  1.3706733044 -0.6296941780
C   -2.8168338372  1.0856534648 -0.1609840126
C   -3.4602043724 -3.4736386762 -0.2216656613
C   -4.2424115734 -3.8078660333 -1.3222331772
C   -5.2342215023 -4.7666357622 -1.2080550631
C   -5.4676651537 -5.3926055251  0.0052758379
H   -6.2496602558 -6.1329836188  0.0929256081
C   -4.6935737464 -5.0648788013  1.1062316161
C   -3.6922437399 -4.1185314903  0.9920681501
Fe  -0.0021062469  0.0121789949  0.2392066053
C    3.4489525909 -3.4246458288  0.4924665411
C    3.3999109801 -4.0533257722  1.7362228888
C    4.4744092537 -3.7549901513 -0.3898181329
C    4.3690074723 -4.9692586400  2.0983442845
C    5.4359866631 -4.6809524879 -0.0277347617
H    4.3272329254 -5.4362184386  3.0715153625
C    5.3924677366 -5.2834239963  1.2188196164
H    6.2251519553 -4.9332409618 -0.7212234669
H    6.1513218153 -5.9968443000  1.5045412356
C   -3.5120556545  3.3628643050  0.4413432379
C   -4.3949025049  3.0082707997  1.4661003715
C   -3.6918615869  4.5887625486 -0.2003299138
C   -5.4048316847  3.8646747373  1.8543691596
C   -4.7083996083  5.4409055698  0.1896749647
H   -6.0700388410  3.5790561215  2.6563788426
C   -5.5636844679  5.0877320342  1.2208805154
H   -4.8384766554  6.3866714105 -0.3163439564
H   -6.3538805944  5.7572178488  1.5263723502
H    5.0603774048  5.7242843107  1.6331151667
H    5.6549682833  4.8425084301 -2.5035800047
H   -5.8298900709 -5.0252633001 -2.0716185908
H   -4.8698350734 -5.5457885949  2.0575907823
H   -4.2584094208  2.0627759679  1.9697105909
H   -3.0527082402  4.8546282070 -1.0288384715
H    2.6052441961 -3.7958267404  2.4217301017
H    4.5007900819 -3.2976702074 -1.3682721184
H   -4.0599499986 -3.3262639095 -2.2725763724
H   -3.0891178635 -3.8563169441  1.8493170318
H    3.2731754420  4.0338246965  1.7350117091
H    3.8796579358  3.1376952530 -2.3920402039
Cl  -0.0044705572  0.0390400910  2.3796067248
78
aligned d3map frame 188
N    0.0084565732  2.0548425149 -0.2030886163
N    2.0029553017  0.0193853886 -0.1136340024
C   -2.3900548654  2.3673475860 -0.6044478202
C   -1.0880704779  2.8296467149 -0.4431268426
C   -0.7048925518  4.2094293719 -0.4077432608
H   -1.3668956925  5.0340526056 -0.5886835840
C    0.6114890737  4.2479732809 -0.0718453139
H    1.2148494437  5.1186160737  0.0873716692
C    1.0640087057  2.8907533206  0.0167916531
C    2.3737557618  2.4580195460  0.2342136767
C    2.7984256894  1.1140586319  0.0031185977
C    4.1394072895  0.7642819037 -0.2815751954
H    4.9701697096  1.4417632353 -0.2917129022
C    4.1441737036 -0.5760274019 -0.5884418988
H    4.9822749453 -1.1687365928 -0.8972808550
C    2.8115218447 -1.0349877471 -0.4463974997
C    3.4208115865  3.3732625841  0.6949934622
C    4.1432601137  2.9967634928  1.8330783646
C    5.1386205303  3.8086019905  2.3400386607
C    5.4443926786  5.0095389197  1.7137401052
H    6.2263401284  5.6471317816  2.1049712098
C    4.7493507984  5.3829308577  0.5736488102
C    3.7450323633  4.5742425914  0.0658889354
N    0.0020327167 -2.0370605678 -0.1431937071
N   -2.0053121034 -0.0360748823 -0.1306271558
C    2.3935640971 -2.3801134134 -0.5889941785
C    1.0849979355 -2.8266605486 -0.3809910011
C    0.6942660492 -4.2027093289 -0.2762586948
H    1.3492338437 -5.0405620104 -0.3952129366
C   -0.6250157746 -4.2201621323  0.0519661346
H   -1.2534426872 -5.0763552803  0.2008968776
C   -1.0560407908 -2.8539716884  0.1239316433
C   -2.3747087779 -2.4369724618  0.3142900369
C   -2.8216613355 -1.1024891566  0.1115004291
C   -4.1746478376 -0.6884195618  0.0572283681
H   -5.0294395348 -1.3015360730  0.2579774847
C   -4.1699784552  0.6425390330 -0.2863797358
H   -5.0163725658  1.2862336957 -0.4383592921
C   -2.8138725247  1.0363474959 -0.3842151723
C   -3.3592971458 -3.4561351386  0.7050055493
C   -3.1632053701 -4.1604101610  1.8939045183
C   -4.0840546344 -5.1010974782  2.3124793644
C   -5.2093129838 -5.3637469763  1.5474437609
H   -5.9301730574 -6.0960995205  1.8773612680
C   -5.4012373561 -4.6864302184  0.3540779676
C   -4.4843368188 -3.7412416466 -0.0665429846
Fe  -0.0021062469  0.0121789949  0.2392066053
C    3.4140451411 -3.3882203174 -0.9120402769
C    4.5423285085 -3.5574381212 -0.1107569629
C    3.2610687900 -4.1976292831 -2.0377675549
C    5.4911192860 -4.5122334672 -0.4275776312
C    4.2188382154 -5.1423088410 -2.3577542485
H    6.3569232284 -4.6420844922  0.2061594213
C    5.3362421494 -5.3051287765 -1.5537918153
H    4.0955268585 -5.7564784193 -3.2387079394
H    6.0824451137 -6.0480150081 -1.7989130169
C   -3.4467121099  3.3337185651 -0.9856621322
C   -4.0169561754  4.2005490548 -0.0584674758
C   -3.8918351479  3.3584216434 -2.3039740664
C   -5.0230227334  5.0685559086 -0.4438003065
C   -4.8843097208  4.2413625352 -2.6893945829
H   -5.4720778579  5.7301548599  0.2843039051
C   -5.4578476754  5.0919507434 -1.7586256040
H   -5.2220113909  4.2578999686 -3.7164465966
H   -6.2447456033  5.7715189681 -2.0593935372
H    5.6799922161  3.5069301880  3.2248717575
H    5.0045818330  6.3080558745  0.0676586088
H   -3.9241654205 -5.6287368880  3.2412939869
H   -6.2689193404 -4.8980004942 -0.2545529107
H   -3.6847300594  4.1702647341  0.9697341417
H   -3.4477947104  2.6856771216 -3.0245588777
H    4.6554714913 -2.9535416468  0.7772869926
H    2.3937941651 -4.0658522107 -2.6696809841
H   -2.2928634390 -3.9433240793  2.4960862672
H   -4.6223669193 -3.2388156720 -1.0141249588
H    3.8966742897  2.0657848700  2.3226509819
H    3.2438891098  4.8532473686 -0.8498349426
Cl  -0.0013165337  0.0505398019  2.3788242031
78
aligned d3map frame 189
N   -0.0102970840  2.0636081428 -0.1784748834
N    2.0121995124  0.0081431576 -0.0879534155
C   -2.4285052310  2.4353918519 -0.2670844738
C   -1.1115465916  2.8682422659 -0.2349772706
C   -0.7030871792  4.2390155600 -0.3439918245
H   -1.3739632990  5.0739829330 -0.3987973949
C    0.6527423681  4.2464282005 -0.3695873370
H    1.3138357451  5.0880226967 -0.4520640521
C    1.0795166809  2.8801009598 -0.2672155058
C    2.3992040725  2.4520414849 -0.3356739528
C    2.8164923933  1.1022193707 -0.2462446945
C    4.1735672159  0.7051945371 -0.2824446402
H    5.0133497902  1.3637384117 -0.3758338204
C    4.1886951199 -0.6616996478 -0.1526689241
H    5.0466257161 -1.3028385071 -0.1599650055
C    2.8433544812 -1.0774632134 -0.0346952323
C    3.4582695004  3.4566736882 -0.5554716915
C    3.7964188746  4.3770521471  0.4314246140
C    4.8131649415  5.2914772445  0.2153649201
C    5.4891303557  5.3089849019 -0.9919899296
H    6.2803863745  6.0248942789 -1.1607150814
C    5.1490798288  4.4020049387 -1.9847608674
C    4.1478754144  3.4758917122 -1.7673798440
N    0.0230941066 -2.0473251932 -0.1159396985
N   -2.0143704244 -0.0069572129 -0.1050912509
C    2.4393168383 -2.4353614632  0.0187293423
C    1.1153778221 -2.8600514565 -0.0379025964
C    0.6956867198 -4.2327555500 -0.0160249665
H    1.3510292853 -5.0747404283  0.0778053386
C   -0.6561787482 -4.2334216763 -0.1141255618
H   -1.3210116137 -5.0764058643 -0.1234925377
C   -1.0707220439 -2.8617951255 -0.1737565925
C   -2.3971570858 -2.4515563433 -0.2400618148
C   -2.8272096362 -1.1036495605 -0.1884777530
C   -4.1759448303 -0.7026529239 -0.3268850688
H   -5.0192507084 -1.3573084523 -0.4200481363
C   -4.1800306176  0.6703704655 -0.3372944493
H   -5.0239136587  1.3229999400 -0.4336442636
C   -2.8327007698  1.0821019116 -0.2141601172
C   -3.4174004954 -3.4788297146 -0.5176053806
C   -4.4510472424 -3.7741334543  0.3628398885
C   -5.4113887376 -4.7127488207  0.0212647080
C   -5.3585457399 -5.3514041934 -1.2049973884
H   -6.1184727974 -6.0681219518 -1.4797908956
C   -4.3256003584 -5.0673152856 -2.0856448235
C   -3.3562223437 -4.1476887608 -1.7419450374
Fe  -0.0021062469  0.0121789949  0.2392066053
C    3.5050020179 -3.4487302781  0.0488871961
C    4.4388074527 -3.4702671416  1.0857292641
C    3.6176522372 -4.3824231024 -0.9783845337
C    5.4567232563 -4.4045545036  1.0897669908
C    4.6413365915 -5.3129779025 -0.9735732730
H    6.1774599240 -4.4072680733  1.8921518625
C    5.5628327507 -5.3269073666  0.0599199879
H    4.7260023890 -6.0222147140 -1.7854663863
H    6.3709997318 -6.0364722091  0.0540637023
C   -3.4961396497  3.4300181331 -0.5290147072
C   -4.1383611599  4.1202652866  0.4920358939
C   -3.8808797936  3.6525214794 -1.8479503659
C   -5.1494144044  5.0178522514  0.1924665600
C   -4.8916884232  4.5497738889 -2.1442566762
H   -5.6500422062  5.5504899541  0.9882524243
C   -5.5278964239  5.2348756496 -1.1227883657
H   -5.1814716632  4.7079643144 -3.1736635429
H   -6.3191842924  5.9342381883 -1.3518600880
H    5.0803960735  5.9886507724  0.9957769081
H    5.6728414484  4.4139161255 -2.9293084557
H   -6.2084670407 -4.9385725872  0.7168147062
H   -4.2782477823 -5.5618326083 -3.0446167805
H   -3.8496081309  3.9469516789  1.5182313957
H   -3.3806906152  3.1090749532 -2.6362564099
H    4.3438729298 -2.7578107036  1.8904423910
H    2.9125977913 -4.3547887629 -1.7968507463
H   -4.4913956127 -3.2783894067  1.3235538430
H   -2.5539356272 -3.9147947744 -2.4268479639
H    3.2703074379  4.3516132573  1.3736329305
H    3.8814145928  2.7647460511 -2.5361392211
Cl   0.0072351091  0.0608989309  2.3800193871
78
aligned d3map frame 190
N   -0.0152358791  2.0519689486 -0.2168579364
N    1.9983837361  0.0028124940 -0.1321803815
C   -2.3821202087  2.4314649781  0.1840215843
C   -1.0760316614  2.8703007776  0.0621520726
C   -0.6242446300  4.2363412066  0.0882842001
H   -1.2439106146  5.0834991391  0.3110426756
C    0.6901406246  4.2236087274 -0.2445027903
H    1.3569326903  5.0583913805 -0.3480095009
C    1.0727513971  2.8459636684 -0.3983597467
C    2.3648180438  2.3929605962 -0.6539892616
C    2.7799061038  1.0493934738 -0.5450311163
C    4.1081426284  0.5988094496 -0.7329600256
H    4.9293864668  1.2033332985 -1.0654714608
C    4.1258739591 -0.7367280523 -0.3989841450
H    4.9615801078 -1.4078549749 -0.4346730121
C    2.8083616860 -1.0824165808 -0.0252790946
C    3.3968126166  3.3919740883 -1.0155439128
C    4.0849437570  4.0951059550 -0.0336372918
C    5.0504860830  5.0207880940 -0.3863931097
C    5.3357887578  5.2555122665 -1.7206272836
H    6.0900241576  5.9780920277 -1.9942161351
C    4.6517325031  4.5600006295 -2.7030342375
C    3.6880202606  3.6312645694 -2.3537845829
N    0.0252585376 -2.0360693935 -0.1547644369
N   -2.0001581284 -0.0047631343 -0.1498999451
C    2.3876746198 -2.4035756904  0.3396721223
C    1.0670283332 -2.8244313653  0.2670715350
C    0.5696991709 -4.1465460061  0.5314308476
H    1.1392203465 -4.9524752820  0.9494442496
C   -0.7418259060 -4.1550112177  0.1824028329
H   -1.4367874191 -4.9687641583  0.2560822054
C   -1.0750826834 -2.8244190907 -0.2408487368
C   -2.3602683096 -2.4018754974 -0.6166174459
C   -2.7625139485 -1.0450665575 -0.6179233742
C   -4.0372634898 -0.5546459187 -0.9874586781
H   -4.8155845372 -1.1176007301 -1.4617805181
C   -4.0631467883  0.7835557192 -0.6613483425
H   -4.8684655076  1.4792272892 -0.7975419727
C   -2.7877799111  1.0994586875 -0.1511429666
C   -3.3315961318 -3.4288135786 -0.9951485982
C   -4.6356383265 -3.4412181357 -0.4977164049
C   -5.5423246728 -4.3928532671 -0.9231165914
C   -5.1669434973 -5.3573631655 -1.8437504952
H   -5.8813641560 -6.0934810268 -2.1819040014
C   -3.8673455942 -5.3749018017 -2.3234692514
C   -2.9584148771 -4.4238295225 -1.9031711006
Fe  -0.0021062469  0.0121789949  0.2392066053
C    3.4388921270 -3.3397742904  0.7415946767
C    4.3592263375 -2.9587888430  1.7216264088
C    3.5578997694 -4.6080418081  0.1718552431
C    5.3467135201 -3.8299162762  2.1365070377
C    4.5508582960 -5.4749516522  0.5874670313
H    6.0441021123 -3.5247746075  2.9029493157
C    5.4443319048 -5.0934504356  1.5747035097
H    4.6308159422 -6.4527758159  0.1362058929
H    6.2170445699 -5.7738155682  1.9001323401
C   -3.4556244564  3.3482100400  0.5975440057
C   -4.1195828801  3.0828010586  1.7941756176
C   -3.8375804952  4.4519183942 -0.1582489610
C   -5.1271955386  3.9184295273  2.2354343294
C   -4.8641085973  5.2714731138  0.2757414531
H   -5.6199210089  3.7151310879  3.1744037401
C   -5.5061537415  5.0122205377  1.4748072878
H   -5.1671396555  6.1151403928 -0.3263996784
H   -6.3021017165  5.6582141071  1.8140456956
H    5.5828112444  5.5599346907  0.3833296112
H    4.8694679775  4.7404796541 -3.7454464133
H   -6.5493597337 -4.3829392887 -0.5344226249
H   -3.5637320805 -6.1300991507 -3.0348266272
H   -3.8188049931  2.2284829500  2.3824469491
H   -3.3451290362  4.6456032595 -1.1000057554
H    4.2723439002 -1.9806738329  2.1698402813
H    2.8870254707 -4.8966948471 -0.6234067739
H   -4.9240220375 -2.7140438755  0.2461453618
H   -1.9531191958 -4.4235798919 -2.2978105062
H    3.8602324948  3.9078029675  1.0059669232
H    3.1535500048  3.0855168115 -3.1176682574
Cl  -0.0135126930  0.0490097714  2.3780453201
78
aligned d3map frame 191
N    0.0128079681  2.0581183930 -0.1876767182
N    2.0029439598  0.0429700482 -0.1138071732
C   -2.3891258581  2.3874631183 -0.5517813631
C   -1.0887820551  2.8425859184 -0.3727614332
C   -0.7072717097  4.2232331945 -0.3067235802
H   -1.3784506566  5.0519384415 -0.4225403069
C    0.6237269365  4.2547397586 -0.0388418874
H    1.2386285613  5.1195246131  0.1157551599
C    1.0765045319  2.8928623794  0.0026338638
C    2.3962336282  2.4769792268  0.1693834296
C    2.8209544062  1.1258716647  0.0360537104
C    4.1677572247  0.7297329837 -0.1272224002
H    5.0204192278  1.3761936564 -0.0646434300
C    4.1564846259 -0.6167478161 -0.4100401723
H    4.9986620429 -1.2569649207 -0.5841563932
C    2.8025012232 -1.0257390249 -0.3967439663
C    3.4428938365  3.4799201954  0.4152537602
C    4.2269067874  3.3850674668  1.5655604541
C    5.2114520227  4.3195300090  1.8239515590
C    5.4476519363  5.3517339941  0.9289913606
H    6.2224652228  6.0760520649  1.1276340981
C    4.6855923589  5.4450358214 -0.2242532445
C    3.6876024835  4.5220983139 -0.4776263839
N   -0.0049909567 -2.0448877664 -0.1232555202
N   -2.0039418865 -0.0241404889 -0.1308775019
C    2.3816973251 -2.3692932379 -0.5681757850
C    1.0889545104 -2.8338493427 -0.3232923315
C    0.6995686802 -4.2127405836 -0.2403762300
H    1.3544689233 -5.0514772886 -0.3713398629
C   -0.6221961969 -4.2352822264  0.0650749568
H   -1.2364913315 -5.0925828862  0.2564044903
C   -1.0727126150 -2.8724389526  0.0829458052
C   -2.3968141414 -2.4534670257  0.1979646257
C   -2.8194592421 -1.1092835112 -0.0069954333
C   -4.1640760078 -0.7267561189 -0.2346806892
H   -5.0117342490 -1.3837358288 -0.2214350115
C   -4.1567903224  0.6225437094 -0.5009667962
H   -4.9965834946  1.2535512855 -0.7101661471
C   -2.8069673037  1.0437191685 -0.4214707830
C   -3.4603147402 -3.4264691123  0.4759114075
C   -4.3176360962 -3.1969786689  1.5560282088
C   -5.3417678262 -4.0776753626  1.8412917590
C   -5.5404608082 -5.2011333699  1.0496700550
H   -6.3492661571 -5.8842745643  1.2684430209
C   -4.7025013872 -5.4329097590 -0.0277497257
C   -3.6689350498 -4.5562150314 -0.3127093643
Fe  -0.0021062469  0.0121789949  0.2392066053
C    3.3846724307 -3.3072602211 -1.1040264944
C    3.8369601459 -4.4360316669 -0.4252970082
C    3.8751031572 -3.0512031332 -2.3858697261
C    4.7380213921 -5.2966871101 -1.0268705608
C    4.7696194035 -3.9166687612 -2.9863609071
H    5.0822796225 -6.1705313221 -0.4913870367
C    5.1998519740 -5.0466028011 -2.3096368339
H    5.1285352707 -3.7112358165 -3.9847562548
H    5.8958883527 -5.7277975351 -2.7776055623
C   -3.4578598849  3.3679345981 -0.8516812095
C   -4.1101776897  4.0485316593  0.1704050784
C   -3.8540044802  3.5741975515 -2.1685053899
C   -5.1514268672  4.9111441900 -0.1228467334
C   -4.8923677999  4.4405465325 -2.4589522332
H   -5.6622507243  5.4291284252  0.6751587501
C   -5.5475539124  5.1056525170 -1.4353285444
H   -5.1954610051  4.5889379761 -3.4854207609
H   -6.3688550280  5.7715158274 -1.6613883907
H    5.7964258254  4.2454367525  2.7281748076
H    4.8743112922  6.2389119153 -0.9325731726
H   -5.9938144557 -3.8893901816  2.6818329382
H   -4.8586820482 -6.2962190304 -0.6575704044
H   -3.8036877470  3.8850901743  1.1929895651
H   -3.3444300611  3.0444898586 -2.9600805716
H    3.4979408365 -4.6206259987  0.5840638482
H    3.5305783761 -2.1722802502 -2.9120414838
H   -4.1595483101 -2.3233430074  2.1714545615
H   -3.0471814112 -4.7201084012 -1.1820155655
H    4.0402166662  2.5794121877  2.2625786943
H    3.1093893584  4.5877806343 -1.3887214649
Cl  -0.0112454098  0.0404053263  2.3786802726
78
aligned d3map frame 192
N   -0.0111608001  2.0466172562 -0.2240045990
N    1.9999710472 -0.0011266088 -0.1219195996
C   -2.4167026770  2.4310397733  0.1190035024
C   -1.0973822952  2.8568080369 -0.1176149674
C   -0.7209668137  4.1954575384 -0.4463429652
H   -1.3850718165  5.0366874776 -0.4613359662
C    0.6025207685  4.1664607796 -0.7746104250
H    1.2105201255  4.9833619336 -1.1106886055
C    1.0476767919  2.8201374785 -0.6005045343
C    2.3611960093  2.3634668416 -0.7595255390
C    2.7969592150  1.0528807198 -0.4572987877
C    4.1590376995  0.6591238969 -0.3674128483
H    5.0012464510  1.2915239708 -0.5671470604
C    4.1735846150 -0.6471724595  0.0479105740
H    5.0268756492 -1.2741535427  0.2178018426
C    2.8200744005 -1.0533408644  0.1717936983
C    3.3837334754  3.2980665214 -1.2563052577
C    3.7103486921  4.4661904087 -0.5702449702
C    4.6873229830  5.3119354309 -1.0581034049
C    5.3381006515  5.0151120866 -2.2452719413
H    6.0995609132  5.6782499667 -2.6278089643
C    5.0171182383  3.8583131144 -2.9374609904
C    4.0542980281  3.0013352775 -2.4422069825
N    0.0490516928 -2.0332069029 -0.1606370739
N   -2.0047161520  0.0114881415 -0.1348969683
C    2.4086536892 -2.3884037183  0.3675800176
C    1.1135393783 -2.8468651471  0.0918552928
C    0.7015565117 -4.2125477846 -0.0253280290
H    1.3293452209 -5.0663081062  0.1444786832
C   -0.6103662215 -4.2016788251 -0.3933128158
H   -1.2488263131 -5.0434325852 -0.5838887625
C   -1.0196916924 -2.8285817111 -0.4404634711
C   -2.3418894113 -2.3979638467 -0.5836020707
C   -2.7969313852 -1.0829144623 -0.3336165293
C   -4.1616865708 -0.6990067894 -0.2512524561
H   -5.0014015640 -1.3535979190 -0.3767970316
C   -4.1851731149  0.6421333729  0.0275723363
H   -5.0485398830  1.2541858511  0.1938045741
C   -2.8350289425  1.0856872892  0.0492867318
C   -3.3368924953 -3.3996483803 -1.0127655391
C   -4.3355830972 -3.8720118095 -0.1681122679
C   -5.2624869345 -4.7911337007 -0.6283601395
C   -5.2141528938 -5.2386472678 -1.9388046624
H   -5.9450688127 -5.9466141394 -2.3022388741
C   -4.2175942348 -4.7784055202 -2.7836199237
C   -3.2786570307 -3.8747359679 -2.3222235238
Fe  -0.0021062469  0.0121789949  0.2392066053
C    3.4337177318 -3.3438349412  0.8220197843
C    3.8958964392 -4.3827518412  0.0211289941
C    3.9545876758 -3.1929501530  2.1075857560
C    4.8556350753 -5.2588946644  0.4988292465
C    4.8953346529 -4.0832859022  2.5863374937
H    5.2182194412 -6.0539653647 -0.1364820498
C    5.3493712867 -5.1190388323  1.7834775108
H    5.2773482819 -3.9683804005  3.5905330855
H    6.0863425543 -5.8109838638  2.1573856449
C   -3.4146021686  3.4866430415  0.3481993496
C   -4.5162416291  3.6655493857 -0.4874875102
C   -3.2397677012  4.3584832095  1.4236488854
C   -5.4199988110  4.6839082755 -0.2475264085
C   -4.1518217113  5.3673432386  1.6672591784
H   -6.2621262322  4.8189602163 -0.9101865040
C   -5.2430279665  5.5367617887  0.8311022576
H   -4.0096108952  6.0290591207  2.5092547207
H   -5.9495070955  6.3319910721  1.0161318491
H    4.9452862558  6.2072660094 -0.5111884343
H    5.5236203030  3.6242967162 -3.8604551457
H   -6.0276159186 -5.1567492186  0.0378466680
H   -4.1727484600 -5.1242447920 -3.8070481886
H   -4.6395045793  3.0223685285 -1.3468921536
H   -2.3897718843  4.2237894487  2.0761994690
H    3.5261611502 -4.4829517183 -0.9878650199
H    3.5992558548 -2.3850396774  2.7293126832
H   -4.3664497545 -3.5267343627  0.8559037786
H   -2.5035025363 -3.5140742804 -2.9821432049
H    3.2180678467  4.6839867521  0.3649521221
H    3.7990246188  2.0984627542 -2.9779549625
Cl  -0.0044336718  0.0625130924  2.3757620442
78
aligned d3map frame 193
N   -0.0003516183  2.0553779903 -0.2092459178
N    2.0118653873  0.0327274731 -0.0823918152
C   -2.3972072432  2.3691045428 -0.6112697421
C   -1.0893489329  2.8197056377 -0.5313603162
C   -0.6678933505  4.1695378103 -0.7733939117
H   -1.3189522038  4.9698404078 -1.0666721632
C    0.6715358754  4.2094647240 -0.5624909434
H    1.3304052517  5.0497411078 -0.6616250288
C    1.0823445640  2.8769322290 -0.2188994552
C    2.4124665001  2.4771115628 -0.0546587882
C    2.8322040833  1.1268775371 -0.0013342216
C    4.1837111377  0.7086479116  0.0393276155
H    5.0379596323  1.3465665027  0.1490897396
C    4.1809244007 -0.6607641147 -0.0805992929
H    5.0311679999 -1.3128302878 -0.1170966810
C    2.8275268177 -1.0619192102 -0.1520353896
C    3.4382151691  3.5298950999 -0.0707807896
C    3.4091657300  4.5576710991  0.8708166019
C    4.3566718294  5.5643051151  0.8418686545
C    5.3382934953  5.5714582912 -0.1354973164
H    6.0716693678  6.3634649003 -0.1631556033
C    5.3714844272  4.5593799691 -1.0813066273
C    4.4344133819  3.5448613777 -1.0474197672
N   -0.0119302172 -2.0407569016 -0.1468543800
N   -2.0117809493 -0.0280979450 -0.1034464505
C    2.4066342333 -2.4054823820 -0.3154950070
C    1.0888227458 -2.8373858900 -0.3047400616
C    0.6808117946 -4.2119299303 -0.3487985890
H    1.3449616441 -5.0464920618 -0.4647884206
C   -0.6666679292 -4.2307109457 -0.1865360910
H   -1.3122786983 -5.0861611353 -0.1421139859
C   -1.0937170591 -2.8662265490 -0.0717459751
C   -2.4173507060 -2.4572492319  0.0875917908
C   -2.8353477044 -1.1069269818  0.0677785086
C   -4.1878349631 -0.6926981853  0.0153079883
H   -5.0427333903 -1.3303666393  0.1267801878
C   -4.1784477692  0.6583613987 -0.2387129281
H   -5.0210790391  1.3132730322 -0.3451007475
C   -2.8223019506  1.0483654227 -0.3198000477
C   -3.4744114036 -3.4862048332  0.1232951658
C   -4.2463563171 -3.6913552411  1.2626596295
C   -5.2523481350 -4.6413733442  1.2627544838
C   -5.5121207270 -5.3838786457  0.1227967866
H   -6.3062967121 -6.1161088589  0.1185088001
C   -4.7498080080 -5.1827182958 -1.0164026254
C   -3.7328065488 -4.2469499500 -1.0151666335
Fe  -0.0021062469  0.0121789949  0.2392066053
C    3.4680677612 -3.4125606994 -0.5286895096
C    4.3077956819 -3.8085133877  0.5072710707
C    3.6506574083 -3.9568563687 -1.7958775438
C    5.3119909453 -4.7307203022  0.2755274803
C    4.6650128782 -4.8683851624 -2.0273096951
H    5.9573439595 -5.0363723217  1.0862629101
C    5.4979072153 -5.2575670098 -0.9922028433
H    4.8068036308 -5.2718963698 -3.0191007267
H    6.2910011052 -5.9683817849 -1.1716847281
C   -3.4319697467  3.2831002849 -1.1376687824
C   -3.9126694736  3.0339002509 -2.4225942612
C   -3.9312872862  4.3661820065 -0.4262056582
C   -4.8626469688  3.8590736541 -2.9894475299
C   -4.8987983137  5.1813057099 -0.9913578163
H   -5.2137809594  3.6605801921 -3.9917141404
C   -5.3620466007  4.9344289750 -2.2722499781
H   -5.2927469887  6.0141022422 -0.4272535254
H   -6.1117964550  5.5773023405 -2.7100591780
H    4.3267674311  6.3479061938  1.5843931731
H    6.1280076135  4.5630498454 -1.8527346793
H   -5.8397055139 -4.8009656682  2.1552422704
H   -4.9516118839 -5.7550899241 -1.9104264648
H   -3.5184202291  2.1912993805 -2.9731165800
H   -3.5723700807  4.5614476285  0.5742150960
H    4.1630059417 -3.3954539596  1.4947676649
H    3.0010105359 -3.6478979329 -2.6017995124
H   -4.0447810225 -3.1101514607  2.1504033180
H   -3.1431458612 -4.0815842782 -1.9051314586
H    2.6474818088  4.5510415887  1.6370091179
H    4.4477363959  2.7679378008 -1.7976296886
Cl  -0.0061478730  0.0449578413  2.3792957888
78
aligned d3map frame 194
N   -0.0109079514  2.0427432798 -0.2556173707
N    2.0048133959 -0.0001264742 -0.0889683749
C   -2.4012581295  2.4356019965  0.1148990668
C   -1.0955837097  2.8633913830 -0.1262589999
C   -0.6855696632  4.2179594693 -0.3562285489
H   -1.3151390773  5.0826553414 -0.2870974076
C    0.6298221112  4.1847123031 -0.6926476366
H    1.2473008837  5.0117947592 -0.9821349499
C    1.0618509540  2.8214393232 -0.5746369378
C    2.3785403815  2.3719745898 -0.7042705638
C    2.8117638938  1.0596716079 -0.3746687246
C    4.1665358614  0.6769985047 -0.2163871347
H    5.0155536523  1.3175080673 -0.3550635217
C    4.1681696412 -0.6426153741  0.1751379307
H    5.0149120436 -1.2661249274  0.3858138880
C    2.8158604623 -1.0532310402  0.2207784350
C    3.4064591462  3.2897142757 -1.2161591892
C    3.6943287266  4.5157404807 -0.6190727764
C    4.6445199479  5.3573633935 -1.1691115921
C    5.3233110583  4.9917946135 -2.3198648937
H    6.0585205349  5.6549447505 -2.7516658484
C    5.0600019750  3.7657901552 -2.9101624292
C    4.1163563607  2.9200774977 -2.3606869915
N    0.0336446508 -2.0281973747 -0.1944099234
N   -2.0069993877 -0.0034528512 -0.1043368803
C    2.3877493221 -2.3967547756  0.3592704340
C    1.1066564013 -2.8391223098  0.0443156808
C    0.7082613216 -4.2082140489 -0.1128394634
H    1.3560336041 -5.0534256552  0.0162237883
C   -0.6029066191 -4.2013357822 -0.4655972890
H   -1.2330647485 -5.0446585819 -0.6739261856
C   -1.0303105760 -2.8292478389 -0.4754794564
C   -2.3552833960 -2.4081313288 -0.5896441901
C   -2.8037165887 -1.0802748639 -0.3721631435
C   -4.1560756904 -0.6643372960 -0.4146113684
H   -4.9979182090 -1.2899026261 -0.6369312305
C   -4.1698837474  0.6839930342 -0.1415835079
H   -5.0220392601  1.3337956591 -0.1009412406
C   -2.8229753345  1.0806057546  0.0312577910
C   -3.3733161379 -3.4244859469 -0.9089838590
C   -4.3829084307 -3.7405424675 -0.0029542363
C   -5.3377548994 -4.6879665935 -0.3215940667
C   -5.3077967889 -5.3213131624 -1.5532524772
H   -6.0617962510 -6.0536023921 -1.8042044100
C   -4.3060498277 -5.0143584849 -2.4600409108
C   -3.3393315915 -4.0808408745 -2.1377612794
Fe  -0.0021062469  0.0121789949  0.2392066053
C    3.3897918218 -3.3883126058  0.8014848108
C    4.0071168581 -4.2629292607 -0.0848619777
C    3.7086300234 -3.4531057985  2.1555692171
C    4.9244775193 -5.1907522181  0.3779123814
C    4.6150374104 -4.3906080788  2.6150452981
H    5.4045574964 -5.8623853824 -0.3189270193
C    5.2249788603 -5.2619054160  1.7276281523
H    4.8444512321 -4.4415271048  3.6695555810
H    5.9336720950 -5.9937618144  2.0867984327
C   -3.4504841737  3.4317480996  0.3784102327
C   -3.7574992324  4.4475080270 -0.5247425157
C   -4.1666477977  3.3547873468  1.5733652411
C   -4.7351265920  5.3785647515 -0.2259936365
C   -5.1368452310  4.2922988170  1.8714251185
H   -4.9654918926  6.1599780960 -0.9356538713
C   -5.4205173557  5.3109171482  0.9758403152
H   -5.6747433536  4.2296447982  2.8061594270
H   -6.1774827819  6.0445885492  1.2099040008
H    4.8585956672  6.3046939595 -0.6955338328
H    5.5907519744  3.4690301511 -3.8032220038
H   -6.1100001657 -4.9339864797  0.3936051170
H   -4.2805577679 -5.5037494563 -3.4228346693
H   -3.2470068479  4.4833569386 -1.4760234079
H   -3.9376824105  2.5642596325  2.2726510159
H    3.7732823416 -4.2044767410 -1.1383794025
H    3.2277828476 -2.7732567752  2.8427616191
H   -4.3992482127 -3.2503448491  0.9594392660
H   -2.5602587791 -3.8361200423 -2.8456347549
H    3.1915389265  4.7922249572  0.2961029621
H    3.9021494848  1.9688420467 -2.8262073637
Cl  -0.0135803411  0.0381618727  2.3784931111
78
aligned d3map frame 195
N   -0.0050217948  2.0580854959 -0.1803413247
N    1.9894538089  0.0311569156 -0.1931697499
C   -2.3837422023  2.4026970893 -0.5809636372
C   -1.1230075217  2.8228164668 -0.1292446955
C   -0.7921111306  4.1216818554  0.3812137581
H   -1.5012319522  4.8985933844  0.5926711393
C    0.5492750392  4.1341116878  0.5945361035
H    1.1370855091  4.9189705918  1.0254960915
C    1.0511824059  2.8560147316  0.1730058672
C    2.3726455199  2.4805376825 -0.0266388077
C    2.7211875739  1.1514442818 -0.4399946429
C    3.8895380413  0.8163412760 -1.1552947991
H    4.6139616465  1.5132229046 -1.5295354557
C    3.8837678713 -0.5526338054 -1.3076603242
H    4.5980661204 -1.1506204177 -1.8386215623
C    2.7181665998 -1.0316806430 -0.6659189678
C    3.4501261169  3.4590485442  0.0677158256
C    4.6715679624  3.1139107576  0.6548371788
C    5.7023893484  4.0288812605  0.7279159476
C    5.5416995262  5.3073853377  0.2164473631
H    6.3506567706  6.0206338493  0.2712210351
C    4.3396472545  5.6611657586 -0.3745544404
C    3.3063953696  4.7484113997 -0.4535096839
N    0.0064827856 -2.0442195805 -0.1142370156
N   -1.9899678974 -0.0059943441 -0.2118668832
C    2.3965119242 -2.3925761192 -0.4398551423
C    1.1269534550 -2.8052548093 -0.0120929576
C    0.7863819128 -4.0838611484  0.5430176070
H    1.4898206242 -4.8535181140  0.7967661767
C   -0.5580275820 -4.0886862430  0.7375157406
H   -1.1498412133 -4.8610476543  1.1899596672
C   -1.0543210247 -2.8254635004  0.2630898755
C   -2.3770165835 -2.4453206342  0.0729737998
C   -2.7252700211 -1.1337612797 -0.3989339245
C   -3.9028699361 -0.8287824944 -1.1134144717
H   -4.6345072060 -1.5411339208 -1.4419794036
C   -3.8952337114  0.5310304507 -1.3324582024
H   -4.6169383999  1.1057356835 -1.8786353947
C   -2.7203683984  1.0369532271 -0.7288443978
C   -3.4704782690 -3.3861439218  0.2876986250
C   -4.6488756614 -2.9523260544  0.9068057525
C   -5.6910529844 -3.8274059414  1.1348457872
C   -5.5865412604 -5.1556167473  0.7538877650
H   -6.4006520942 -5.8401683456  0.9397692783
C   -4.4344407426 -5.5955803433  0.1230377609
C   -3.3902474059 -4.7227857747 -0.1163928890
Fe  -0.0021062469  0.0121789949  0.2392066053
C    3.4171976407 -3.4081074502 -0.6866986468
C    3.0806301426 -4.5883379400 -1.3574350007
C    4.7455866586 -3.2249955801 -0.2927817059
C    4.0396573115 -5.5422016438 -1.6343109942
C    5.7025602439 -4.1796267716 -0.5770939441
H    3.7615438006 -6.4445475522 -2.1592869528
C    5.3563800800 -5.3400352028 -1.2517303908
H    6.7262016792 -4.0199231732 -0.2708857428
H    6.1073689441 -6.0822537414 -1.4777494823
C   -3.3420670525  3.4396069025 -0.9573103792
C   -2.8955132252  4.5296532319 -1.7123056622
C   -4.6925301747  3.3831331145 -0.6086008383
C   -3.7685479081  5.5212327140 -2.1107354257
C   -5.5629157938  4.3783159243 -1.0103262929
H   -3.4041647727  6.3508136869 -2.6986624744
C   -5.1080894348  5.4485364046 -1.7642343883
H   -6.6050399445  4.3229350899 -0.7320813490
H   -5.7924695249  6.2218852638 -2.0791892927
H    6.6389009447  3.7455822144  1.1853538286
H    4.2105313139  6.6516202817 -0.7858066383
H   -6.5902086232 -3.4745184842  1.6155585344
H   -4.3526522150 -6.6246241679 -0.1903397518
H   -1.8573291500  4.5735689600 -2.0070848812
H   -5.0474834097  2.5683791271  0.0043863333
H    2.0626867241 -4.7342291190 -1.6879175569
H    5.0153266879 -2.3369878753  0.2596051117
H   -4.7255287516 -1.9240333128  1.2286972948
H   -2.5176782230 -5.0631236206 -0.6556865367
H    4.7934124477  2.1252494078  1.0711615368
H    2.3894442901  5.0152625864 -0.9571774607
Cl  -0.0208385091  0.0501195764  2.3783871502
78
aligned d3map frame 196
N    0.0003877829  2.0489130679 -0.2295804626
N    2.0100699672  0.0333906981 -0.0735932530
C   -2.4005375962  2.3639038969 -0.6080833281
C   -1.0968626765  2.8244489755 -0.4673354307
C   -0.7057933546  4.2054730682 -0.4971423556
H   -1.3740005147  5.0275527057 -0.6720388330
C    0.6228293230  4.2464066047 -0.2241988479
H    1.2487437435  5.1128457722 -0.1282155081
C    1.0688066567  2.8870576676 -0.0912066394
C    2.3850451641  2.4796870957  0.1024188001
C    2.8195991859  1.1251798558  0.0266286213
C    4.1702514700  0.7368707321 -0.1246314483
H    5.0170271813  1.3946406043 -0.1054774222
C    4.1715914934 -0.6238834675 -0.3406470758
H    5.0172309478 -1.2606462656 -0.5123263205
C    2.8229997988 -1.0447868496 -0.2996597250
C    3.4340846810  3.4926373522  0.2965116059
C    4.1838798681  3.4908637674  1.4729504139
C    5.1871616380  4.4212521793  1.6663146579
C    5.4711312753  5.3531254336  0.6791797735
H    6.2643967611  6.0699184287  0.8256445974
C    4.7367867190  5.3579228549 -0.4959963658
C    3.7194689504  4.4409644597 -0.6851519170
N   -0.0098559887 -2.0365268451 -0.1673399487
N   -2.0108554834 -0.0259716762 -0.0942395570
C    2.3989562420 -2.3836483673 -0.4538690316
C    1.0850478664 -2.8254282972 -0.3583990189
C    0.6884246271 -4.2062684942 -0.3252860587
H    1.3519732369 -5.0382029166 -0.4665389461
C   -0.6400301571 -4.2315943729 -0.0535183633
H   -1.2744673077 -5.0870030309  0.0718406831
C   -1.0760984885 -2.8645573711  0.0315561684
C   -2.3820518662 -2.4464849693  0.2549782249
C   -2.8198243825 -1.1033722291  0.1035225626
C   -4.1742743363 -0.7201665517 -0.0307664363
H   -5.0162967042 -1.3761747816  0.0752899639
C   -4.1769851664  0.6185859518 -0.3532600962
H   -5.0241174306  1.2507562008 -0.5368481717
C   -2.8245506119  1.0338883086 -0.3809779737
C   -3.3945533873 -3.4564179253  0.6181777465
C   -3.8815293909 -3.4805525086  1.9233956851
C   -4.7884691546 -4.4484378677  2.3132652234
C   -5.2389805897 -5.3867604550  1.3987314629
H   -5.9486710714 -6.1423456975  1.7039612382
C   -4.7777535518 -5.3556439860  0.0923090917
C   -3.8531942460 -4.4016880862 -0.2949426957
Fe  -0.0021062469  0.0121789949  0.2392066053
C    3.4395074517 -3.4094848562 -0.6975792500
C    3.6519758146 -3.8732380793 -1.9916803227
C    4.1845692713 -3.9395600976  0.3482530322
C    4.5966375486 -4.8526890806 -2.2351065026
C    5.1229581844 -4.9258579134  0.1030301086
H    4.7570603771 -5.2059883242 -3.2444410861
C    5.3309472379 -5.3840212661 -1.1870018751
H    5.6917692950 -5.3406296426  0.9217047212
H    6.0628543978 -6.1552844679 -1.3775848145
C   -3.4410752549  3.3249213394 -1.0376104274
C   -3.8373621683  3.3224908178 -2.3716251899
C   -4.0304328449  4.2236365727 -0.1552002850
C   -4.7950728911  4.2138891788 -2.8200490533
C   -4.9992237209  5.1044682523 -0.6041345767
H   -5.0870271628  4.2061103136 -3.8607182343
C   -5.3781843350  5.1059148981 -1.9367742699
H   -5.4623585889  5.7914993375  0.0903926843
H   -6.1315890624  5.7939336664 -2.2833950581
H    5.7535310093  4.4143445309  2.5867695892
H    4.9604913112  6.0821365604 -1.2693731880
H   -5.1416584943 -4.4703130317  3.3343578328
H   -5.1336693647 -6.0787545781 -0.6271012053
H   -3.3823701526  2.6205993948 -3.0555620835
H   -3.7305068896  4.2185892898  0.8826670050
H    3.0746724294 -3.4579651612 -2.8051848057
H    4.0108617389 -3.5817459898  1.3536086176
H   -3.5225565484 -2.7508980908  2.6349738123
H   -3.4837575884 -4.3757894725 -1.3130239738
H    3.9599634318  2.7625732315  2.2407198682
H    3.1585235560  4.4334295453 -1.6088606693
Cl  -0.0177743148  0.0176962426  2.3820270726
78
aligned d3map frame 197
N   -0.0170027314  2.0558141590 -0.2147984705
N    2.0157102081  0.0160991961 -0.0603349054
C   -2.4378969266  2.4511884023 -0.1281517528
C   -1.1095257941  2.8738332432 -0.2125647218
C   -0.6890619436  4.2400622959 -0.3005017065
H   -1.3410492847  5.0910257334 -0.2856739880
C    0.6681293345  4.2321904322 -0.3811244268
H    1.3350217382  5.0694240377 -0.4526706343
C    1.0794237929  2.8648690191 -0.3148138360
C    2.4078715438  2.4487286476 -0.2760061809
C    2.8294415282  1.1161390687 -0.1031295690
C    4.1880364517  0.7168943518 -0.0394789706
H    5.0320583103  1.3775145910 -0.0471946533
C    4.1955985317 -0.6519975845  0.0268596216
H    5.0423950874 -1.3047729171  0.1034364996
C    2.8409245067 -1.0711295062 -0.0205151333
C    3.4652349105  3.4521923051 -0.5224329413
C    4.3194960996  3.8893833033  0.4836541399
C    5.3387014186  4.7792619412  0.1923080186
C    5.5254935470  5.2293953028 -1.1041578963
H    6.3351580278  5.9070085007 -1.3321103244
C    4.6715929994  4.8047766894 -2.1087671339
C    3.6417826771  3.9290624884 -1.8182371634
N    0.0249562960 -2.0417478409 -0.1491551428
N   -2.0174685126  0.0098265165 -0.0785009794
C    2.4438821612 -2.4240484872 -0.1030629075
C    1.1213830126 -2.8564307925 -0.1725304991
C    0.7105166075 -4.2152733226 -0.3536933685
H    1.3740388064 -5.0567136857 -0.4147671836
C   -0.6466302758 -4.2094012966 -0.4355945868
H   -1.3065361808 -5.0448586376 -0.5706043138
C   -1.0662559167 -2.8471149795 -0.3068702366
C   -2.3942424604 -2.4266601347 -0.3203732669
C   -2.8232472422 -1.0918084868 -0.1953798646
C   -4.1820657037 -0.6918587811 -0.2513710172
H   -5.0203842616 -1.3538767277 -0.3478689937
C   -4.1957238589  0.6771487920 -0.1769745105
H   -5.0463378290  1.3303675834 -0.2101951798
C   -2.8440982196  1.0973975583 -0.0793974683
C   -3.4337645730 -3.4569246317 -0.5473360068
C   -4.1834276734 -3.9717208222  0.5038336227
C   -5.1414073064 -4.9415827266  0.2655803181
C   -5.3682498974 -5.3962058508 -1.0228480862
H   -6.1171550182 -6.1522755207 -1.2078298223
C   -4.6306874200 -4.8795792694 -2.0753448567
C   -3.6642697173 -3.9195059492 -1.8394628454
Fe  -0.0021062469  0.0121789949  0.2392066053
C    3.5307401651 -3.4095145738 -0.2684284558
C    3.8279837794 -4.3572458286  0.7047767976
C    4.3008481875 -3.3663687729 -1.4298677005
C    4.8908682489 -5.2262745255  0.5281560041
C    5.3496001900 -4.2470861830 -1.6108494581
H    5.1298092229 -5.9450435170  1.2984524120
C    5.6538265097 -5.1732961736 -0.6266585134
H    5.9341947072 -4.2052474652 -2.5185461291
H    6.4850663003 -5.8502581693 -0.7587908942
C   -3.4890737187  3.4796076877 -0.2028278525
C   -4.3919351681  3.6695980838  0.8407515378
C   -3.5924683363  4.2810997833 -1.3388127794
C   -5.3651618773  4.6477643701  0.7520340444
C   -4.5765389969  5.2469606730 -1.4301760862
H   -6.0533024366  4.7982339770  1.5719034941
C   -5.4631289745  5.4366387268 -0.3830577235
H   -4.6521310805  5.8519254953 -2.3218107247
H   -6.2286397620  6.1952077531 -0.4522953712
H    5.9973267748  5.1164603728  0.9798943052
H    4.8115844885  5.1494329047 -3.1231647665
H   -5.7129765909 -5.3446058542  1.0885022444
H   -4.8096924206 -5.2282471337 -3.0822751259
H   -4.3113929558  3.0593969282  1.7280852647
H   -2.9058508812  4.1232139664 -2.1575684531
H    3.2396130653 -4.3929315380  1.6101741885
H    4.0620647456 -2.6360304293 -2.1897336440
H   -4.0036024652 -3.6127573632  1.5064365509
H   -3.0842504887 -3.5137967756 -2.6556308359
H    4.1782906603  3.5322676298  1.4932951216
H    2.9779647144  3.5895021376 -2.5997885404
Cl  -0.0144058531  0.0548256195  2.3785351767
78
aligned d3map frame 198
N   -0.0098119405  2.0527732752 -0.2105898606
N    2.0088453226  0.0210244692 -0.0870599950
C   -2.4213107197  2.3799140268 -0.5592420248
C   -1.0944248395  2.8366353282 -0.4603678031
C   -0.6819924017  4.1954082426 -0.5804317578
H   -1.3247978926  5.0255192704 -0.7963855313
C    0.6670337820  4.2219601001 -0.3584514433
H    1.3090272697  5.0796860059 -0.3390324282
C    1.0781956489  2.8756564046 -0.1527117680
C    2.4030280385  2.4516587049  0.0605551522
C    2.8141592937  1.1141907359  0.1166909247
C    4.1704426820  0.6890493873  0.2146152635
H    5.0108789954  1.3326949959  0.3880948007
C    4.1782796984 -0.6634024580  0.0381897097
H    5.0239323686 -1.3214357738  0.0708466207
C    2.8256489912 -1.0666566906 -0.1739307138
C    3.4536560598  3.4871907745  0.0954167921
C    4.2280060913  3.7000217148  1.2317382434
C    5.2219130636  4.6625532518  1.2273378089
C    5.4617211043  5.4151880100  0.0898478088
H    6.2435754471  6.1601106660  0.0869658697
C    4.6960980171  5.2075654433 -1.0456944451
C    3.6961441584  4.2539687529 -1.0431342394
N    0.0052746070 -2.0382270254 -0.1475554350
N   -2.0108752451 -0.0125633711 -0.1073134248
C    2.4235978178 -2.3958708497 -0.4165194193
C    1.0804158270 -2.8253963747 -0.4286662290
C    0.6417269842 -4.1614857446 -0.6528625075
H    1.2586906640 -4.9812065424 -0.9642681252
C   -0.7063899262 -4.1830246009 -0.4152721751
H   -1.3670591240 -5.0257303712 -0.4671791075
C   -1.0901336270 -2.8505755761 -0.1086436938
C   -2.4019189623 -2.4250879658  0.1761852117
C   -2.8195823143 -1.0928803289  0.1348470611
C   -4.1835962958 -0.6778672791  0.1285195512
H   -5.0225173614 -1.3237723753  0.3013653550
C   -4.1906376130  0.6531740466 -0.1735350848
H   -5.0365651007  1.3053862602 -0.2708727343
C   -2.8283512712  1.0569964592 -0.3103532928
C   -3.3943738578 -3.4642385205  0.5208166705
C   -3.7588411507 -3.6063038794  1.8574100622
C   -4.6302545619 -4.6074051874  2.2421160698
C   -5.1623287145 -5.4681094229  1.2963785008
H   -5.8392228967 -6.2530036987  1.5982638277
C   -4.8218721742 -5.3173487977 -0.0373843431
C   -3.9388629588 -4.3250244474 -0.4256997247
Fe  -0.0021062469  0.0121789949  0.2392066053
C    3.4786230092 -3.3971405179 -0.6053343231
C    4.4813762727 -3.2000923644 -1.5579498492
C    3.5164486166 -4.5560143725  0.1716341710
C    5.4907765585 -4.1286774116 -1.7209580607
C    4.5284857993 -5.4826332425  0.0052940988
H    6.2594051880 -3.9613423003 -2.4612200060
C    5.5211736757 -5.2727588279 -0.9380126768
H    4.5471890107 -6.3710400497  0.6199517959
H    6.3160748194 -5.9937215062 -1.0603927877
C   -3.4519417173  3.3457476899 -0.9787244190
C   -4.0932745994  3.1474914096 -2.2006261123
C   -3.7746191007  4.4693262861 -0.2219758215
C   -5.0103595817  4.0686345825 -2.6702312946
C   -4.7053230054  5.3804847981 -0.6881037473
H   -5.4823919264  3.9146009336 -3.6296169357
C   -5.3160101156  5.1900018243 -1.9170113080
H   -4.9524902988  6.2465694379 -0.0913747050
H   -6.0287165850  5.9125956787 -2.2857914487
H    5.8147133240  4.8250096419  2.1156562104
H    4.8806126005  5.7881693841 -1.9376903320
H   -4.8909550973 -4.7187996946  3.2853687160
H   -5.2423723563 -5.9796449119 -0.7802062906
H   -3.8438176373  2.2757640862 -2.7874284583
H   -3.3039481620  4.6135537134  0.7396325742
H    4.4495716574 -2.3187920472 -2.1822753243
H    2.7632878344 -4.7071542568  0.9304118753
H   -3.3355167010 -2.9343601598  2.5905176920
H   -3.6750407368 -4.2080828211 -1.4667098547
H    4.0360383879  3.1175767597  2.1206945534
H    3.1054283076  4.0785098395 -1.9301815553
Cl  -0.0156259726  0.0442040199  2.3789078903
78
aligned d3map frame 199
N   -0.0185019535  2.0593756018 -0.1957235379
N    2.0125331686 -0.0047372967 -0.0741764617
C   -2.4421939006  2.4416317399 -0.1299453012
C   -1.1201526143  2.8666051574 -0.2299846138
C   -0.7155325397  4.2127745335 -0.5178953923
H   -1.3829916951  5.0457068708 -0.6147068359
C    0.6330787141  4.1995282062 -0.6712778592
H    1.2758184015  5.0213028583 -0.9161810343
C    1.0642627272  2.8486360925 -0.4509272105
C    2.3833326972  2.4104900560 -0.5278592792
C    2.8102179932  1.0842487111 -0.2631383559
C    4.1725614256  0.7089775802 -0.1767862455
H    5.0105328005  1.3728070578 -0.2560899592
C    4.1970891258 -0.6478160263  0.0335179696
H    5.0589391783 -1.2778426236  0.1363898457
C    2.8513059945 -1.0794931819  0.0689507293
C    3.4213346873  3.3333556062 -1.0154832654
C    3.7695247844  4.5106660966 -0.3584854251
C    4.7541736184  5.3333186842 -0.8770712068
C    5.3952043976  5.0004755637 -2.0595255895
H    6.1613575509  5.6468569300 -2.4629308257
C    5.0520930434  3.8327462164 -2.7229857831
C    4.0794309012  3.0022490901 -2.2019215469
N    0.0306163619 -2.0439408285 -0.1348684981
N   -2.0147705939 -0.0037632485 -0.0917226233
C    2.4490027876 -2.4362845374  0.0398655016
C    1.1297577434 -2.8592278091 -0.0765392668
C    0.7161034780 -4.2284024039 -0.1714310598
H    1.3754348962 -5.0735863907 -0.1246118331
C   -0.6338430886 -4.2259551536 -0.3061267985
H   -1.2906856840 -5.0689415280 -0.3934086102
C   -1.0551294121 -2.8531992431 -0.2759343546
C   -2.3872671793 -2.4460872569 -0.2839993034
C   -2.8226057285 -1.1065641154 -0.1336377641
C   -4.1809704077 -0.7129127122 -0.0828261238
H   -5.0323306148 -1.3637042034 -0.1115290129
C   -4.1925769825  0.6592882939 -0.0053621449
H   -5.0482107891  1.2997275896  0.0798215022
C   -2.8436333338  1.0846880770 -0.0486031904
C   -3.4153733268 -3.4792402073 -0.5007624204
C   -4.3548477031 -3.7938237598  0.4766567537
C   -5.3142453242 -4.7618851814  0.2396377828
C   -5.3522654118 -5.4219944495 -0.9774545869
H   -6.1028358841 -6.1748788979 -1.1632732884
C   -4.4217964694 -5.1147400653 -1.9568860545
C   -3.4564619391 -4.1554440934 -1.7190500012
Fe  -0.0021062469  0.0121789949  0.2392066053
C    3.5198079501 -3.4463630761 -0.0661641717
C    4.4160759221 -3.6944921444  0.9680221244
C    3.6685930886 -4.1367933040 -1.2682086101
C    5.4440009125 -4.6057918618  0.7970365910
C    4.7052038334 -5.0350629532 -1.4411356828
H    6.1348501687 -4.7889835468  1.6008385490
C    5.5985772411 -5.2700608908 -0.4091398139
H    4.8218492332 -5.5444235447 -2.3869316571
H    6.4143659318 -5.9633468233 -0.5468994586
C   -3.5032658799  3.4567039605 -0.2373672464
C   -4.4234848123  3.3988961431 -1.2833930869
C   -3.5947821491  4.5012134752  0.6813284110
C   -5.4069851994  4.3625497476 -1.4067913957
C   -4.5882631881  5.4546680057  0.5615138765
H   -6.1065894736  4.3107833909 -2.2287059169
C   -5.4960162381  5.3920277251 -0.4842127222
H   -4.6526137244  6.2530658939  1.2867983563
H   -6.2656115004  6.1432560087 -0.5784646246
H    5.0272340444  6.2389043683 -0.3553300636
H    5.5467478931  3.5660155640 -3.6449087300
H   -6.0334919678 -5.0021195107  1.0081740018
H   -4.4502988657 -5.6236691111 -2.9092988767
H   -4.3491093686  2.6057916833 -2.0127492858
H   -2.8891628208  4.5464217247  1.4976831296
H    4.3000984806 -3.1721890364  1.9065194265
H    2.9784801572 -3.9405045996 -2.0767960598
H   -4.3132830635 -3.2888633524  1.4302070450
H   -2.7350653248 -3.9049023385 -2.4834207046
H    3.2830667271  4.7607903491  0.5728845212
H    3.8042843198  2.0926383047 -2.7172646246
Cl  -0.0403492143  0.1443342563  2.3728849863
78
aligned d3map frame 200
N   -0.0056423733  2.0579490731 -0.1698463778
N    1.9963075381  0.0441399259 -0.1541997593
C   -2.3664500014  2.3804744033 -0.7170480595
C   -1.0823346617  2.8454365945 -0.4465236880
C   -0.6745648468  4.2226351707 -0.4174037933
H   -1.3141637034  5.0573546222 -0.6288115553
C    0.6378599924  4.2429532169 -0.0738376285
H    1.2776019367  5.0959856250  0.0445761669
C    1.0603350605  2.8756263633  0.0569808571
C    2.3801512965  2.4599723767  0.2140852830
C    2.8195153965  1.1209015131  0.0136778828
C    4.1665941643  0.7118369552 -0.1080580182
H    5.0279782079  1.3376698360  0.0131371744
C    4.1494856742 -0.6328424521 -0.4037461232
H    4.9929221522 -1.2767197985 -0.5602735980
C    2.7934086038 -1.0329197450 -0.4182682444
C    3.3776325267  3.4914339845  0.5426185764
C    3.2621037197  4.1734073594  1.7537793768
C    4.1844340362  5.1403004174  2.1061418552
C    5.2252645881  5.4553555300  1.2478617818
H    5.9441329386  6.2129576096  1.5227685864
C    5.3355999091  4.7985327127  0.0334486208
C    4.4223174986  3.8203846224 -0.3172066150
N   -0.0128465262 -2.0451732745 -0.1032634523
N   -1.9950869061 -0.0121531453 -0.1762635314
C    2.3676122068 -2.3796754849 -0.5618401314
C    1.0778019300 -2.8384732960 -0.3032660533
C    0.6865784203 -4.2136495493 -0.1648598728
H    1.3354218561 -5.0575053954 -0.2933267172
C   -0.6235737301 -4.2236411388  0.1870254911
H   -1.2295795416 -5.0742564304  0.4295270127
C   -1.0755217708 -2.8593333408  0.1662853378
C   -2.3920092405 -2.4218248651  0.2891719169
C   -2.8088203840 -1.0914258943 -0.0226291240
C   -4.1376810119 -0.7382549154 -0.3469772267
H   -4.9809220884 -1.4001875972 -0.3368366234
C   -4.1199644808  0.5918612853 -0.7036154965
H   -4.9517000074  1.1942231560 -1.0091248544
C   -2.7820454938  1.0320554272 -0.5784392329
C   -3.4562766609 -3.3472365670  0.6925030693
C   -4.2640986635 -2.9934031306  1.7768305564
C   -5.2693781695 -3.8336799154  2.2118975205
C   -5.4996242230 -5.0369927249  1.5622163964
H   -6.2890921517 -5.6925102776  1.8994266937
C   -4.7202787096 -5.3880002407  0.4726293143
C   -3.7065829968 -4.5528937873  0.0392143184
Fe  -0.0021062469  0.0121789949  0.2392066053
C    3.3789317257 -3.3380428044 -1.0437369072
C    3.8184748809 -4.4287897830 -0.2995513584
C    3.8940582326 -3.1446977606 -2.3261872154
C    4.7334761021 -5.3172296583 -0.8378010119
C    4.7986298523 -4.0393051398 -2.8635957186
H    5.0715345595 -6.1600051803 -0.2517998155
C    5.2172741466 -5.1328371592 -2.1222889860
H    5.1767131229 -3.8852187790 -3.8638023605
H    5.9217919651 -5.8350270277 -2.5431708313
C   -3.3992507718  3.3514744312 -1.1245397195
C   -3.8455249262  4.3382810070 -0.2497035486
C   -3.9532216356  3.2781468768 -2.4005952532
C   -4.8296032350  5.2272642849 -0.6420073009
C   -4.9268695524  4.1776849108 -2.7937204633
H   -5.1781873377  5.9801761015  0.0496916396
C   -5.3712299372  5.1513565419 -1.9148393469
H   -5.3428813438  4.1152984919 -3.7899335916
H   -6.1395900345  5.8462619197 -2.2196874468
H    4.0898845298  5.6501599104  3.0539668107
H    6.1362360951  5.0500392676 -0.6471218817
H   -5.8772711341 -3.5477648915  3.0576559761
H   -4.9072126735 -6.3175558608 -0.0471458795
H   -3.4314435728  4.3873949713  0.7469798758
H   -3.6044233946  2.5175057106 -3.0839197097
H    3.4602194617 -4.5635428492  0.7107903808
H    3.5590483459 -2.2940106694 -2.9019906473
H   -4.0778826638 -2.0580860459  2.2842964880
H   -3.1286604213 -4.8161221674 -0.8353833888
H    2.4521283645  3.9214461113  2.4224501998
H    4.5004641344  3.3261697492 -1.2747153639
Cl  -0.0152530485  0.0557641394  2.3783451088
78
aligned d3map frame 201
N   -0.0075633112  2.0452286279 -0.2302771899
N    2.0056848543  0.0118804254 -0.1124839418
C   -2.4183321746  2.3670561415 -0.5901302950
C   -1.0732295176  2.8065168858 -0.6197969601
C   -0.6181260298  4.1082922253 -0.9486375256
H   -1.2158065564  4.9023585917 -1.3498797288
C    0.7312406805  4.1407042251 -0.6785405532
H    1.4010969934  4.9706634073 -0.7898416706
C    1.0888459780  2.8459250554 -0.2413059740
C    2.4054680373  2.4211021022  0.1028783158
C    2.8126953696  1.0974588233  0.1129006291
C    4.1840066914  0.6695364873  0.1273606722
H    5.0235895518  1.3155114339  0.2966626898
C    4.1895307865 -0.6545586183 -0.1686386970
H    5.0370585319 -1.3029547043 -0.2779897786
C    2.8199693871 -1.0655529471 -0.2996120868
C    3.4004090521  3.4695394493  0.4111656110
C    3.7339572727  3.6955502935  1.7435735320
C    4.6339252030  4.6903878494  2.0800344496
C    5.2196157188  5.4610705162  1.0899750003
H    5.9208490835  6.2398335425  1.3517870481
C    4.9045470981  5.2300796316 -0.2386639844
C    3.9969969941  4.2422401674 -0.5785572482
N    0.0029260012 -2.0292346480 -0.1704471903
N   -2.0064965013 -0.0262408538 -0.1325511657
C    2.4002130877 -2.3612098300 -0.6043628466
C    1.0616538989 -2.8018686646 -0.5488057300
C    0.6268065984 -4.1392043204 -0.7272105607
H    1.2450589742 -4.9609453358 -1.0319037785
C   -0.7131429396 -4.1648824634 -0.4134210567
H   -1.3767078743 -5.0072562494 -0.4420409950
C   -1.0752351527 -2.8435681023 -0.0642249127
C   -2.3908798009 -2.4129173989  0.2944167524
C   -2.8006203070 -1.0869293612  0.2415238424
C   -4.1337862345 -0.6097281106  0.4728953188
H   -4.9475854337 -1.1997868580  0.8449590416
C   -4.1472359068  0.7085056823  0.1488053434
H   -4.9756610990  1.3871514634  0.2100416580
C   -2.8112137813  1.0675444966 -0.2311689439
C   -3.3309313400 -3.4630196176  0.6972338197
C   -2.9610620181 -4.3420073929  1.7185526265
C   -3.8294140840 -5.3258878759  2.1473005062
C   -5.0756543393 -5.4627544905  1.5549964686
H   -5.7537485796 -6.2328013356  1.8915001975
C   -5.4430323771 -4.6130937647  0.5244278843
C   -4.5799170191 -3.6205791209  0.0975573127
Fe  -0.0021062469  0.0121789949  0.2392066053
C    3.4150773800 -3.3679681100 -0.9825776908
C    3.5187097030 -3.7655649927 -2.3123247777
C    4.2535871097 -3.9435138308 -0.0343537562
C    4.4499228746 -4.7169008139 -2.6868430257
C    5.1751214935 -4.9044473126 -0.4106043258
H    4.5277974082 -5.0126685385 -3.7231449381
C    5.2773383606 -5.2917569784 -1.7364780735
H    5.8136595868 -5.3560989468  0.3346153940
H    5.9976352025 -6.0413513973 -2.0283729087
C   -3.4823744764  3.3243179426 -0.9078393781
C   -4.4772953600  2.9698672974 -1.8229801271
C   -3.5381093751  4.5899681092 -0.3218686694
C   -5.4848353167  3.8561584974 -2.1495149741
C   -4.5470769002  5.4744530871 -0.6530059374
H   -6.2444452199  3.5664599528 -2.8608395713
C   -5.5222068611  5.1141012974 -1.5691770303
H   -4.5769696685  6.4501047526 -0.1899518038
H   -6.3098789836  5.8064984780 -1.8265721005
H    4.8765707031  4.8655408551  3.1182389719
H    5.3680415632  5.8221419709 -1.0142670492
H   -3.5358738771 -5.9892366786  2.9475459629
H   -6.4057766920 -4.7267685347  0.0483111016
H   -4.4384874516  1.9974002527 -2.2918989720
H   -2.8018219440  4.8616601428  0.4195088546
H    2.8685430504 -3.3174944109 -3.0498930186
H    4.1663292671 -3.6444955670  1.0000216913
H   -1.9952557110 -4.2246950560  2.1868554096
H   -4.8577988873 -2.9807129637 -0.7283207245
H    3.2712041031  3.0931024558  2.5115134837
H    3.7568952908  4.0572872507 -1.6161128937
Cl  -0.0080234664  0.0545515844  2.3782685975
78
aligned d3map frame 202
N   -0.0172210471  2.0583075400 -0.1875930746
N    2.0122388324  0.0150060388 -0.0720640630
C   -2.4267225898  2.4231897785 -0.4516062441
C   -1.1068523230  2.8600724163 -0.3350602537
C   -0.7014231164  4.2365137266 -0.2340073368
H   -1.3580942569  5.0806541977 -0.3029640553
C    0.6337024462  4.2413517120  0.0006628863
H    1.2809263122  5.0864936097  0.1339504301
C    1.0602329281  2.8696834782  0.0239628803
C    2.3788084312  2.4561354825  0.1477806639
C    2.8214034966  1.1160526640 -0.0040569427
C    4.1732543015  0.7277632365 -0.1214856686
H    5.0179711648  1.3870503857 -0.0932595967
C    4.1808037145 -0.6387302673 -0.2840754157
H    5.0315254103 -1.2738782008 -0.4343228435
C    2.8346057999 -1.0666510134 -0.2223510456
C    3.3893010825  3.4889066794  0.4518729691
C    3.3822275906  4.0758171810  1.7155123240
C    4.3189668307  5.0374065958  2.0443627341
C    5.2616341736  5.4378065288  1.1112747435
H    5.9904213613  6.1918035495  1.3680591949
C    5.2640661857  4.8698153305 -0.1513102148
C    4.3376980407  3.8955106494 -0.4801376932
N    0.0169982216 -2.0437578155 -0.1233695776
N   -2.0136555888  0.0008138185 -0.0916429912
C    2.4298081279 -2.4263189593 -0.2733025368
C    1.1064719117 -2.8570105429 -0.2113586609
C    0.6942045489 -4.2252428787 -0.0552923496
H    1.3486815698 -5.0737785531 -0.0979799927
C   -0.6391767670 -4.2129363311  0.1879033423
H   -1.2920512257 -5.0475558445  0.3567887833
C   -1.0584461979 -2.8405812774  0.1485426934
C   -2.3687621006 -2.4144657052  0.3105756792
C   -2.8212486608 -1.0932414546  0.0510156973
C   -4.1695369421 -0.7228243271 -0.1200541214
H   -5.0155548392 -1.3788624040 -0.0637417990
C   -4.1772005244  0.6267961140 -0.3958436534
H   -5.0287505409  1.2367958271 -0.6219896205
C   -2.8350871659  1.0669579553 -0.3331963200
C   -3.3211245485 -3.3778289627  0.8988221220
C   -3.1259130380 -3.6893437277  2.2443962827
C   -3.9773351630 -4.5631805612  2.8918475946
C   -5.0251407068 -5.1490590660  2.2006579726
H   -5.6871019842 -5.8366257354  2.7064902710
C   -5.2187742901 -4.8526095712  0.8617206597
C   -4.3750401286 -3.9673731956  0.2116938956
Fe  -0.0021062469  0.0121789949  0.2392066053
C    3.4871032043 -3.4504166979 -0.2352937903
C    4.3690640277 -3.4840476361  0.8458212924
C    3.6088817258 -4.4167485289 -1.2312609406
C    5.3368334318 -4.4654231118  0.9330884317
C    4.5876192033 -5.3909389525 -1.1462641356
H    6.0024399759 -4.4867686536  1.7833673120
C    5.4498344415 -5.4229470420 -0.0627553003
H    4.6779988849 -6.1313884227 -1.9278369841
H    6.2061841190 -6.1907009822  0.0083055400
C   -3.4700499778  3.4421988547 -0.6357851114
C   -3.4100292728  4.3211867492 -1.7171619314
C   -4.5286424316  3.5605760291  0.2655935858
C   -4.3909245568  5.2781831564 -1.9002981427
C   -5.5056884237  4.5191138912  0.0796931679
H   -4.3346210262  5.9487585147 -2.7454236531
C   -5.4439346775  5.3781419930 -1.0065613051
H   -6.3186364005  4.5989873842  0.7859602133
H   -6.2110982617  6.1229608924 -1.1529893471
H    4.3145064950  5.4773346294  3.0306501183
H    5.9882723326  5.1870117929 -0.8872726773
H   -3.8216956535 -4.7872182376  3.9370467604
H   -6.0313426587 -5.3150065722  0.3205223754
H   -2.5993199559  4.2341625643 -2.4244172398
H   -4.5620723040  2.9090246406  1.1263015806
H    4.2664152458 -2.7464961609  1.6282620892
H    2.9421807677 -4.3889765820 -2.0811693811
H   -2.3080065262 -3.2241795051  2.7751468593
H   -4.5192818839 -3.7472142972 -0.8361740942
H    2.6437788922  3.7575927444  2.4371126562
H    4.3338226823  3.4590188808 -1.4683606897
Cl  -0.0202011393  0.0293854718  2.3797294756
78
aligned d3map frame 203
N   -0.0120977581  2.0681127782 -0.1384906202
N    1.9971455011  0.0166328225 -0.1592382057
C   -2.4205359307  2.4336193656  0.0215739338
C   -1.1067337236  2.8538056156  0.1123089732
C   -0.6777350077  4.1934318418  0.3992998104
H   -1.3359739450  5.0015586833  0.6582336219
C    0.6744443707  4.2042917407  0.2971968139
H    1.3403833819  5.0246339890  0.4869089588
C    1.0799122466  2.8753773935 -0.0743498259
C    2.3811209460  2.4617467631 -0.3795114462
C    2.7349668452  1.0958483747 -0.5695718995
C    3.9483828825  0.6504224484 -1.1375702583
H    4.6889313938  1.2658233459 -1.6131088505
C    3.9713551878 -0.7226450315 -1.0040813469
H    4.7362130264 -1.3956498457 -1.3430499642
C    2.7668004840 -1.0898869832 -0.3706995439
C    3.4423126637  3.4575676558 -0.5043597273
C    4.6937042076  3.2412545101  0.0842893489
C    5.7028698837  4.1737214437 -0.0435527051
C    5.4882303392  5.3432348780 -0.7588671315
H    6.2799608932  6.0713492580 -0.8574722848
C    4.2537175640  5.5704776377 -1.3475417620
C    3.2406685455  4.6392835146 -1.2255502459
N    0.0221371212 -2.0511003579 -0.0726970473
N   -1.9993474107  0.0024450091 -0.1768427491
C    2.4265107831 -2.4361527801 -0.0191187476
C    1.1093974182 -2.8524201151  0.1454549285
C    0.6589202078 -4.1869944251  0.4296497162
H    1.2873919499 -5.0047066709  0.7226659328
C   -0.6883152001 -4.1935470978  0.2757204842
H   -1.3599844331 -5.0219560257  0.3746311675
C   -1.0822208972 -2.8484138553 -0.0300362742
C   -2.3833742167 -2.4339964301 -0.2990890054
C   -2.7914850765 -1.0864461242 -0.4116706166
C   -4.1256843043 -0.6703320699 -0.6458425830
H   -4.9521339573 -1.3189836988 -0.8613287028
C   -4.1405192951  0.6980388804 -0.5190467850
H   -4.9754123428  1.3639879416 -0.6278447350
C   -2.8160022053  1.0941343231 -0.2244807180
C   -3.4228644835 -3.4714866711 -0.4729533838
C   -3.9378861269 -4.1621327990  0.6187136008
C   -4.9096288013 -5.1311771441  0.4372931651
C   -5.3714187647 -5.4249640740 -0.8346532798
H   -6.1280494443 -6.1836106267 -0.9778354233
C   -4.8615785192 -4.7406006986 -1.9265590307
C   -3.8968953527 -3.7664274915 -1.7484616533
Fe  -0.0021062469  0.0121789949  0.2392066053
C    3.5359811422 -3.3825264299  0.0881988321
C    4.6908789990 -3.0225867048  0.7888588576
C    3.4982181574 -4.6412649405 -0.5185071590
C    5.7622013752 -3.8891191116  0.8878903463
C    4.5689782489 -5.5070778497 -0.4147839448
H    6.6450564602 -3.5904942085  1.4327726463
C    5.7048415656 -5.1361496510  0.2875068830
H    4.5231288892 -6.4750020792 -0.8922416037
H    6.5474485955 -5.8106563647  0.3555465776
C   -3.4990795005  3.4396359408  0.1608315235
C   -4.0726177588  3.6815037202  1.4041281186
C   -3.9544448444  4.1439283964 -0.9476427325
C   -5.0891394357  4.6110652371  1.5306281942
C   -4.9749217255  5.0694482022 -0.8176817856
H   -5.5277571031  4.7948508860  2.5011125834
C   -5.5460520492  5.3038113224  0.4216842925
H   -5.3252681555  5.6077887631 -1.6865104038
H   -6.3458283687  6.0235383946  0.5245017969
H    6.6627659892  3.9904431827  0.4189568573
H    4.0804903799  6.4770456818 -1.9109156904
H   -5.3069732725 -5.6612269141  1.2913829754
H   -5.2171826711 -4.9655359184 -2.9221601195
H   -3.7138503200  3.1374969546  2.2655725372
H   -3.5074080608  3.9583808778 -1.9136949850
H    4.7303932279 -2.0580690619  1.2726235432
H    2.6392041360 -4.9189588621 -1.1120764931
H   -3.5775183408 -3.9269875107  1.6132102977
H   -3.4932274096 -3.2320134201 -2.5961949083
H    4.8540809620  2.3440087253  0.6643824372
H    2.2918905341  4.8034301727 -1.7169741168
Cl  -0.0356934418  0.0616464293  2.3785298155
78
aligned d3map frame 204
N    0.0044560037  2.0539503483 -0.2050214222
N    1.9968820979  0.0336402837 -0.1372128027
C   -2.3738113132  2.3663531933 -0.7071120226
C   -1.0769838559  2.8325863873 -0.4788457154
C   -0.6792957078  4.2112008575 -0.4792048070
H   -1.3212122398  5.0408346975 -0.7026479686
C    0.6358479402  4.2485886520 -0.1435197690
H    1.2524390873  5.1164289097 -0.0138185581
C    1.0739258777  2.8868132655 -0.0140202384
C    2.3836327733  2.4626658278  0.1886585295
C    2.8114770478  1.1132458165  0.0177851150
C    4.1546688207  0.7388826172 -0.2207055926
H    5.0048830765  1.3946312110 -0.1708772494
C    4.1398669103 -0.5951185543 -0.5566472189
H    4.9761186060 -1.2190162708 -0.8102957013
C    2.7891419197 -1.0206396616 -0.4929535559
C    3.4302514317  3.4514590429  0.4902273800
C    4.1516380702  3.3289900739  1.6770686402
C    5.1238328389  4.2543029050  2.0068643912
C    5.4068654994  5.3042124091  1.1471910521
H    6.1672488376  6.0264199775  1.4025282756
C    4.7122361725  5.4190535739 -0.0454661494
C    3.7286818669  4.5033396888 -0.3728451811
N    0.0009989855 -2.0394198415 -0.1408027370
N   -1.9978476173 -0.0187395266 -0.1549733683
C    2.3702316842 -2.3627898314 -0.6621893277
C    1.0852141128 -2.8299821738 -0.3713688461
C    0.7021970090 -4.2065961410 -0.2406734912
H    1.3476288504 -5.0479360239 -0.3937403786
C   -0.6042019292 -4.2229926828  0.1318087443
H   -1.2017264188 -5.0820442249  0.3711720558
C   -1.0575308333 -2.8607824592  0.1371365492
C   -2.3726046986 -2.4339047114  0.2901687673
C   -2.8056931137 -1.0991334334  0.0152812826
C   -4.1459891352 -0.7416021465 -0.2581778479
H   -4.9871397160 -1.4052788874 -0.2276719375
C   -4.1387375886  0.5884418385 -0.6077105657
H   -4.9835096497  1.1935290775 -0.8705326748
C   -2.7958072940  1.0280398084 -0.5291255691
C   -3.4278547239 -3.3777792774  0.6771285922
C   -4.2131269613 -3.0752628836  1.7904604637
C   -5.2262133988 -3.9228669071  2.1908530075
C   -5.4848988854 -5.0826129057  1.4819858767
H   -6.2850999032 -5.7395721773  1.7875533826
C   -4.7170429871 -5.3892908601  0.3698804982
C   -3.6956325637 -4.5468657061 -0.0307878462
Fe  -0.0021062469  0.0121789949  0.2392066053
C    3.3555712336 -3.2970507078 -1.2368182522
C    3.8399556856 -4.4178129215 -0.5681007734
C    3.7975387361 -3.0473747608 -2.5361812247
C    4.7235180998 -5.2775637465 -1.1989654859
C    4.6715880676 -3.9126728698 -3.1659906814
H    5.0968270022 -6.1434451739 -0.6720539284
C    5.1326512447 -5.0361759927 -2.5000455867
H    4.9904397972 -3.7101680794 -4.1788567925
H    5.8123941160 -5.7170614453 -2.9911603774
C   -3.3910141440  3.3352887526 -1.1568630013
C   -3.7875365035  4.4086536315 -0.3649159563
C   -3.9609292287  3.1827216326 -2.4200453957
C   -4.7144606593  5.3198754091 -0.8360599623
C   -4.8785225735  4.1003543124 -2.8931887163
H   -5.0201161084  6.1462359084 -0.2103243687
C   -5.2521270499  5.1759729160 -2.1038511986
H   -5.3070728220  3.9796653838 -3.8776197763
H   -5.9602194309  5.8968343829 -2.4755149387
H    5.6548654443  4.1589478501  2.9418512829
H    4.9388343195  6.2287254240 -0.7272390891
H   -5.8220903226 -3.6763773203  3.0585613239
H   -4.9248190966 -6.2860526885 -0.1999924600
H   -3.3795520793  4.5144024111  0.6302930583
H   -3.6619785219  2.3481544324 -3.0358623787
H    3.5424983327 -4.5970157164  0.4540776642
H    3.4292827796 -2.1728466501 -3.0534990690
H   -4.0063693939 -2.1763768695  2.3454056220
H   -3.1250340004 -4.7808265515 -0.9178110890
H    3.9238609232  2.5140184965  2.3480596720
H    3.2126742987  4.5797679850 -1.3148798369
Cl  -0.0172804730  0.0389617640  2.3778716827
78
aligned d3map frame 205
N   -0.0110567977  2.0535018443 -0.2079883970
N    2.0096209182  0.0230533295 -0.0843971290
C   -2.4190355511  2.3736943437 -0.5910492422
C   -1.0973101373  2.8370322941 -0.4615812266
C   -0.6887676592  4.1978223326 -0.5593274413
H   -1.3296026774  5.0312536537 -0.7669860984
C    0.6577494156  4.2262024418 -0.3222233521
H    1.2911747190  5.0901950698 -0.2826195426
C    1.0734581135  2.8783969160 -0.1356315873
C    2.4016948906  2.4558928746  0.0668563896
C    2.8164501637  1.1175775533  0.0966460035
C    4.1771599881  0.6969864453  0.1454563248
H    5.0216080858  1.3434473734  0.2820536870
C    4.1834907827 -0.6557861370 -0.0316457634
H    5.0330909865 -1.3094595052 -0.0315997919
C    2.8258061068 -1.0637165205 -0.1926578056
C    3.4432936663  3.4950624492  0.1396099347
C    4.2308418832  3.6445705930  1.2788004569
C    5.2052853028  4.6247938120  1.3323067024
C    5.4148188102  5.4629268112  0.2491937101
H    6.1775272581  6.2271450053  0.2921482257
C    4.6427383316  5.3150426713 -0.8915035669
C    3.6636010041  4.3408702672 -0.9465795304
N    0.0017993823 -2.0389498674 -0.1446967514
N   -2.0105122880 -0.0128247916 -0.1053676868
C    2.4199787617 -2.3971397209 -0.4022676506
C    1.0811092122 -2.8324902949 -0.3921629766
C    0.6475366631 -4.1799756907 -0.5599218710
H    1.2733963756 -5.0079827182 -0.8283282427
C   -0.6993887227 -4.1969379467 -0.3231995436
H   -1.3564876292 -5.0439243404 -0.3405682866
C   -1.0896277375 -2.8530225502 -0.0716361211
C   -2.3994267014 -2.4216642555  0.2138081708
C   -2.8175786485 -1.0885487897  0.1526540147
C   -4.1815073700 -0.6746692129  0.1381253995
H   -5.0205828253 -1.3168709122  0.3229516762
C   -4.1889169424  0.6513265043 -0.1893153446
H   -5.0366294458  1.2998156001 -0.2984040799
C   -2.8279136211  1.0538914471 -0.3290279783
C   -3.3826305744 -3.4562933677  0.5919920250
C   -3.7613984139 -3.5451526253  1.9292981128
C   -4.6032209262 -4.5578422972  2.3504427789
C   -5.0916349063 -5.4799223029  1.4396538430
H   -5.7406639383 -6.2794033638  1.7709989873
C   -4.7461587915 -5.3762409248  0.1023367071
C   -3.8915460959 -4.3732590007 -0.3214198370
Fe  -0.0021062469  0.0121789949  0.2392066053
C    3.4740513807 -3.4037102100 -0.5823758612
C    4.4334768426 -3.2541313783 -1.5843898643
C    3.5466903389 -4.5215642720  0.2516250256
C    5.4325543060 -4.1946206110 -1.7483532325
C    4.5495521648 -5.4571140326  0.0871158286
H    6.1662712527 -4.0663750361 -2.5307199267
C    5.4956310716 -5.2980741445 -0.9126751674
H    4.5972908194 -6.3121825150  0.7459443002
H    6.2806149906 -6.0281994374 -1.0377852927
C   -3.4362939978  3.3191394747 -1.0836756926
C   -4.0161951427  3.0644657844 -2.3269513065
C   -3.8012147626  4.4731744981 -0.3965151450
C   -4.9042785948  3.9623688169 -2.8868461890
C   -4.7051328327  5.3617434514 -0.9525617032
H   -5.3245427585  3.7646165662 -3.8625305871
C   -5.2470422647  5.1182577062 -2.2038039460
H   -4.9832803006  6.2524025637 -0.4081528148
H   -5.9352197036  5.8240958365 -2.6458024538
H    5.8057216029  4.7349739778  2.2235803911
H    4.8028374417  5.9599141593 -1.7434288528
H   -4.8720758754 -4.6333937798  3.3941977742
H   -5.1383788725 -6.0839826714 -0.6125298222
H   -3.7399002731  2.1670331479 -2.8612895313
H   -3.3873568354  4.6642351337  0.5832602744
H    4.3749335906 -2.4015286963 -2.2468446279
H    2.8261515086 -4.6313357021  1.0484100195
H   -3.3679289183 -2.8281746482  2.6346223014
H   -3.6220401950 -4.2897302417 -1.3644266063
H    4.0606655880  2.9988221019  2.1280087916
H    3.0740143790  4.2137193702 -1.8429159361
Cl  -0.0239441550  0.0145792935  2.3791011518
78
aligned d3map frame 206
N    0.0085951414  2.0531687410 -0.2209306556
N    2.0122058447  0.0341840957 -0.0732427153
C   -2.4056392836  2.3931826903 -0.5057775029
C   -1.0830576422  2.8166111533 -0.5249265008
C   -0.6634182418  4.1570451964 -0.8141645199
H   -1.3192730557  4.9587885441 -1.0943410958
C    0.6856611143  4.1907029872 -0.6576730731
H    1.3451845510  5.0226744085 -0.8100580771
C    1.0966297710  2.8719079960 -0.2734316992
C    2.4185443303  2.4739985650 -0.0403716300
C    2.8166230323  1.1267163697  0.1245020726
C    4.1410134658  0.7016784147  0.3956277851
H    4.9622601536  1.3413209993  0.6537508209
C    4.1492199079 -0.6672015904  0.2834790252
H    4.9778724576 -1.3323938684  0.4305581204
C    2.8254994644 -1.0598625858 -0.0341241114
C    3.4735940846  3.4927487937 -0.1011583660
C    3.4214565517  4.6444597027  0.6866268447
C    4.4115202269  5.6036541768  0.5943457789
C    5.4616056636  5.4408299656 -0.2970926112
H    6.2308943285  6.1967496230 -0.3770701227
C    5.5211699743  4.3051075369 -1.0880391970
C    4.5429703139  3.3332490512 -0.9846129942
N    0.0130636651 -2.0400918658 -0.1559415484
N   -2.0149623264 -0.0102070311 -0.0882556341
C    2.4348497372 -2.4006862682 -0.2867122127
C    1.1105784808 -2.8314124692 -0.3461699694
C    0.6891922539 -4.1771439136 -0.5996939292
H    1.3399610951 -4.9994588875 -0.8194616470
C   -0.6663802131 -4.1926163796 -0.5109471156
H   -1.3253328632 -5.0317930997 -0.6218414004
C   -1.0821703055 -2.8489204845 -0.2434776227
C   -2.4094518901 -2.4451706830 -0.0921182446
C   -2.8312267859 -1.1030984257  0.0100888553
C   -4.1892182173 -0.6911851124 -0.0008856962
H   -5.0371372578 -1.3432795148  0.0723681369
C   -4.1879218594  0.6722084001 -0.1531939634
H   -5.0351271278  1.3245901987 -0.2227433970
C   -2.8318989051  1.0760923637 -0.2202566713
C   -3.4608813077 -3.4790580931 -0.1829510609
C   -4.2095721845 -3.8408465781  0.9314998753
C   -5.1956916278 -4.8058024898  0.8255390604
C   -5.4554091033 -5.4065562985 -0.3957968275
H   -6.2302953877 -6.1540045672 -0.4799750347
C   -4.7185157064 -5.0473029693 -1.5085666070
C   -3.7208205507 -4.0961013329 -1.4043314832
Fe  -0.0021062469  0.0121789949  0.2392066053
C    3.5154486460 -3.3614205623 -0.5440541349
C    4.4329823231 -3.0927348650 -1.5624467811
C    3.6555579641 -4.5370124023  0.1904793477
C    5.4438232082 -3.9869523106 -1.8523183051
C    4.6769911807 -5.4244741734 -0.0963322952
H    6.1389554338 -3.7691445949 -2.6498034932
C    5.5685787845 -5.1586656724 -1.1224973907
H    4.7805728700 -6.3275761851  0.4883056463
H    6.3634004415 -5.8544727247 -1.3476478825
C   -3.4439237368  3.3658294688 -0.9190696366
C   -3.6343490577  3.5906641982 -2.2803266651
C   -4.2318849500  4.0497139303 -0.0014383970
C   -4.6028332650  4.4748396677 -2.7164797626
C   -5.1927402945  4.9450653531 -0.4411943847
H   -4.7428193949  4.6339543399 -3.7761287074
C   -5.3834047340  5.1553993621 -1.7969382024
H   -5.7971309868  5.4785043530  0.2780200366
H   -6.1385670401  5.8477673490 -2.1376894838
H    4.3656443504  6.4855769292  1.2171265627
H    6.3328795433  4.1742883771 -1.7876182174
H   -5.7617852656 -5.0912177782  1.6983505550
H   -4.9197842580 -5.5083253749 -2.4656654512
H   -3.0200513840  3.0556693225 -2.9911548198
H   -4.0832511532  3.8862146701  1.0576913316
H    4.3304434928 -2.1822328277 -2.1344989502
H    2.9768829112 -4.7319579196  1.0105937645
H   -4.0072121161 -3.3675152761  1.8814608619
H   -3.1488179710 -3.8057671387 -2.2744662291
H    2.6046471967  4.7648668266  1.3842836360
H    4.5818573313  2.4546094691 -1.6128218703
Cl   0.0070118707  0.1030261255  2.3810017101
78
aligned d3map frame 207
N    0.0100650269  2.0643693742 -0.1519852507
N    2.0034473013  0.0483366857 -0.1313716808
C   -2.3764930729  2.3852757287 -0.5969466425
C   -1.0851703323  2.8458634524 -0.3760238065
C   -0.6956893113  4.2251984270 -0.3866502550
H   -1.3621674704  5.0523004376 -0.5354746595
C    0.6426063738  4.2594546889 -0.1718431116
H    1.2798059708  5.1210073278 -0.1348957010
C    1.0820694693  2.8983733678 -0.0390712799
C    2.4099898532  2.4904520938  0.0389662672
C    2.8289863731  1.1335271777 -0.0294983629
C    4.1772091599  0.7171830680 -0.0500718264
H    5.0322043174  1.3560537511  0.0599726063
C    4.1677508872 -0.6479123647 -0.2240321775
H    5.0077806756 -1.3028614189 -0.2748516186
C    2.8134014888 -1.0447993124 -0.2733182855
C    3.4296361128  3.5515725707  0.0518190020
C    3.4481280886  4.5006896547  1.0739841163
C    4.3407143924  5.5568069268  1.0373202485
C    5.2262393358  5.6874934382 -0.0206607825
H    5.9122382193  6.5223194224 -0.0554361867
C    5.2257410556  4.7408563105 -1.0327718415
C    4.3387025056  3.6789880626 -0.9956535742
N   -0.0126476120 -2.0504478741 -0.0864422496
N   -2.0042055695 -0.0238959742 -0.1503742867
C    2.3977191576 -2.3952922456 -0.3667591559
C    1.0932160543 -2.8424504423 -0.1864603200
C    0.7087786912 -4.2175030473 -0.0400111983
H    1.3753512811 -5.0556537127 -0.0895046552
C   -0.6246443386 -4.2327338780  0.2066273305
H   -1.2419704191 -5.0819088768  0.4267589337
C   -1.0847520735 -2.8742423390  0.1171855425
C   -2.4135060393 -2.4594958180  0.1390234056
C   -2.8149933768 -1.1163359488 -0.1342436154
C   -4.1208719320 -0.7556180489 -0.5336041139
H   -4.9487760071 -1.4279891902 -0.6465986188
C   -4.1006439631  0.5976163951 -0.7840961418
H   -4.9054338498  1.2173094447 -1.1232682680
C   -2.7839494777  1.0394049942 -0.5252100420
C   -3.4873494295 -3.4316085022  0.3673217786
C   -4.4556685311 -3.1678249586  1.3402782710
C   -5.4717947992 -4.0706651039  1.5848450134
C   -5.5499004833 -5.2505259771  0.8603698192
H   -6.3486348193 -5.9527713924  1.0525336936
C   -4.6062041109 -5.5151014283 -0.1192622935
C   -3.5876806920 -4.6140446355 -0.3684473668
Fe  -0.0021062469  0.0121789949  0.2392066053
C    3.4447891030 -3.3812474988 -0.7013200324
C    4.0060929835 -3.3359019788 -1.9759367624
C    3.8815794029 -4.3509251191  0.1953157418
C    4.9719759518 -4.2505111885 -2.3508546410
C    4.8626322167 -5.2516808307 -0.1776660979
H    5.3863926010 -4.2121694932 -3.3489688979
C    5.4064641228 -5.2087893001 -1.4509829056
H    5.2061014638 -5.9933983316  0.5288549277
H    6.1687921488 -5.9181869730 -1.7379166184
C   -3.3859065584  3.4095381618 -0.9540315361
C   -3.5122616054  3.8087313114 -2.2801727834
C   -4.1628577505  4.0236008224  0.0200684811
C   -4.3920815430  4.8186426157 -2.6234214113
C   -5.0381303354  5.0389785317 -0.3268107389
H   -4.4801616195  5.1266726479 -3.6550386354
C   -5.1498216516  5.4430074043 -1.6459713308
H   -5.6268118015  5.5196044331  0.4415380958
H   -5.8228264865  6.2455026407 -1.9113278528
H    4.3512908679  6.2808579149  1.8458428089
H    5.9125495292  4.8354104729 -1.8614264582
H   -6.2103336446 -3.8542330187  2.3440973136
H   -4.6660446686 -6.4251057687 -0.6990593400
H   -2.9095690211  3.3253217067 -3.0357560716
H   -4.0663574748  3.7115781920  1.0491583820
H    3.6659636214 -2.5854425398 -2.6741841828
H    3.4654415782 -4.3789414807  1.1919687643
H   -4.3924659015 -2.2554923083  1.9161015938
H   -2.8832640607 -4.8063182497 -1.1649517254
H    2.7618905237  4.3965112641  1.9013673858
H    4.3233881819  2.9612326828 -1.8020283690
Cl  -0.0017915800  0.0240008768  2.3796932476
78
aligned d3map frame 208
N   -0.0012927540  2.0537963608 -0.2045861671
N    2.0022336226  0.0150940790 -0.1083660003
C   -2.3880200405  2.3693275921 -0.6502732906
C   -1.0829751922  2.8344691414 -0.4858359219
C   -0.6756016000  4.2121348031 -0.4859467991
H   -1.3050941007  5.0462290262 -0.7272166096
C    0.6221820116  4.2435283085 -0.0929666208
H    1.2274824054  5.1136315465  0.0903503726
C    1.0600247835  2.8807720802  0.0289259732
C    2.3675703039  2.4492318477  0.2487884376
C    2.8011646782  1.1096742557  0.0109696057
C    4.1377361779  0.7584514228 -0.2774126863
H    4.9752837768  1.4293040075 -0.2947585906
C    4.1383947853 -0.5837080711 -0.5888826108
H    4.9772232157 -1.1762010683 -0.8972101292
C    2.8064039754 -1.0385359456 -0.4454652743
C    3.3933673918  3.3762257434  0.7392418282
C    4.0789784659  3.0117561047  1.9016520577
C    5.0088907519  3.8580427838  2.4657559107
C    5.2863494639  5.0777798847  1.8716126765
H    6.0018543414  5.7495489414  2.3191044282
C    4.6439067381  5.4327018722  0.6999737173
C    3.7086497836  4.5890554315  0.1317933531
N    0.0001240969 -2.0357786128 -0.1447428555
N   -2.0033656311 -0.0323676723 -0.1275850140
C    2.3862520093 -2.3864254713 -0.5880983785
C    1.0763263485 -2.8287061078 -0.3985657050
C    0.6749442456 -4.2051684412 -0.3092630563
H    1.3213151526 -5.0465205561 -0.4665634436
C   -0.6369017296 -4.2164330453  0.0377904833
H   -1.2728538593 -5.0656726056  0.1916507285
C   -1.0587265397 -2.8467292874  0.1339900777
C   -2.3676931667 -2.4257443468  0.3696103339
C   -2.8151402867 -1.0881741347  0.1838786663
C   -4.1585739168 -0.6551753175  0.2130240523
H   -5.0107836230 -1.2447788568  0.4838892497
C   -4.1576117997  0.6732327651 -0.1478479106
H   -5.0063971905  1.3257328987 -0.2171118572
C   -2.8097239151  1.0424012818 -0.3551075090
C   -3.3373771310 -3.4415103257  0.8029692417
C   -3.0797465116 -4.1561408321  1.9731161371
C   -3.9726655957 -5.1071436271  2.4268715664
C   -5.1314253534 -5.3704461790  1.7147073690
H   -5.8294812423 -6.1140998865  2.0686806305
C   -5.3892735789 -4.6765050297  0.5440248441
C   -4.5017365856 -3.7184384169  0.0896505475
Fe  -0.0021062469  0.0121789949  0.2392066053
C    3.4150702296 -3.3955063267 -0.8859326446
C    4.5015406570 -3.5859388085 -0.0342391282
C    3.3114229783 -4.1841243180 -2.0316872620
C    5.4612136976 -4.5368616361 -0.3243296260
C    4.2810167468 -5.1239170947 -2.3254567017
H    6.2932549245 -4.6833221006  0.3485966221
C    5.3582850167 -5.3041877039 -1.4737149145
H    4.1967904270 -5.7187651980 -3.2237889205
H    6.1134375434 -6.0404761765 -1.7015456198
C   -3.4395613940  3.2798918829 -1.1273023012
C   -3.7599080379  4.4804109652 -0.4980081878
C   -4.1534906519  2.9133539859 -2.2704505291
C   -4.7475222777  5.2987451369 -1.0155776534
C   -5.1384395430  3.7340617874 -2.7831979850
H   -4.9871228967  6.2255635402 -0.5172613316
C   -5.4347607855  4.9343861435 -2.1618826593
H   -5.6759290217  3.4341557477 -3.6714526513
H   -6.2048072063  5.5750684837 -2.5626161089
H    5.5208402248  3.5646591284  3.3689982297
H    4.8792430625  6.3714608480  0.2204002603
H   -3.7657338466 -5.6450658934  3.3393156987
H   -6.2859639629 -4.8867904409 -0.0208591908
H   -3.2602004228  4.7520525262  0.4193929303
H   -3.9160548502  1.9804934515 -2.7592417719
H    4.5725781559 -2.9958363218  0.8675039334
H    2.4739474679 -4.0359984029 -2.6980596879
H   -2.1801777375 -3.9414625997  2.5291973717
H   -4.6893165100 -3.2023870582 -0.8393734788
H    3.8483472349  2.0688046254  2.3708838060
H    3.2456089293  4.8531247654 -0.8122806042
Cl  -0.0051378149  0.0551105580  2.3787800291
78
aligned d3map frame 209
N   -0.0003413519  2.0517524804 -0.2042791457
N    2.0047612319  0.0204672312 -0.1106553142
C   -2.4161834615  2.3768492290 -0.5502584518
C   -1.0704603500  2.8225023473 -0.5538034481
C   -0.6330502424  4.1488860742 -0.7902373730
H   -1.2367937533  4.9592333729 -1.1475229037
C    0.7107596451  4.1847447066 -0.4935479361
H    1.3546502664  5.0404295887 -0.5237828811
C    1.0883396055  2.8679660975 -0.1465802285
C    2.4003668818  2.4297936432  0.1889155555
C    2.8074980384  1.0985926396  0.1299713798
C    4.1822648791  0.6812031367  0.1032678537
H    5.0246816629  1.3308211778  0.2539372206
C    4.1909919903 -0.6412985092 -0.2024479568
H    5.0396651039 -1.2869595068 -0.3313863588
C    2.8217320372 -1.0578578662 -0.3074696764
C    3.3921583002  3.4212228698  0.6371088129
C    3.8538438957  4.4688914418 -0.1552253897
C    4.7574967328  5.3853354771  0.3552524332
C    5.2106860644  5.2709303778  1.6594762452
H    5.9077093538  5.9941043026  2.0563565197
C    4.7705381095  4.2207260419  2.4493529361
C    3.8752423596  3.3000054056  1.9414257033
N    0.0018456589 -2.0348728072 -0.1429489559
N   -2.0074589221 -0.0262004108 -0.1296209862
C    2.4097583865 -2.3672344252 -0.5274069344
C    1.0746655117 -2.8195394624 -0.4423849847
C    0.6616171513 -4.1690504704 -0.5453077204
H    1.2927442302 -5.0000663133 -0.7862391003
C   -0.6872274390 -4.1913728001 -0.2703858875
H   -1.3381281070 -5.0435697699 -0.2642481917
C   -1.0741798283 -2.8550462806 -0.0177329298
C   -2.3986604484 -2.4178113754  0.2792911368
C   -2.8076376504 -1.0886061590  0.2203636729
C   -4.1450481869 -0.6177511497  0.4321030000
H   -4.9613952178 -1.2160482599  0.7927243139
C   -4.1548720517  0.7058163027  0.1286309554
H   -4.9827666753  1.3841340669  0.1884355908
C   -2.8128347635  1.0699281077 -0.2266885105
C   -3.3664973141 -3.4651873091  0.6233670669
C   -3.0727255984 -4.3521143857  1.6603384020
C   -3.9623053831 -5.3496532291  2.0065086999
C   -5.1534619753 -5.4920323245  1.3136773496
H   -5.8441602116 -6.2776954771  1.5810853300
C   -5.4505316859 -4.6249931588  0.2752498098
C   -4.5675649146 -3.6170956035 -0.0665748912
Fe  -0.0021062469  0.0121789949  0.2392066053
C    3.4304793594 -3.4057733029 -0.8028280106
C    3.9827140897 -4.1512940300  0.2315520689
C    3.8045323390 -3.6797754332 -2.1142443052
C    4.8885858332 -5.1610083945 -0.0425591798
C    4.7072336547 -4.6927626844 -2.3848639289
H    5.3092149917 -5.7372657785  0.7683894851
C    5.2476003994 -5.4390050179 -1.3508337535
H    4.9842828774 -4.9068171865 -3.4073388098
H    5.9446197106 -6.2354448888 -1.5651133212
C   -3.4807576256  3.3418703132 -0.8418513953
C   -3.5562615830  4.5808800391 -0.2001392526
C   -4.4612349705  3.0204103835 -1.7862512338
C   -4.5688718936  5.4706015736 -0.5026460445
C   -5.4752542324  3.9117202866 -2.0807065341
H   -4.6147661881  6.4231279245  0.0069938441
C   -5.5299520672  5.1419591869 -1.4448135110
H   -6.2233574341  3.6467475408 -2.8141786102
H   -6.3223177986  5.8378531974 -1.6739266276
H    5.1128499620  6.1939205353 -0.2679848912
H    5.1242028354  4.1198401769  3.4653235663
H   -3.7246149658 -6.0219215422  2.8175689326
H   -6.3729636328 -4.7377479073 -0.2754252023
H   -2.8354942343  4.8233552935  0.5667212214
H   -4.4082651703  2.0674254483 -2.2969327237
H    3.6924492697 -3.9380172969  1.2498801986
H    3.3771116422 -3.1002638703 -2.9182068221
H   -2.1476203968 -4.2350336871  2.2053961215
H   -4.7902881983 -2.9629551786 -0.8965369262
H    3.5271853650  4.5451501057 -1.1824319387
H    3.5176126294  2.4885799925  2.5571583096
Cl   0.0068757027  0.0747585751  2.3805211133
78
aligned d3map frame 210
N    0.0075059096  2.0457524229 -0.2377688309
N    2.0077009930  0.0320298411 -0.0966008670
C   -2.3895217792  2.3530942692 -0.6968034413
C   -1.0803892033  2.8166928876 -0.4864750376
C   -0.7153722233  4.1985010695 -0.4082276259
H   -1.3891981244  5.0240221582 -0.5323211182
C    0.6065531869  4.2421637823 -0.0854540520
H    1.2099643383  5.1098656774  0.0960214017
C    1.0642962676  2.8874022440 -0.0219149626
C    2.3852796880  2.4723183220  0.1474783156
C    2.8152906610  1.1269232657  0.0311846584
C    4.1660616782  0.7496590588 -0.1731102161
H    5.0158714519  1.4138397194 -0.1383457834
C    4.1658276898 -0.5913224375 -0.4607222479
H    5.0127262563 -1.2019699312 -0.7066069019
C    2.8168087850 -1.0293490415 -0.3973187954
C    3.4311700800  3.4936050645  0.3132150340
C    4.2501660468  3.4806134861  1.4412855266
C    5.2343892308  4.4377919348  1.6023686018
C    5.4297870240  5.4079825045  0.6318999115
H    6.2056355958  6.1478184423  0.7559302120
C    4.6306600156  5.4191301173 -0.4999603616
C    3.6337326801  4.4748090048 -0.6558052302
N    0.0025252594 -2.0305334907 -0.1745283110
N   -2.0096379791 -0.0218420643 -0.1136653285
C    2.3925053799 -2.3549989716 -0.6310931047
C    1.0769519235 -2.8075019535 -0.4738545499
C    0.6783218223 -4.1827222832 -0.4863332180
H    1.3257686494 -5.0123697714 -0.6940637830
C   -0.6418741552 -4.2164187694 -0.1572908676
H   -1.2791969812 -5.0746409717 -0.0737093457
C   -1.0614900641 -2.8590646287  0.0261607899
C   -2.3827494589 -2.4476404547  0.2241018455
C   -2.8229585496 -1.1089323199  0.0737131254
C   -4.1772079466 -0.7142954436 -0.0615235791
H   -5.0366480482 -1.3439719479  0.0834077468
C   -4.1745694784  0.6094836407 -0.4215632981
H   -5.0259346736  1.2142062204 -0.6708128674
C   -2.8212258823  1.0349407479 -0.4234349412
C   -3.3744438874 -3.5028737806  0.4857305176
C   -3.2246160484 -4.3128772392  1.6119568595
C   -4.1359367998 -5.3164898452  1.8828945613
C   -5.2070130597 -5.5361907665  1.0292435104
H   -5.9189978610 -6.3190010618  1.2426090367
C   -5.3508467437 -4.7531860097 -0.1028323905
C   -4.4434157015 -3.7451727727 -0.3759281238
Fe  -0.0021062469  0.0121789949  0.2392066053
C    3.3962312924 -3.3432657713 -1.0594082523
C    4.4869048963 -3.6811730047 -0.2611007587
C    3.2564667898 -3.9592180917 -2.3025784907
C    5.4137904220 -4.6093715421 -0.6999176811
C    4.1906013680 -4.8775671563 -2.7433822303
H    6.2514641755 -4.8724646005 -0.0699578182
C    5.2727700304 -5.2058180672 -1.9425372759
H    4.0737559862 -5.3373350238 -3.7143593824
H    6.0022608825 -5.9223756087 -2.2887672052
C   -3.3223459945  3.3121177092 -1.3081785865
C   -4.5416017032  3.6999784588 -0.7539087621
C   -2.9486398514  3.8495133811 -2.5434365314
C   -5.3714489908  4.5758782988 -1.4332088738
C   -3.7824965162  4.7163655010 -3.2226331248
H   -6.3151938679  4.8725871698 -0.9957189189
C   -5.0019637411  5.0777848718 -2.6722542090
H   -3.4809890583  5.1070015725 -4.1847738915
H   -5.6581652276  5.7526558795 -3.2025540864
H    5.8557603417  4.4275192848  2.4867072260
H    4.7858502201  6.1653005968 -1.2653912930
H   -4.0084794193 -5.9302417298  2.7620358087
H   -6.1708016833 -4.9290450352 -0.7820427925
H   -4.8228957297  3.3409667065  0.2258734988
H   -2.0005159397  3.5568993859 -2.9748591687
H    4.5898187006 -3.2290194150  0.7148275443
H    2.4164897319 -3.6946157509 -2.9297701455
H   -2.3938960608 -4.1378998189  2.2818846391
H   -4.5420059055 -3.1602477120 -1.2782293713
H    4.0934990585  2.7240846652  2.1960876956
H    3.0200050891  4.4713779217 -1.5457968110
Cl  -0.0082099118  0.0373163985  2.3787648727
78
aligned d3map frame 211
N   -0.0002782760  2.0456618296 -0.2329346107
N    2.0099894269  0.0192882883 -0.0815928939
C   -2.4173479878  2.3774655861 -0.5388180760
C   -1.0784168877  2.8269288020 -0.5202838378
C   -0.6662536407  4.1792692537 -0.6363373442
H   -1.3087193157  5.0083870284 -0.8617150123
C    0.6837014000  4.2068144734 -0.3783797558
H    1.3354340973  5.0593289250 -0.3618936939
C    1.0792467345  2.8687723189 -0.1338423651
C    2.3953009597  2.4344829172  0.1575120117
C    2.8086478388  1.1063815610  0.1485315509
C    4.1784340255  0.6855326103  0.1965932932
H    5.0127086520  1.3357638143  0.3773697148
C    4.1945518035 -0.6488311921 -0.0600635599
H    5.0487750338 -1.2954362146 -0.1322658191
C    2.8333264612 -1.0629339464 -0.2191609124
C    3.4262085853  3.4597495830  0.4321698292
C    3.8417225733  3.6708039546  1.7425960291
C    4.8369988964  4.5924205358  2.0192457627
C    5.4308335280  5.3060265841  0.9914662446
H    6.2168840235  6.0149561897  1.2057619713
C    5.0157694164  5.1044079916 -0.3145530687
C    4.0174456034  4.1879231019 -0.5947476000
N    0.0106331677 -2.0317273398 -0.1713626218
N   -2.0121372637 -0.0184270627 -0.0988860930
C    2.4264263220 -2.3690017030 -0.4904294484
C    1.0871632513 -2.8121487620 -0.4724557691
C    0.6730935456 -4.1615067697 -0.6096106019
H    1.3104887030 -4.9900763732 -0.8523020720
C   -0.6748399820 -4.1860059811 -0.3468900529
H   -1.3354729170 -5.0313735764 -0.3704276152
C   -1.0646450099 -2.8517209868 -0.0685596071
C   -2.3983426547 -2.4306933964  0.1925701523
C   -2.8214298385 -1.1004641706  0.1223366973
C   -4.1831940931 -0.6652040921  0.1674658042
H   -5.0312507772 -1.2822666208  0.3880537810
C   -4.1883899494  0.6645672395 -0.1174157322
H   -5.0388657223  1.3101446894 -0.2109039112
C   -2.8243119990  1.0706246555 -0.2637723871
C   -3.3621091704 -3.4951530809  0.4896426742
C   -3.0948178366 -4.3748860194  1.5417078486
C   -3.9781428691 -5.3897749457  1.8503308770
C   -5.1371791368 -5.5547257671  1.1083006128
H   -5.8244974760 -6.3530646918  1.3462618000
C   -5.4056107609 -4.6973887585  0.0546457972
C   -4.5275406455 -3.6744686953 -0.2524597403
Fe  -0.0021062469  0.0121789949  0.2392066053
C    3.4614960983 -3.3940438355 -0.7405091983
C    4.2260367437 -3.9080663627  0.3027654248
C    3.6609155943 -3.8771212491 -2.0294250813
C    5.1656484322 -4.8938078422  0.0611150688
C    4.6090808502 -4.8558086041 -2.2701805314
H    5.7463416469 -5.2959663027  0.8791032141
C    5.3588499198 -5.3704318403 -1.2255801144
H    4.7581019490 -5.2189888405 -3.2768197812
H    6.0911545823 -6.1433472879 -1.4099850857
C   -3.4716337740  3.3703711891 -0.8341190610
C   -4.3559281491  3.8040802611  0.1484519516
C   -3.6139409230  3.8581628395 -2.1310252150
C   -5.3694499708  4.6927414305 -0.1663383398
C   -4.6379867666  4.7344272364 -2.4459739170
H   -6.0497882570  5.0233500452  0.6050254880
C   -5.5208924306  5.1521527169 -1.4652368176
H   -4.7466867990  5.0864333419 -3.4636143130
H   -6.3268693143  5.8318150282 -1.7078704745
H    5.1505430432  4.7476154290  3.0416634123
H    5.4758001580  5.6577054272 -1.1222294546
H   -3.7644561861 -6.0576560815  2.6726994660
H   -6.3009773574 -4.8299691278 -0.5348548926
H   -4.2436221604  3.4463839880  1.1624074266
H   -2.9270323903  3.5253681221 -2.8962660317
H    4.0660075674 -3.5406792254  1.3063353254
H    3.0738354944 -3.4757290135 -2.8441049359
H   -2.1942714725 -4.2382964211  2.1216977564
H   -4.7219796605 -3.0300232809 -1.0985436957
H    3.3751379288  3.1138904733  2.5438543036
H    3.7009764857  4.0192109513 -1.6142122830
Cl   0.0514577479  0.0016834851  2.3768314832
78
aligned d3map frame 212
N   -0.0336167319  2.0538642402 -0.1809361520
N    2.0022486549  0.0162351032 -0.1300515856
C   -2.4171714557  2.4163644888  0.2640522403
C   -1.1064923433  2.8588184666  0.0440411019
C   -0.7112585409  4.2256065448 -0.1129738757
H   -1.3618168857  5.0712389290 -0.0040230188
C    0.6065982447  4.2228694193 -0.4539948797
H    1.2412929785  5.0628212978 -0.6594173779
C    1.0329691709  2.8542657215 -0.4614355242
C    2.3501999519  2.4238721563 -0.5916901069
C    2.7985731733  1.1004815804 -0.3654242365
C    4.1600541887  0.7107843284 -0.3184340663
H    5.0025039173  1.3570205382 -0.4692517072
C    4.1828873044 -0.6310789023 -0.0233759601
H    5.0454965013 -1.2555930531  0.1044398907
C    2.8332072403 -1.0545992245  0.0642471514
C    3.3597464693  3.4389603510 -0.9609526610
C    4.2441780523  3.9664628373 -0.0265433379
C    5.1638307139  4.9288688607 -0.4044392748
C    5.2239119825  5.3621094450 -1.7195434126
H    5.9437169728  6.1107985140 -2.0113040054
C    4.3517009517  4.8339954098 -2.6559322600
C    3.4196166083  3.8844354196 -2.2793925827
N    0.0154212778 -2.0402067928 -0.1139165034
N   -2.0023024949  0.0172705396 -0.1531784784
C    2.4136618682 -2.3901625653  0.2499442351
C    1.1005287355 -2.8381878541  0.0730830145
C    0.7155987787 -4.2067398715 -0.0907766626
H    1.3790003572 -5.0457958472 -0.0058746072
C   -0.6069615022 -4.2106890616 -0.4139398362
H   -1.2262832010 -5.0566088391 -0.6402912075
C   -1.0493947210 -2.8478642997 -0.3919886673
C   -2.3577594281 -2.4045589011 -0.5840117712
C   -2.7925812156 -1.0690600938 -0.3911182703
C   -4.1557312220 -0.6941734334 -0.2982372458
H   -4.9903986021 -1.3542967975 -0.4282506047
C   -4.1841036810  0.6401409482  0.0295465807
H   -5.0470460318  1.2506755521  0.2114042949
C   -2.8374361993  1.0779734217  0.0826370531
C   -3.3851644989 -3.3868973364 -0.9736149816
C   -3.7558058815 -4.4330613518 -0.1313364411
C   -4.7173411910 -5.3425451441 -0.5302611749
C   -5.3051368096 -5.2347924191 -1.7820841371
H   -6.0461422391 -5.9555252937 -2.0968425546
C   -4.9430815901 -4.1977096589 -2.6249878458
C   -4.0002082410 -3.2711022488 -2.2187078436
Fe  -0.0021062469  0.0121789949  0.2392066053
C    3.4237971952 -3.3943070648  0.6375321090
C    3.3685361397 -3.8985112196  1.9381129149
C    4.4209422965 -3.8418231878 -0.2210616247
C    4.3038492450 -4.8183646061  2.3698262410
C    5.3417340720 -4.7807539887  0.2103271983
H    4.2660675757 -5.1886629900  3.3838549629
C    5.2886246613 -5.2691295378  1.5053871795
H    6.1083064163 -5.1293423594 -0.4681052367
H    6.0267617245 -5.9861045493  1.8463559368
C   -3.4075865145  3.4293567998  0.6627066589
C   -4.5122261265  3.7465548989 -0.1234910314
C   -3.2301238420  4.0947040396  1.8751720426
C   -5.4210358807  4.6987093229  0.3005118765
C   -4.1481383072  5.0360862950  2.3010246900
H   -6.2716612404  4.9420868965 -0.3199946299
C   -5.2476533058  5.3415434121  1.5155787839
H   -4.0048117649  5.5321303758  3.2495641429
H   -5.9622323191  6.0797892345  1.8478514217
H    5.8369906000  5.3431382422  0.3323643865
H    4.3962167334  5.1633114659 -3.6842993698
H   -5.0083101471 -6.1426188337  0.1347554400
H   -5.3949005183 -4.1095375927 -3.6020627960
H   -4.6419736725  3.2630344209 -1.0802655265
H   -2.3770708577  3.8471116343  2.4891422644
H    2.5962017165 -3.5435325882  2.6052705365
H    4.4551546580 -3.4711848223 -1.2343068167
H   -3.3040058835 -4.5080431517  0.8483980742
H   -3.7122824350 -2.4638334302 -2.8755614220
H    4.1960419067  3.6301482193  0.9990982903
H    2.7371971866  3.4734947491 -3.0088793822
Cl  -0.0049090079  0.0566811148  2.3775705061
78
aligned d3map frame 213
N    0.0089700843  2.0453181942 -0.2375093196
N    2.0014845804  0.0232075828 -0.1118800134
C   -2.3801552834  2.3545102369 -0.6937659546
C   -1.0788904687  2.8158772731 -0.5086484406
C   -0.7091970447  4.2015851978 -0.4200433978
H   -1.3761470435  5.0248446813 -0.5885526442
C    0.5895364148  4.2418355267 -0.0291706016
H    1.1794021319  5.1101901178  0.1878489475
C    1.0531530724  2.8840782410  0.0373686966
C    2.3599712974  2.4582254008  0.2560613130
C    2.7965386763  1.1180040671  0.0196137820
C    4.1317492029  0.7739166091 -0.2851605720
H    4.9684766675  1.4431249996 -0.2824601668
C    4.1325619214 -0.5582835542 -0.6305021025
H    4.9695913761 -1.1428415548 -0.9564123682
C    2.8029305168 -1.0184974919 -0.4900898222
C    3.4294179560  3.3883553599  0.6393102424
C    4.1958500738  3.0789567824  1.7653378869
C    5.2610447156  3.8772890274  2.1341169065
C    5.5929682606  4.9868559769  1.3730959362
H    6.4424899929  5.5971898894  1.6445312409
C    4.8416071397  5.3015444116  0.2530002258
C    3.7605801580  4.5161490430 -0.1088809168
N    0.0085254443 -2.0298862453 -0.1760908424
N   -2.0039724151 -0.0259874210 -0.1276054336
C    2.3812129005 -2.3599092606 -0.6770014222
C    1.0824970707 -2.8150349749 -0.4494038459
C    0.6964735203 -4.1949698555 -0.3511983182
H    1.3523144545 -5.0284266534 -0.5134340766
C   -0.6074128725 -4.2168719047  0.0244104834
H   -1.2278118826 -5.0742002426  0.2145066562
C   -1.0438908442 -2.8515729412  0.1066210940
C   -2.3575083776 -2.4365660328  0.2901728463
C   -2.8097087508 -1.1069396604  0.0738456796
C   -4.1614481923 -0.7265364440 -0.0816064500
H   -5.0112879925 -1.3665366157  0.0450661749
C   -4.1632271393  0.6019551422 -0.4385917761
H   -5.0150716873  1.2117093450 -0.6662785068
C   -2.8141196968  1.0276667468 -0.4436709370
C   -3.3576359491 -3.4774486426  0.6014287069
C   -3.3708959729 -4.0642559416  1.8638691305
C   -4.2796728700 -5.0654270043  2.1555351278
C   -5.1755173896 -5.4981104675  1.1918455258
H   -5.8740504414 -6.2906581969  1.4192579787
C   -5.1672063991 -4.9178900282 -0.0646642997
C   -4.2674375302 -3.9095933261 -0.3585062254
Fe  -0.0021062469  0.0121789949  0.2392066053
C    3.3880258586 -3.3382769975 -1.1164352785
C    3.2005878078 -4.0115446712 -2.3237962343
C    4.5399749066 -3.5938993597 -0.3768679157
C    4.1571963102 -4.8912363381 -2.7942593011
C    5.4884983317 -4.4845275370 -0.8449496670
H    4.0077330872 -5.3921457297 -3.7395725331
C    5.3066787742 -5.1275522168 -2.0582635144
H    6.3767461613 -4.6767516677 -0.2612838783
H    6.0559478133 -5.8111500465 -2.4282520888
C   -3.4082444238  3.3068740876 -1.1627273580
C   -3.3708219832  3.7376663246 -2.4872515136
C   -4.4488695961  3.7328120242 -0.3438291122
C   -4.3769404193  4.5409621682 -2.9937104041
C   -5.4471454414  4.5478285088 -0.8510130163
H   -4.3476336586  4.8454456734 -4.0293088066
C   -5.4232536181  4.9408059243 -2.1792621062
H   -6.2560062526  4.8661381146 -0.2099170303
H   -6.2176687140  5.5532790800 -2.5788580662
H    5.8433066335  3.6276241657  3.0090455721
H    5.1108878394  6.1555424272 -0.3532003084
H   -4.2878598831 -5.5163400920  3.1369038953
H   -5.8592473480 -5.2538348071 -0.8222254571
H   -2.5619257389  3.4129984586 -3.1250414850
H   -4.4705608904  3.4177596729  0.6957098535
H    2.3098770715 -3.8148982086 -2.9011118006
H    4.6774898104 -3.1024902409  0.5750377056
H   -2.6709752054 -3.7240324642  2.6127459700
H   -4.2479815324 -3.4652371022 -1.3426807467
H    3.9435525956  2.2055978432  2.3497831444
H    3.1981797837  4.7449274137 -1.0027350300
Cl  -0.0141844264 -0.0160136944  2.3759843342
78
aligned d3map frame 214
N   -0.0091781456  2.0503853010 -0.2138261479
N    2.0042929388  0.0220455619 -0.1264391767
C   -2.4091843993  2.3677386193 -0.6325472205
C   -1.0662222476  2.8116499116 -0.6221947035
C   -0.6091777620  4.1167810448 -0.9428433234
H   -1.2015610488  4.9028115426 -1.3597867058
C    0.7356510554  4.1492557910 -0.6511523272
H    1.4157829022  4.9741555810 -0.7571686618
C    1.0872585717  2.8529243504 -0.2090389659
C    2.4092925971  2.4283908739  0.0991542302
C    2.8195348539  1.1054267569  0.0851147128
C    4.1881014230  0.6702400889  0.1049472262
H    5.0302762447  1.3116209154  0.2776367638
C    4.1836341523 -0.6595041961 -0.1666590892
H    5.0259341132 -1.3191996420 -0.2560917684
C    2.8144987348 -1.0614355886 -0.2995079212
C    3.4216049400  3.4818189047  0.3443455208
C    3.5964055177  3.9606179049  1.6389324346
C    4.5360102216  4.9421595165  1.8975185399
C    5.3065833387  5.4575972143  0.8676847930
H    6.0367660733  6.2273111756  1.0690845727
C    5.1353808364  4.9844622442 -0.4216589280
C    4.1988246137  3.9997258459 -0.6855335986
N   -0.0060908046 -2.0345901717 -0.1519590111
N   -2.0040552445 -0.0236975412 -0.1483035267
C    2.3958596455 -2.3644128809 -0.5677859553
C    1.0597144136 -2.8066729223 -0.5128459987
C    0.6277638761 -4.1404069152 -0.7280011351
H    1.2576364462 -4.9504056525 -1.0422519956
C   -0.7197378974 -4.1675264849 -0.4565869963
H   -1.3862382351 -5.0038238208 -0.5264610284
C   -1.0894332115 -2.8489423280 -0.0927661017
C   -2.4152445655 -2.4203652534  0.2094372324
C   -2.8136490800 -1.0868783055  0.1815456517
C   -4.1513677450 -0.6135207272  0.3740359658
H   -4.9788104274 -1.2028367300  0.7150898477
C   -4.1536698448  0.7091931938  0.0624099752
H   -4.9833728061  1.3881416784  0.1018185045
C   -2.8084062919  1.0697542699 -0.2706503228
C   -3.4036240145 -3.4675000670  0.4843586823
C   -3.1397913013 -4.4275684429  1.4653812764
C   -4.0680252209 -5.4075609126  1.7570742079
C   -5.2665451971 -5.4628044688  1.0628249940
H   -5.9906697941 -6.2275737244  1.2886784761
C   -5.5268745917 -4.5357970803  0.0666131970
C   -4.6042077555 -3.5469866032 -0.2221651369
Fe  -0.0021062469  0.0121789949  0.2392066053
C    3.4192244231 -3.3675588535 -0.9448802745
C    3.7412820873 -3.5322367988 -2.2877184186
C    4.0466994053 -4.1620244585  0.0077102999
C    4.6732831259 -4.4787443869 -2.6737518287
C    4.9823013030 -5.1059731763 -0.3809241915
H    4.9125459404 -4.5996260949 -3.7202483536
C    5.2951468728 -5.2680408038 -1.7200716854
H    5.4654751808 -5.7193045871  0.3657067478
H    6.0212363729 -6.0086399029 -2.0227464434
C   -3.4702536170  3.3064265137 -1.0114585930
C   -4.4128101622  2.9212826833 -1.9698148443
C   -3.5807779863  4.5765445973 -0.4430516597
C   -5.4255716726  3.7799379261 -2.3497882032
C   -4.5953741727  5.4332468798 -0.8266045827
H   -6.1461149094  3.4660008544 -3.0910349773
C   -5.5202009050  5.0424895064 -1.7819994723
H   -4.6721012637  6.4137210764 -0.3697296717
H   -6.3125573765  5.7164504834 -2.0748108559
H    4.6666852044  5.3084339658  2.9054349718
H    5.7340498060  5.3845898454 -1.2280700920
H   -3.8548149894 -6.1316206476  2.5288596652
H   -6.4524904036 -4.5824616124 -0.4907144363
H   -4.3324637644  1.9430597024 -2.4214540713
H   -2.8897344094  4.8732760976  0.3323200953
H    3.2514081286 -2.9153873560 -3.0272013763
H    3.7959963722 -4.0359705438  1.0509818338
H   -2.2103619981 -4.3748781404  2.0160546846
H   -4.8003084697 -2.8427433886 -1.0195059956
H    2.9932727504  3.5531986871  2.4371643092
H    4.0642781579  3.6274936965 -1.6904020229
Cl  -0.0069039243  0.0164316776  2.3785901144
78
aligned d3map frame 215
N   -0.0202096648  2.0641955606 -0.1577138579
N    2.0036146877  0.0014364658 -0.1341731840
C   -2.4323124789  2.4508798849 -0.0303997505
C   -1.1118156994  2.8753758659  0.0000250876
C   -0.6701301176  4.2378523596  0.1338890605
H   -1.3137337640  5.0750100230  0.3199125733
C    0.6778553970  4.2363454908 -0.0111341385
H    1.3479612043  5.0725986799  0.0160205325
C    1.0800878426  2.8676684449 -0.1837681402
C    2.3862484284  2.4337681841 -0.4047862690
C    2.7967930156  1.0808943089 -0.4200019756
C    4.1386398682  0.6569255233 -0.5810701679
H    4.9677164392  1.2936467017 -0.8180153297
C    4.1573815898 -0.7006755268 -0.3605164561
H    4.9975993950 -1.3663692660 -0.3980450907
C    2.8275606877 -1.0838118381 -0.0822542372
C    3.4382885819  3.4459396116 -0.6232529540
C    3.8745145753  4.2735676311  0.4072155497
C    4.8768759944  5.2005208437  0.1864855509
C    5.4571441146  5.3157317101 -1.0655553826
H    6.2406608590  6.0386977642 -1.2356234536
C    5.0294458312  4.4962497897 -2.0974508153
C    4.0297833142  3.5665898394 -1.8781634174
N    0.0283417942 -2.0477220848 -0.0945254463
N   -2.0033529826  0.0018475736 -0.1520560472
C    2.4244039490 -2.4221633142  0.1799877636
C    1.1108802916 -2.8500577892  0.1446514947
C    0.6768829251 -4.2160246883  0.2547199759
H    1.3237500881 -5.0462764007  0.4598810906
C   -0.6605399746 -4.2248609446  0.0353547071
H   -1.3314482221 -5.0611723298  0.0301152393
C   -1.0588381287 -2.8594237770 -0.1696141455
C   -2.3602143891 -2.4369159164 -0.4166160948
C   -2.7759634608 -1.0909201422 -0.4539383290
C   -4.0941115329 -0.6784640781 -0.7574680983
H   -4.8965907271 -1.3298569815 -1.0415245102
C   -4.1212632476  0.6915556242 -0.6177830022
H   -4.9546487023  1.3431766567 -0.7907840844
C   -2.8217940934  1.0895751535 -0.2342654193
C   -3.3642051316 -3.4909782137 -0.6850591313
C   -4.1076937008 -4.0623597447  0.3396692330
C   -4.9954078076 -5.0889043394  0.0649959742
C   -5.1528185710 -5.5440109502 -1.2329482533
H   -5.8415947619 -6.3485823983 -1.4446844596
C   -4.4232640510 -4.9682096295 -2.2607026519
C   -3.5286972501 -3.9499531769 -1.9885140457
Fe  -0.0021062469  0.0121789949  0.2392066053
C    3.4679524951 -3.4291371893  0.4734174114
C    3.9378670478 -3.5593192068  1.7750769348
C    3.9446936459 -4.2865143766 -0.5135055566
C    4.8614892320 -4.5408861732  2.0897675657
C    4.8740660363 -5.2602977222 -0.1958186670
H    5.2076927007 -4.6429517225  3.1082268969
C    5.3300190151 -5.3945759684  1.1059256277
H    5.2387042511 -5.9262062444 -0.9640170061
H    6.0450877654 -6.1650297923  1.3543872957
C   -3.5283324483  3.4237991339  0.0591518728
C   -4.5374022983  3.2331324646  1.0063338054
C   -3.6223740770  4.5095497094 -0.8106474120
C   -5.6066336396  4.1045358131  1.0809529442
C   -4.7046777054  5.3695957438 -0.7437356344
H   -6.3766309151  3.9502380336  1.8219677742
C   -5.6994999577  5.1706855531  0.1992765757
H   -4.7750006241  6.1927273022 -1.4390565631
H   -6.5459334264  5.8412984022  0.2402010364
H    5.2093584083  5.8299525737  0.9990164966
H    5.4833338685  4.5743859073 -3.0719750738
H   -5.5606433808 -5.5384863150  0.8677670320
H   -4.5465752192 -5.3180106947 -3.2749231785
H   -4.4656491907  2.4009024637  1.6896182212
H   -2.8625554141  4.6514184575 -1.5647972764
H    3.5584991724 -2.8969226557  2.5392783725
H    3.5808817149 -4.1858725906 -1.5256456237
H   -3.9774728406 -3.7052254965  1.3502956722
H   -2.9464900570 -3.5026832470 -2.7808878898
H    3.4381525495  4.1681379639  1.3885829801
H    3.6938995168  2.9314465966 -2.6842590502
Cl   0.0558917307  0.0209331919  2.3813536194
78
aligned d3map frame 216
N    0.0065836677  2.0475613741 -0.2247196010
N    2.0023072720  0.0167263410 -0.1245188366
C   -2.3995738919  2.3575438623 -0.6086646298
C   -1.0681233201  2.8220094526 -0.5551512399
C   -0.6400888518  4.1655458966 -0.7221921324
H   -1.2607688476  4.9850751087 -1.0277393859
C    0.6984016231  4.1995108848 -0.4136679320
H    1.3439716475  5.0557514177 -0.4052693262
C    1.0830969523  2.8672895892 -0.1208293964
C    2.3992323858  2.4254951183  0.1808924817
C    2.8110232045  1.0978970555  0.0872160127
C    4.1802975285  0.6930209450 -0.0382692676
H    5.0252700636  1.3429020205  0.0771050445
C    4.1756504528 -0.6191643486 -0.3931508352
H    5.0205240036 -1.2434790292 -0.6134009633
C    2.8075898284 -1.0468920949 -0.4168115829
C    3.3932928432  3.4424355702  0.5746902745
C    3.7906168912  3.4846297949  1.9104636957
C    4.6725351386  4.4564740542  2.3454413056
C    5.1787987484  5.3884742964  1.4534318307
H    5.8640112700  6.1503966471  1.7951959881
C    4.8049055456  5.3350109289  0.1203019432
C    3.9149625492  4.3692869482 -0.3201293080
N   -0.0014317155 -2.0282326783 -0.1656514158
N   -2.0039431147 -0.0402272959 -0.1424714195
C    2.3772794539 -2.3442616356 -0.7039802727
C    1.0488573780 -2.8012323979 -0.5672337613
C    0.6213825311 -4.1484392844 -0.6765260321
H    1.2375705236 -4.9729133698 -0.9785850253
C   -0.7011651892 -4.1769098471 -0.2978576438
H   -1.3555948059 -5.0260990511 -0.2646616656
C   -1.0653697957 -2.8448819638  0.0162773512
C   -2.3813476320 -2.4098822803  0.3683823364
C   -2.8098200550 -1.0897020935  0.2297189522
C   -4.1567300887 -0.6173927539  0.3580477973
H   -4.9910051692 -1.1943906740  0.7051701430
C   -4.1624107194  0.6871316403 -0.0244616306
H   -4.9984586413  1.3572655344 -0.0658649532
C   -2.8072059692  1.0497459131 -0.3163904904
C   -3.2946838812 -3.4493404801  0.8499372803
C   -2.8738041264 -4.2716536888  1.9021761086
C   -3.7088405443 -5.2445775570  2.4132060476
C   -4.9765983036 -5.4272540355  1.8802434828
H   -5.6271733293 -6.1886024836  2.2850230296
C   -5.3944361665 -4.6382006856  0.8202158664
C   -4.5615473826 -3.6607084531  0.3056613667
Fe  -0.0021062469  0.0121789949  0.2392066053
C    3.3828828361 -3.3372484618 -1.1313907027
C    3.3842625714 -3.7965056993 -2.4469157537
C    4.3298153133 -3.8315749296 -0.2401572344
C    4.3253281253 -4.7178394691 -2.8647647323
C    5.2563642025 -4.7723931450 -0.6552221258
H    4.3307566953 -5.0549349985 -3.8903357880
C    5.2597348547 -5.2142031405 -1.9670047102
H    5.9745523280 -5.1593981468  0.0529475741
H    5.9876784975 -5.9426827129 -2.2919262113
C   -3.4523244477  3.3470626838 -0.8926786100
C   -4.2904384610  3.1745984784 -1.9951845544
C   -3.6218043769  4.4699069071 -0.0853982241
C   -5.2608119568  4.1137274695 -2.2885848570
C   -4.6072821111  5.3967834037 -0.3698621788
H   -5.8919578065  3.9811275835 -3.1566590244
C   -5.4240644242  5.2257457997 -1.4770037476
H   -4.7372557683  6.2552382975  0.2741799383
H   -6.1862252271  5.9561172123 -1.7035726306
H    4.9664367065  4.4901264503  3.3864421241
H    5.2083366751  6.0501456538 -0.5820507156
H   -3.3699105875 -5.8635651109  3.2320583799
H   -6.3733731877 -4.7903200102  0.3879784077
H   -4.1587329102  2.3091215000 -2.6287219746
H   -2.9890244527  4.5917087330  0.7824003353
H    2.6500778461 -3.4133861287 -3.1412438458
H    4.3256582237 -3.4855664612  0.7828519336
H   -1.8934108063 -4.1174707488  2.3296824065
H   -4.8772802767 -3.0858489044 -0.5533617164
H    3.3842410207  2.7667643336  2.6041158885
H    3.6291076636  4.3188786351 -1.3612575482
Cl  -0.0136784155  0.0788881381  2.3778451127
78
aligned d3map frame 217
N   -0.0021506291  2.0355645143 -0.2717005556
N    2.0051952814  0.0405250600 -0.1124833585
C   -2.3779613340  2.3352948953 -0.8116668857
C   -1.0695410769  2.8005380140 -0.6256041230
C   -0.6683907379  4.1749902447 -0.6707937005
H   -1.3022244053  4.9971955492 -0.9334373500
C    0.6425934919  4.2214001679 -0.3047001377
H    1.2747695350  5.0855540033 -0.2344474936
C    1.0558260795  2.8713508576 -0.0654059289
C    2.3699874111  2.4661186277  0.1890544876
C    2.8141974479  1.1252748241  0.0868412962
C    4.1686027802  0.7221482417  0.0113598805
H    5.0207762734  1.3449985890  0.1836272742
C    4.1706705375 -0.6090037385 -0.3273350850
H    5.0244421434 -1.2293587503 -0.5103811519
C    2.8189906267 -1.0251217472 -0.3816448563
C    3.3598657816  3.5269057474  0.4384092573
C    3.2125290943  4.3612511608  1.5467597881
C    4.1313999926  5.3651280267  1.7942365231
C    5.1997120570  5.5636818589  0.9357617782
H    5.9127286369  6.3512598045  1.1289587675
C    5.3428503199  4.7505468997 -0.1775561639
C    4.4314526999  3.7408348413 -0.4259256752
N   -0.0083193468 -2.0244543353 -0.2068629969
N   -2.0036957781 -0.0144089241 -0.1330682820
C    2.3835427431 -2.3386989761 -0.6696108079
C    1.0699364175 -2.7940458348 -0.5056526801
C    0.6900296384 -4.1746283880 -0.4775194368
H    1.3496496950 -4.9975979699 -0.6725340923
C   -0.6202652744 -4.2193944227 -0.1098782038
H   -1.2279414842 -5.0881264514  0.0504729607
C   -1.0620492798 -2.8647368530  0.0194006629
C   -2.3738602199 -2.4393284131  0.2397902219
C   -2.8048786116 -1.1041817517  0.0421826383
C   -4.1488752657 -0.7563938188 -0.2408079915
H   -4.9866425694 -1.4240853109 -0.1952949593
C   -4.1437593151  0.5544195053 -0.6427145179
H   -4.9790563136  1.1250158992 -0.9936301353
C   -2.8046471621  1.0143142863 -0.5401849498
C   -3.4111768335 -3.4233030679  0.5855327810
C   -4.0674604498 -3.2956703638  1.8095036849
C   -5.0332534731 -4.2081035776  2.1837129194
C   -5.3767027424 -5.2460145745  1.3328357543
H   -6.1350846877 -5.9543991398  1.6234199543
C   -4.7461174620 -5.3672098511  0.1062496587
C   -3.7650541735 -4.4664157049 -0.2646494810
Fe  -0.0021062469  0.0121789949  0.2392066053
C    3.3656296830 -3.2878489739 -1.2234862889
C    3.1673389351 -3.7449662382 -2.5248492252
C    4.4978373736 -3.7076247254 -0.5317651052
C    4.0999949898 -4.5627288634 -3.1326005142
C    5.4216471862 -4.5404882193 -1.1379642140
H    3.9469641168 -4.8878447331 -4.1493599855
C    5.2358415682 -4.9560618629 -2.4444397144
H    6.2939754151 -4.8622284630 -0.5886273306
H    5.9691038897 -5.5884527541 -2.9225348211
C   -3.3771619465  3.3014966251 -1.2904150018
C   -3.1797610737  3.9473147262 -2.5105689843
C   -4.5293690445  3.5875412619 -0.5588369851
C   -4.1171262289  4.8386190283 -2.9949374119
C   -5.4610430721  4.4856989949 -1.0428660538
H   -3.9554886162  5.3228324272 -3.9461117797
C   -5.2626918383  5.1082862455 -2.2647733896
H   -6.3496851691  4.7021659004 -0.4671434277
H   -5.9966369557  5.8015009978 -2.6447869698
H    4.0067450754  6.0003526571  2.6585338402
H    6.1654131896  4.9100768092 -0.8595109672
H   -5.5217263238 -4.1067078218  3.1419592577
H   -5.0219961697 -6.1654300847 -0.5663738628
H   -2.2923067556  3.7252037702 -3.0855922344
H   -4.6738440662  3.1188476321  0.4031903333
H    2.2850494835 -3.4271415898 -3.0614577865
H    4.6409480609 -3.3883687842  0.4893520883
H   -3.7932075174 -2.4857155580  2.4689095823
H   -3.2908495403 -4.5503731942 -1.2314804442
H    2.3832111716  4.2025331779  2.2205519696
H    4.5310884603  3.1301128335 -1.3107903827
Cl  -0.0143799860  0.0945330192  2.3781584353
78
aligned d3map frame 218
N    0.0099118792  2.0457540397 -0.2358004176
N    1.9958301828  0.0408337630 -0.1297817336
C   -2.3697405165  2.3514776322 -0.7693778326
C   -1.0880758212  2.8159534237 -0.4399702292
C   -0.7644805171  4.1860526580 -0.1620605989
H   -1.4523809419  5.0070666184 -0.2196233747
C    0.5284675569  4.2149686651  0.2517654989
H    1.0831423878  5.0638686877  0.5983179413
C    1.0325199872  2.8722644315  0.1528401927
C    2.3439747425  2.4540023251  0.3387560007
C    2.7899346789  1.1288300526  0.0181877148
C    4.1230629130  0.7958013212 -0.3149443466
H    4.9560353836  1.4711180945 -0.2967312692
C    4.1215319321 -0.5291183950 -0.6866232919
H    4.9578107578 -1.1242754641 -0.9971042282
C    2.7885984448 -0.9921930303 -0.5522723246
C    3.3719719729  3.3802160510  0.8174861717
C    4.1644417917  2.9922890283  1.9022093503
C    5.1270434831  3.8422032275  2.4084297013
C    5.3322012782  5.0861578432  1.8313915360
H    6.0869047891  5.7498548473  2.2255241314
C    4.5707092522  5.4699506372  0.7399029514
C    3.5973397040  4.6274343462  0.2355619913
N    0.0107520154 -2.0340326491 -0.1694111910
N   -1.9983224351 -0.0070130364 -0.1448293219
C    2.3855429891 -2.3391645002 -0.6736727819
C    1.1132928098 -2.8148728879 -0.3346647487
C    0.7677120550 -4.1817365015 -0.0715492002
H    1.4396889460 -5.0138264652 -0.1360167229
C   -0.5320649260 -4.1987499671  0.3201523826
H   -1.1032139162 -5.0474181298  0.6477618737
C   -1.0248702966 -2.8530157718  0.1965813319
C   -2.3395814419 -2.4253900134  0.3373297509
C   -2.7753530127 -1.1116958278 -0.0498193792
C   -4.0786380783 -0.8222312876 -0.5085878217
H   -4.8901651512 -1.5216442034 -0.5609950131
C   -4.0771205069  0.4983480628 -0.9025476511
H   -4.8883779811  1.0437362397 -1.3418601374
C   -2.7824173900  1.0064273951 -0.6360646299
C   -3.3827279783 -3.3073330540  0.8647312569
C   -4.1594654319 -2.8279833475  1.9253338873
C   -5.1316332357 -3.6199732318  2.5013702746
C   -5.3675966044 -4.8965775751  2.0145907968
H   -6.1307467847 -5.5159477356  2.4616211453
C   -4.6254122133 -5.3712564601  0.9446964997
C   -3.6386590316 -4.5877012346  0.3737446146
Fe  -0.0021062469  0.0121789949  0.2392066053
C    3.3883803967 -3.2833768390 -1.2038884825
C    3.9580982117 -4.2954046557 -0.4400916415
C    3.7770326422 -3.1422618472 -2.5358297175
C    4.8860028203 -5.1556190135 -1.0016751105
C    4.6935628558 -4.0116379756 -3.0969784577
H    5.3298130843 -5.9318029579 -0.3967859535
C    5.2507186497 -5.0225377713 -2.3311617987
H    4.9753715654 -3.8968890098 -4.1337987868
H    5.9703328375 -5.6965349721 -2.7710729319
C   -3.3382816650  3.3406092116 -1.2615489252
C   -4.5959216620  3.5082623889 -0.6839356953
C   -2.9968848610  4.1273857809 -2.3636650262
C   -5.4954622695  4.4151848605 -1.2145184184
C   -3.9026290734  5.0250027504 -2.8967419230
H   -6.4667913757  4.5364343120 -0.7574100368
C   -5.1583883957  5.1672111490 -2.3293884804
H   -3.6298044151  5.6128271585 -3.7616215501
H   -5.8707574886  5.8620546189 -2.7503967913
H    5.7190400322  3.5367454832  3.2586679250
H    4.7416559834  6.4294434675  0.2728348600
H   -5.7073148320 -3.2406529562  3.3325001762
H   -4.8216313414 -6.3580797900  0.5504924006
H   -4.8522418039  2.9384142478  0.1971985734
H   -2.0241017935  4.0040526850 -2.8161898885
H    3.6911680631 -4.3919775203  0.6023924873
H    3.3412840312 -2.3509754700 -3.1284928860
H   -3.9655632804 -1.8356029713  2.3065950317
H   -3.0893318042 -4.9518310838 -0.4838354863
H    3.9956312692  2.0269092024  2.3568796392
H    3.0360526602  4.9138487346 -0.6397618232
Cl  -0.0115308206  0.0325460427  2.3789331812
78
aligned d3map frame 219
N   -0.0336608196  2.0509216066 -0.2242686106
N    2.0128698469  0.0060060332 -0.0751242677
C   -2.4536985943  2.4479766873 -0.0385603015
C   -1.1215991353  2.8704861068 -0.2024551144
C   -0.7118539059  4.2229510226 -0.3932377854
H   -1.3671577623  5.0720449094 -0.4083173607
C    0.6439257556  4.2046975907 -0.5581275413
H    1.3007417309  5.0353029013 -0.7231397108
C    1.0558706244  2.8457863107 -0.4327758098
C    2.3904106092  2.4234542205 -0.4049807310
C    2.8153939169  1.1097109697 -0.1580410359
C    4.1785876144  0.7242865672 -0.0185206397
H    5.0180418118  1.3891035389 -0.0388813553
C    4.1934906966 -0.6304527337  0.1427037709
H    5.0455691216 -1.2576705704  0.3162907373
C    2.8430810864 -1.0756660179  0.0524183266
C    3.4338504403  3.4272227188 -0.6947987706
C    4.3126415456  3.8729684206  0.2875969079
C    5.3032535842  4.7854656010 -0.0260722974
C    5.4362134798  5.2536738345 -1.3243157960
H    6.2182523274  5.9573788324 -1.5698465876
C    4.5639007696  4.8156051575 -2.3059696724
C    3.5631986109  3.9137311110 -1.9933344612
N    0.0327758505 -2.0376157103 -0.1579216862
N   -2.0135441318  0.0247629426 -0.0952588455
C    2.4579517203 -2.4246849633 -0.0176282427
C    1.1227244452 -2.8525462539 -0.1646508591
C    0.7218607278 -4.1880906051 -0.4601432517
H    1.3798285540 -5.0281454160 -0.5536842411
C   -0.6337835425 -4.1674427829 -0.6323703075
H   -1.2817266012 -4.9880169035 -0.8739058776
C   -1.0521700235 -2.8217732415 -0.4327868887
C   -2.3790759881 -2.3832617576 -0.5006870306
C   -2.8100859346 -1.0683175360 -0.2821157278
C   -4.1802581198 -0.6791509579 -0.2461036180
H   -5.0114228255 -1.3437400734 -0.3571951989
C   -4.2058252772  0.6683536062 -0.0475618223
H   -5.0628815748  1.3086572483  0.0248498479
C   -2.8485258744  1.1038337959  0.0114776800
C   -3.4105811635 -3.3717079087 -0.8906566334
C   -3.9389986598 -4.2756101919  0.0238965518
C   -4.9061634505 -5.1816884689 -0.3752262468
C   -5.3428165115 -5.2045019952 -1.6892244694
H   -6.0928055862 -5.9173189695 -1.9979267803
C   -4.8129209965 -4.3109278825 -2.6051982861
C   -3.8588668311 -3.3929415884 -2.2071829400
Fe  -0.0021062469  0.0121789949  0.2392066053
C    3.5195354139 -3.4374053373 -0.0884356056
C    3.5477562706 -4.5214104552  0.7890253093
C    4.5221022036 -3.3354253657 -1.0545410853
C    4.5576415588 -5.4619645562  0.7123066476
C    5.5265218343 -4.2798109247 -1.1315439023
H    4.5725077145 -6.2900807642  1.4058079209
C    5.5514589536 -5.3457479479 -0.2461151842
H    6.2936265008 -4.1872223525 -1.8866127741
H    6.3408499549 -6.0801338221 -0.3042649771
C   -3.5205348393  3.4643510536 -0.1120204974
C   -4.3475492399  3.7362970618  0.9717295517
C   -3.7386963823  4.1389568360 -1.3134490649
C   -5.3701250819  4.6632067269  0.8571165446
C   -4.7692533435  5.0523379807 -1.4285801548
H   -6.0003623675  4.8706485098  1.7098308907
C   -5.5884183008  5.3184317462 -0.3439483064
H   -4.9366544307  5.5536336943 -2.3713078528
H   -6.3945980823  6.0308350446 -0.4372618734
H    5.9828415474  5.1312249906  0.7400503745
H    4.6631466017  5.1721024544 -3.3217900099
H   -5.3206035284 -5.8736551870  0.3437054603
H   -5.1427129623 -4.3281222063 -3.6328980686
H   -4.1824596802  3.2249390904  1.9085903308
H   -3.1081814855  3.9213397300 -2.1634159129
H    2.7844490705 -4.6040191996  1.5490245166
H    4.4916599455 -2.5186857804 -1.7610322344
H   -3.5936062068 -4.2594737161  1.0468282059
H   -3.4474085571 -2.6891728030 -2.9160871016
H    4.2069003478  3.5057065145  1.2980833462
H    2.8855648299  3.5609385667 -2.7566913146
Cl  -0.0171783603  0.0506714375  2.3785412208
78
aligned d3map frame 220
N   -0.0498920882  2.0493482152 -0.2169227078
N    2.0041240877 -0.0046818006 -0.1088359434
C   -2.4018808984  2.4218831379  0.3136100230
C   -1.0913787119  2.8626079978  0.1354834752
C   -0.6150191596  4.2136050075  0.2270250415
H   -1.1824030268  5.0617316897  0.5548583133
C    0.6879553437  4.2035694105 -0.1574869516
H    1.3642179247  5.0338622691 -0.2182381793
C    1.0439937517  2.8358458732 -0.3984439287
C    2.3520091672  2.3959318533 -0.6183102915
C    2.7979699464  1.0674813040 -0.4213226453
C    4.1502019324  0.6538578895 -0.4563469488
H    4.9932173803  1.2690446016 -0.6987212537
C    4.1703900375 -0.6796069407 -0.1157991209
H    5.0357995742 -1.3007812085 -0.0018854545
C    2.8266460198 -1.0803913628  0.0577478343
C    3.3262498319  3.4071782126 -1.0623437657
C    4.4595165524  3.7460657442 -0.3281572349
C    5.3551183011  4.6813048608 -0.8153830119
C    5.1406335017  5.2834966994 -2.0438357484
H    5.8502571928  6.0016324779 -2.4266327210
C    4.0093382349  4.9635191598 -2.7754858082
C    3.1039039585  4.0425313919 -2.2838695978
N    0.0140296234 -2.0336522206 -0.1535871234
N   -2.0018564185  0.0115560787 -0.1353834033
C    2.3905220689 -2.4204569061  0.2798364645
C    1.0750198666 -2.8442725790  0.1019157540
C    0.6564371427 -4.2156956371 -0.0195508223
H    1.2913813404 -5.0670085157  0.1234152487
C   -0.6499478645 -4.2027191015 -0.3817771112
H   -1.2937958398 -5.0390269657 -0.5769000502
C   -1.0575344394 -2.8273416261 -0.4342591917
C   -2.3536050674 -2.3800388510 -0.6667702867
C   -2.7873253774 -1.0459364252 -0.5163200240
C   -4.1279914186 -0.6142255963 -0.6398048647
H   -4.9540222355 -1.2284829325 -0.9433422430
C   -4.1499538080  0.7189089960 -0.2955010965
H   -4.9984148401  1.3730512815 -0.2842700259
C   -2.8192776849  1.0847307972  0.0115368605
C   -3.3751726798 -3.3940650491 -1.0194562010
C   -4.1034102099 -4.0335425185 -0.0236280390
C   -5.0474206508 -4.9899106999 -0.3544362712
C   -5.2727653989 -5.3156500306 -1.6798808315
H   -6.0087295427 -6.0624759285 -1.9382011713
C   -4.5497141794 -4.6820928075 -2.6770055864
C   -3.6051913969 -3.7266524996 -2.3499322958
Fe  -0.0021062469  0.0121789949  0.2392066053
C    3.3774396107 -3.4562407228  0.6188772025
C    4.4489092848 -3.7706971122 -0.2144798713
C    3.2029443047 -4.1883958359  1.7958307650
C    5.3288494350 -4.7802954095  0.1295907523
C    4.0837240481 -5.1983207178  2.1354224320
H    6.1510048719 -5.0177915395 -0.5295428807
C    5.1515794620 -5.4973359793  1.3031845325
H    3.9318152442 -5.7590295194  3.0475652846
H    5.8395879854 -6.2874359354  1.5642188292
C   -3.4445711317  3.3391305469  0.7736267156
C   -3.6639026322  4.5925184631  0.1984175595
C   -4.2521358154  2.9462674995  1.8471301361
C   -4.6479875276  5.4274230466  0.6933230660
C   -5.2256812153  3.7887452013  2.3445505872
H   -4.8130800638  6.3902865177  0.2302548770
C   -5.4284628253  5.0331848384  1.7705150984
H   -5.8308180871  3.4755690982  3.1807999809
H   -6.1956235649  5.6887567270  2.1515582015
H    6.2269171123  4.9404672688 -0.2328932834
H    3.8301782371  5.4293336058 -3.7327443296
H   -5.6068192367 -5.4843568681  0.4271534627
H   -4.7202124060 -4.9374806589 -3.7117783381
H   -3.0817874703  4.8976348169 -0.6605276648
H   -4.0824797168  1.9813643578  2.3026406429
H    4.5662247853 -3.2479342055 -1.1517912955
H    2.3754435447 -3.9453222179  2.4456845505
H   -3.9218984822 -3.7780371626  1.0096344035
H   -3.0391355034 -3.2304562351 -3.1245778067
H    4.6233068124  3.2917440288  0.6372655921
H    2.2232145993  3.7879810691 -2.8557343074
Cl  -0.0229045150  0.0761199278  2.3786435724
78
aligned d3map frame 221
N   -0.0170104875  2.0664085430 -0.1559213060
N    2.0069717797  0.0111263543 -0.0968653084
C   -2.4109135073  2.4285517043  0.1478017332
C   -1.0961756096  2.8704279136  0.0931161432
C   -0.6467444817  4.2264348658  0.2589943471
H   -1.2746411347  5.0612052064  0.5003384296
C    0.6929708599  4.2294763227  0.0541896056
H    1.3652969366  5.0646670093  0.0800237498
C    1.0867471504  2.8664732997 -0.1703778747
C    2.4003501991  2.4383943328 -0.3369727296
C    2.8147138347  1.0878305375 -0.3398879567
C    4.1639368474  0.6632508431 -0.4093989185
H    5.0079772235  1.2977981439 -0.5939015198
C    4.1676235729 -0.6901107313 -0.1639612723
H    5.0154529125 -1.3455554525 -0.1268028463
C    2.8225858773 -1.0711286134  0.0297365522
C    3.4813324171  3.4475346873 -0.3639393394
C    3.8416503811  4.0993706715  0.8121565042
C    4.8966639464  4.9928307554  0.8214381754
C    5.5971292698  5.2535122734 -0.3447719604
H    6.4260568926  5.9453310630 -0.3368377952
C    5.2337303791  4.6198030861 -1.5212339578
C    4.1850181942  3.7171471698 -1.5323270923
N    0.0065097350 -2.0487207563 -0.0937225779
N   -2.0059140422 -0.0140537956 -0.1178928158
C    2.3878535880 -2.3864745786  0.3619066471
C    1.0790567464 -2.8176719897  0.2832031180
C    0.6410606766 -4.1697499466  0.4997904189
H    1.2809786463 -4.9728979325  0.8121514173
C   -0.6862882435 -4.2019080118  0.2309252877
H   -1.3500156534 -5.0418038386  0.2984126489
C   -1.0796711915 -2.8639747287 -0.1269992761
C   -2.3956427015 -2.4509462308 -0.3626630957
C   -2.7936518214 -1.0909505992 -0.4308175591
C   -4.0990132163 -0.6429105437 -0.7359685884
H   -4.9083192037 -1.2594285519 -1.0740743065
C   -4.1105274494  0.7213787727 -0.5386122301
H   -4.9301468287  1.3991954626 -0.6753403277
C   -2.8061562936  1.0838844107 -0.1448090098
C   -3.4456340168 -3.4720323663 -0.4261096040
C   -4.5726528913 -3.3765900468  0.3929265489
C   -5.5586218254 -4.3424810894  0.3514624764
C   -5.4396676548 -5.4244560314 -0.5067354927
H   -6.2114924010 -6.1796926625 -0.5362439516
C   -4.3251849042 -5.5331417916 -1.3226425103
C   -3.3363024493 -4.5684783881 -1.2843195242
Fe  -0.0021062469  0.0121789949  0.2392066053
C    3.4227210294 -3.3013706296  0.8899420577
C    3.5169392818 -3.4537216361  2.2702825071
C    4.3268414851 -3.9640088194  0.0694709509
C    4.5095769661 -4.2436444299  2.8202530486
C    5.3146788371 -4.7598528256  0.6236422842
H    4.5795936774 -4.3434538938  3.8935323087
C    5.4131327148 -4.8957338186  1.9984476377
H    6.0149398857 -5.2711337478 -0.0205337687
H    6.1932106823 -5.5069477308  2.4270547926
C   -3.4840857977  3.3316543970  0.5745617688
C   -4.2838790685  2.9264224305  1.6473442409
C   -3.7285030434  4.5727315854 -0.0103497027
C   -5.2644349324  3.7580705166  2.1484354270
C   -4.7238655914  5.3965820734  0.4856193776
H   -5.8562580744  3.4395835267  2.9921242024
C   -5.4842522593  5.0007308115  1.5730547526
H   -4.9072775691  6.3542682881  0.0212968176
H   -6.2486819683  5.6524041598  1.9700861919
H    5.1775561285  5.4808196498  1.7428046344
H    5.7759338585  4.8255202957 -2.4329237017
H   -6.4219739850 -4.2556195159  0.9947456135
H   -4.2262956690 -6.3756829022 -1.9916643499
H   -4.1028533516  1.9630129167  2.1002144638
H   -3.1576852319  4.8774407421 -0.8757279932
H    2.8138848304 -2.9345571660  2.9051704441
H    4.2541747749 -3.8571883688 -1.0036069321
H   -4.6529622596 -2.5496192474  1.0825950317
H   -2.4796591479 -4.6443114697 -1.9374664720
H    3.2994757993  3.8810985944  1.7206449391
H    3.9050817209  3.2169927662 -2.4478584634
Cl  -0.0042648839  0.0383638461  2.3791026394
78
aligned d3map frame 222
N   -0.0127813374  2.0513013329 -0.2098799911
N    1.9978864356  0.0153970425 -0.1378294419
C   -2.3786719356  2.4253184413  0.2229751012
C   -1.0682575911  2.8549140216  0.1206861017
C   -0.6283661895  4.2239358244  0.1442512182
H   -1.2540957262  5.0630864378  0.3807002362
C    0.6749456572  4.2258910449 -0.2307203907
H    1.3332215671  5.0650469516 -0.3470298507
C    1.0618407968  2.8526093302 -0.4167439511
C    2.3533113906  2.4051088506 -0.6886873245
C    2.7662170472  1.0568765688 -0.5888104909
C    4.0736585203  0.5926272160 -0.8621808450
H    4.8731971534  1.1858987684 -1.2609089794
C    4.0982604826 -0.7449239860 -0.5329748741
H    4.9223942276 -1.4247394018 -0.6205817471
C    2.8035177286 -1.0773919760 -0.0817224378
C    3.3778744042  3.4021598928 -1.0581237503
C    4.4049191261  3.7292086772 -0.1775316647
C    5.3671691178  4.6535484137 -0.5407526951
C    5.3283050629  5.2461684411 -1.7920769051
H    6.0891256329  5.9562955719 -2.0798458841
C    4.3100249390  4.9236115546 -2.6740092601
C    3.3332785395  4.0162696085 -2.3061788886
N    0.0267772557 -2.0379743837 -0.1446175584
N   -2.0000931517  0.0068853473 -0.1547849921
C    2.3975460556 -2.3975534342  0.3062203031
C    1.0750765803 -2.8195660529  0.2674337190
C    0.5825760544 -4.1358420704  0.5706747207
H    1.1608909531 -4.9349480841  0.9914405327
C   -0.7379288042 -4.1472936320  0.2589845886
H   -1.4322272323 -4.9575878769  0.3708002019
C   -1.0793658066 -2.8247070440 -0.1850337910
C   -2.3713510480 -2.4059956620 -0.5343424552
C   -2.7716430728 -1.0471820834 -0.5733890494
C   -4.0621417103 -0.5721256758 -0.9086886894
H   -4.8551780751 -1.1484293052 -1.3434284685
C   -4.0886012537  0.7706009939 -0.6017473685
H   -4.9159481838  1.4443788057 -0.7037353854
C   -2.7978696363  1.1078695028 -0.1454792257
C   -3.3669513435 -3.4398800831 -0.8211353383
C   -4.6427110456 -3.4175914395 -0.2525376052
C   -5.5769344400 -4.3813614576 -0.5793819885
C   -5.2558983313 -5.3925838671 -1.4709459760
H   -5.9914108534 -6.1389910009 -1.7317038203
C   -3.9840398470 -5.4441571427 -2.0213494717
C   -3.0489642944 -4.4811680830 -1.6995400174
Fe  -0.0021062469  0.0121789949  0.2392066053
C    3.4591631246 -3.3232273957  0.6979941779
C    4.4069800060 -2.9175103159  1.6424123918
C    3.5609645347 -4.6084753939  0.1599126690
C    5.3971124221 -3.7827153436  2.0621110377
C    4.5593955632 -5.4676470265  0.5768142244
H    6.1117668110 -3.4600468891  2.8045386593
C    5.4741350164 -5.0641409632  1.5354228296
H    4.6275481181 -6.4582094935  0.1481972576
H    6.2474678865 -5.7411519528  1.8654676703
C   -3.4059818714  3.3565453040  0.7294411454
C   -3.4415414530  3.5894864145  2.1025990622
C   -4.3427379539  3.9761914418 -0.0889997921
C   -4.4131524264  4.4079884158  2.6476563022
C   -5.3084464412  4.8017206394  0.4603674001
H   -4.4389907227  4.5703724343  3.7152457824
C   -5.3518398401  5.0123080268  1.8282379176
H   -6.0322715353  5.2812800444 -0.1823526266
H   -6.1136615720  5.6475390153  2.2557676298
H    6.1538022624  4.9102406503  0.1547095907
H    4.2774409795  5.3782320435 -3.6534970718
H   -6.5611674677 -4.3444963267 -0.1345464609
H   -3.7245762796 -6.2361884697 -2.7092077827
H   -2.7108194004  3.1072851313  2.7353651587
H   -4.3023931035  3.8216820257 -1.1576720736
H    4.3373897280 -1.9246296837  2.0625243212
H    2.8708777926 -4.9127501788 -0.6136689294
H   -4.8837376404 -2.6527777456  0.4715152083
H   -2.0657335050 -4.5089810612 -2.1478363885
H    4.4353422880  3.2620557362  0.7958110561
H    2.5377194734  3.7610425711 -2.9923408360
Cl  -0.0351063875  0.0612109345  2.3779647611
78
aligned d3map frame 223
N    0.0013503844  2.0554425104 -0.1684661212
N    1.9981354847  0.0255687485 -0.1616079726
C   -2.3911525477  2.3856406182 -0.6173864865
C   -1.0496096268  2.8337479155 -0.5531541532
C   -0.5896990177  4.1548071949 -0.7873165403
H   -1.1802305290  4.9691261026 -1.1586419833
C    0.7504234613  4.1720735529 -0.4708286610
H    1.4277415167  5.0019284709 -0.5239134386
C    1.0918712900  2.8540723835 -0.0952173481
C    2.4054021819  2.4082332677  0.2345992647
C    2.8157442638  1.0925643388  0.1228878733
C    4.1835647216  0.6537916385  0.1146599747
H    5.0291663760  1.2786959959  0.3302011172
C    4.1760189745 -0.6524599443 -0.2508951757
H    5.0177898614 -1.3059152547 -0.3826011521
C    2.8013165053 -1.0479600268 -0.3949959566
C    3.3437374846  3.4612092661  0.6784782267
C    3.2807264979  3.8620722561  2.0094011143
C    4.0885411024  4.8861301426  2.4691335008
C    4.9629227982  5.5228112330  1.6043068029
H    5.5837145495  6.3310153659  1.9612676675
C    5.0342255314  5.1227592450  0.2808887438
C    4.2310395598  4.0948591260 -0.1824091063
N    0.0093158489 -2.0402334492 -0.1047018965
N   -1.9995937097 -0.0151980377 -0.1786155713
C    2.3889052650 -2.3635604581 -0.6284487819
C    1.0620598625 -2.8265256965 -0.4723506396
C    0.6187621870 -4.1632715850 -0.6179629738
H    1.2179208183 -4.9946859370 -0.9319749587
C   -0.7195763627 -4.1761093928 -0.2905258228
H   -1.3869253584 -5.0169310861 -0.2953560861
C   -1.0752850615 -2.8436151277  0.0154204050
C   -2.4048856243 -2.3927978411  0.2853368528
C   -2.8188710980 -1.0780351748  0.1207307726
C   -4.1798682044 -0.6232740938  0.1699577477
H   -5.0211588394 -1.2383124969  0.4191402748
C   -4.1723596196  0.6906776770 -0.1658247026
H   -5.0078957403  1.3596505160 -0.2389467066
C   -2.8018220404  1.0717782380 -0.3680330232
C   -3.3533474340 -3.4475464778  0.6754190645
C   -3.0985744772 -4.1756432087  1.8377226205
C   -3.9402261980 -5.2045443337  2.2179945964
C   -5.0360235651 -5.5344973099  1.4355419038
H   -5.6834160578 -6.3486619957  1.7262561640
C   -5.2919304817 -4.8203574749  0.2768759840
C   -4.4612181630 -3.7793706322 -0.1001402015
Fe  -0.0021062469  0.0121789949  0.2392066053
C    3.4006841069 -3.3374690115 -1.0705094542
C    4.0254843510 -3.1382020359 -2.3010977100
C    3.7202894275 -4.4675214493 -0.3237798203
C    4.9306095973 -4.0619986571 -2.7860224554
C    4.6444622719 -5.3788836851 -0.8007968235
H    5.3896762288 -3.9118247751 -3.7532175481
C    5.2429464757 -5.1840978358 -2.0347717619
H    4.8967803103 -6.2486120360 -0.2110369545
H    5.9528750951 -5.9058259016 -2.4114755925
C   -3.4031004290  3.4102445625 -0.9105068940
C   -4.2583119635  3.2794077475 -2.0035449859
C   -3.4821090081  4.5641589951 -0.1285969005
C   -5.1329029778  4.2997940480 -2.3330952431
C   -4.3698895634  5.5720214414 -0.4491043325
H   -5.7707328180  4.2023296415 -3.2006020644
C   -5.1852849565  5.4512308936 -1.5648353623
H   -4.4218316398  6.4588166238  0.1661192636
H   -5.8597823688  6.2516488706 -1.8320233343
H    4.0279476086  5.1918557385  3.5028065149
H    5.7146419983  5.6173950490 -0.3966030244
H   -3.7366831670 -5.7560402316  3.1245677739
H   -6.1385396855 -5.0794659960 -0.3432213229
H   -4.2094451374  2.3860517992 -2.6121866006
H   -2.8460484086  4.6524427548  0.7404918993
H    3.7694148104 -2.2632317491 -2.8821253661
H    3.2509528706 -4.6146540030  0.6383421936
H   -2.2433247133 -3.9156943785  2.4476738814
H   -4.6480290257 -3.2424023962 -1.0188600076
H    2.5924317307  3.3635265686  2.6768213839
H    4.2770622941  3.7896013962 -1.2183646118
Cl  -0.0237255231  0.1018200976  2.3801750226
78
aligned d3map frame 224
N    0.0125786666  2.0497610016 -0.1989209357
N    1.9949370070  0.0291319177 -0.1622472310
C   -2.3694813676  2.3497205289 -0.7245239321
C   -1.0506506182  2.8268618139 -0.5453732861
C   -0.6364529994  4.1805540369 -0.6334821981
H   -1.2628871338  5.0068203478 -0.9083890479
C    0.6965933769  4.2103039458 -0.2947127036
H    1.3391761847  5.0671717892 -0.2381837721
C    1.0849328198  2.8714054434 -0.0502550756
C    2.4077210987  2.4234044413  0.2141427545
C    2.8137924450  1.1012197956  0.0860426727
C    4.1819898906  0.6777207752  0.0050061302
H    5.0273691885  1.3183047885  0.1681503265
C    4.1708148301 -0.6332750672 -0.3504633141
H    5.0118444453 -1.2786795030 -0.5155947744
C    2.7964186477 -1.0388127994 -0.4380882157
C    3.4183411296  3.4447736710  0.5591532836
C    3.8287487603  3.5592455754  1.8862137323
C    4.7339769345  4.5380425942  2.2552706638
C    5.2507742176  5.4035449750  1.3052011425
H    5.9556470254  6.1696146673  1.5941012285
C    4.8607082320  5.2809854943 -0.0185904009
C    3.9452539594  4.3107509244 -0.3918521658
N    0.0036079698 -2.0341445020 -0.1367381905
N   -1.9980289077 -0.0287777261 -0.1781664723
C    2.3802205423 -2.3502576043 -0.6863747621
C    1.0513135598 -2.8139808052 -0.5248194243
C    0.6055007768 -4.1497069652 -0.6794973402
H    1.2018045122 -4.9742218965 -1.0172918298
C   -0.7234690620 -4.1685797794 -0.3246792839
H   -1.3889603637 -5.0089827932 -0.3319367127
C   -1.0794007908 -2.8384657942  0.0014961703
C   -2.4091398737 -2.4007376062  0.2834397935
C   -2.8284795899 -1.0814137149  0.1182589052
C   -4.1870376643 -0.6260001103  0.0873132840
H   -5.0427917354 -1.2189348333  0.3420613907
C   -4.1660212457  0.6679625818 -0.3249178230
H   -4.9970826149  1.3261805838 -0.4859239470
C   -2.7893250729  1.0464977702 -0.4593809162
C   -3.3516198447 -3.4573648511  0.6706340811
C   -3.0281254302 -4.2616307244  1.7668971860
C   -3.8717271830 -5.2804046605  2.1649896571
C   -5.0425070611 -5.5299114002  1.4667630289
H   -5.6964164800 -6.3329479125  1.7722756605
C   -5.3625656827 -4.7500332542  0.3667124171
C   -4.5286689977 -3.7207563225 -0.0291481361
Fe  -0.0021062469  0.0121789949  0.2392066053
C    3.3944832818 -3.3243728484 -1.1192678773
C    3.6694511289 -4.4699225892 -0.3769167985
C    4.0825217408 -3.1133011396 -2.3157274130
C    4.6074795600 -5.3839161094 -0.8228424895
C    5.0052753008 -4.0362405613 -2.7673213214
H    4.8204815589 -6.2635735922 -0.2337184234
C    5.2706914372 -5.1750790974 -2.0214419151
H    5.5196133546 -3.8731283869 -3.7028217134
H    5.9938711104 -5.8961983195 -2.3738687350
C   -3.3707586561  3.3203316478 -1.2148147111
C   -3.8406122961  4.3575772122 -0.4149212872
C   -3.8210702030  3.2195813019 -2.5289508329
C   -4.7417246232  5.2751719062 -0.9232462738
C   -4.7058759282  4.1523032343 -3.0400299469
H   -5.1102419210  6.0702044670 -0.2906081319
C   -5.1689037052  5.1825671547 -2.2390102163
H   -5.0319910817  4.0749240381 -4.0683440296
H   -5.8628300067  5.9089563943 -2.6380037132
H    5.0322098300  4.6305659632  3.2905242853
H    5.2675710618  5.9473522901 -0.7657072987
H   -3.6129315453 -5.8891078221  3.0190517674
H   -6.2649218264 -4.9519839167 -0.1939124583
H   -3.5028039228  4.4324929409  0.6091585594
H   -3.4579591739  2.4163175216 -3.1538714823
H    3.1559508481 -4.6273255584  0.5608429287
H    3.8671013271 -2.2252496457 -2.8929937651
H   -2.1172731723 -4.0667506501  2.3126783316
H   -4.7642231784 -3.1417888376 -0.9114501317
H    3.4184894343  2.8851876483  2.6235780492
H    3.6401888836  4.2169888755 -1.4240257402
Cl  -0.0235660827  0.0127965989  2.3809475516
78
aligned d3map frame 225
N    0.0009623848  2.0437674322 -0.2426942243
N    2.0005495389  0.0042500282 -0.1220053690
C   -2.3992499939  2.4333995063  0.0748721010
C   -1.0899066250  2.8532578061 -0.1459566479
C   -0.7193049177  4.1899620938 -0.5058125126
H   -1.3920984817  5.0235334700 -0.5263527575
C    0.5873603853  4.1523252124 -0.8711788225
H    1.1850538439  4.9521921463 -1.2550785998
C    1.0476077533  2.8097039780 -0.6623518334
C    2.3529330421  2.3522074413 -0.8430071348
C    2.7963037095  1.0486096808 -0.4775764557
C    4.1538658797  0.6619308659 -0.3883930993
H    4.9927936580  1.2958794657 -0.5911202382
C    4.1696269935 -0.6479445805  0.0408290430
H    5.0261854901 -1.2795988498  0.2046072614
C    2.8228452392 -1.0468869473  0.1722744005
C    3.3343944393  3.2128774391 -1.5184523871
C    3.6917563887  4.4804800203 -1.0690938054
C    4.5791571265  5.2529997292 -1.7981207371
C    5.1155794654  4.7815932955 -2.9845832251
H    5.7968889446  5.3923065774 -3.5592555374
C    4.7817876848  3.5132062253 -3.4280790808
C    3.9089028702  2.7330025461 -2.6973861393
N    0.0449740183 -2.0321760584 -0.1806197979
N   -2.0047656195  0.0003997518 -0.1330838324
C    2.3979039966 -2.3838209431  0.3835602695
C    1.1126150346 -2.8391635351  0.1052489970
C    0.6946996783 -4.2096327895  0.0585028420
H    1.3272801929 -5.0538505229  0.2492930206
C   -0.6186994399 -4.2111778564 -0.2844868538
H   -1.2654672373 -5.0569994898 -0.4116794246
C   -1.0306928683 -2.8391105620 -0.3915570360
C   -2.3535768330 -2.4208427135 -0.5262857060
C   -2.8023989951 -1.0847712675 -0.3515711572
C   -4.1589544036 -0.6797966165 -0.3719924051
H   -5.0038126282 -1.3152835526 -0.5477142319
C   -4.1759597863  0.6742637769 -0.1249518587
H   -5.0368119121  1.3087601449 -0.0523950917
C   -2.8278436416  1.0852308457 -0.0119691633
C   -3.3636537160 -3.4545389941 -0.8103173784
C   -4.3711279851 -3.7509411018  0.1036695265
C   -5.3064516469 -4.7292246021 -0.1799824238
C   -5.2564799330 -5.4155852273 -1.3817648863
H   -5.9931497433 -6.1736077965 -1.6053064611
C   -4.2581776617 -5.1254729532 -2.2974143659
C   -3.3126255026 -4.1590972149 -2.0116852804
Fe  -0.0021062469  0.0121789949  0.2392066053
C    3.4079116589 -3.3350145905  0.8816212283
C    3.9134103455 -4.3698043277  0.0999765306
C    3.8601608841 -3.1916143429  2.1921288820
C    4.8498738255 -5.2400269204  0.6231538763
C    4.7778307089 -4.0808529989  2.7182578446
H    5.2476797411 -6.0330840625  0.0061565578
C    5.2767616457 -5.1062017703  1.9346019696
H    5.1038251812 -3.9710703259  3.7426596757
H    5.9993661119 -5.7971063288  2.3414999335
C   -3.4247322648  3.4692790013  0.3074058969
C   -4.3864791756  3.7836792598 -0.6475390964
C   -3.4318680443  4.1473324960  1.5240605294
C   -5.3392238551  4.7522784884 -0.3887792731
C   -4.3969226796  5.1026462912  1.7874981374
H   -6.0748376036  4.9951543643 -1.1407202022
C   -5.3517300536  5.4073106205  0.8308499799
H   -4.4005919165  5.6101062102  2.7407534003
H   -6.1012215206  6.1573513692  1.0367428111
H    4.8559868826  6.2345950684 -1.4412856344
H    5.1987826616  3.1353674736 -4.3498271094
H   -6.0775976119 -4.9579498225  0.5399731795
H   -4.2159038101 -5.6554325843 -3.2377437627
H   -4.3690239136  3.2763168201 -1.6018376357
H   -2.6784824250  3.9103121337  2.2651169943
H    3.5854037200 -4.4708618124 -0.9243102845
H    3.4643978368 -2.3941787404  2.8020517796
H   -4.4002702946 -3.2263127389  1.0475680643
H   -2.5359507648 -3.9299332194 -2.7266225088
H    3.2937473539  4.8465317877 -0.1343666789
H    3.6363978665  1.7476696280 -3.0457944275
Cl  -0.0243250940  0.0255103289  2.3772391666
78
aligned d3map frame 226
N   -0.0172457017  2.0654198751 -0.1436575029
N    2.0010430460  0.0148423424 -0.1465552760
C   -2.4267360241  2.4283676922  0.0571876717
C   -1.1055069593  2.8557561390  0.0726047953
C   -0.6859544546  4.2295500700  0.1563746852
H   -1.3448249811  5.0644820772  0.2962860842
C    0.6562551904  4.2456687160 -0.0321858892
H    1.3109771264  5.0949398583 -0.0618631639
C    1.0737431863  2.8802371384 -0.1902833057
C    2.3802180311  2.4535685988 -0.3919770984
C    2.7824868119  1.0991593425 -0.4521701200
C    4.1010152666  0.6743246120 -0.7335159547
H    4.9178051524  1.3126896185 -1.0087699375
C    4.1188206396 -0.6926848677 -0.5821989468
H    4.9470799069 -1.3550376139 -0.7410430695
C    2.8162527087 -1.0778939526 -0.1944498001
C    3.4343081729  3.4855118745 -0.4928864194
C    3.8312576151  4.1809446360  0.6450477837
C    4.8173263959  5.1473542153  0.5651150100
C    5.4097192867  5.4376237916 -0.6524750520
H    6.1769129422  6.1949937172 -0.7148037465
C    5.0146686873  4.7535650590 -1.7900984288
C    4.0359517740  3.7790600206 -1.7120895263
N    0.0189918436 -2.0497642899 -0.0784609104
N   -2.0019761893  0.0026898916 -0.1656609045
C    2.4286458615 -2.4169171916  0.1067078875
C    1.1044133134 -2.8223291845  0.2283096728
C    0.6580137236 -4.1257931650  0.6332909084
H    1.2915554951 -4.9088000163  1.0017412963
C   -0.6927256357 -4.1394969944  0.5046766026
H   -1.3670430148 -4.9369977561  0.7482315870
C   -1.0830389634 -2.8418942893  0.0323367780
C   -2.3869322243 -2.4452489263 -0.2756556909
C   -2.7654314795 -1.0933678650 -0.4778103842
C   -4.0443939857 -0.6708337399 -0.8998917522
H   -4.8218831240 -1.3022451707 -1.2816403349
C   -4.0815532235  0.6983807076 -0.7522933975
H   -4.9119865774  1.3397190730 -0.9568996380
C   -2.8113154939  1.0943551097 -0.2915696947
C   -3.4213739763 -3.4783356132 -0.3537859356
C   -4.6488584322 -3.3265133063  0.2950235170
C   -5.6149395733 -4.3101676351  0.2132495918
C   -5.3759669126 -5.4681640266 -0.5099300140
H   -6.1315976679 -6.2365720829 -0.5705358139
C   -4.1599483590 -5.6350556135 -1.1527340332
C   -3.1932829283 -4.6515931405 -1.0783219290
Fe  -0.0021062469  0.0121789949  0.2392066053
C    3.4836995448 -3.4262505569  0.2226298655
C    3.3974655338 -4.6169663057 -0.5020028535
C    4.5975549912 -3.2214740607  1.0394509388
C    4.3923776034 -5.5711790918 -0.4124717209
C    5.5878826931 -4.1804102699  1.1290475812
H    4.3122114454 -6.4833629830 -0.9858043023
C    5.4915980015 -5.3572888090  0.4031136805
H    6.4413369562 -4.0112472981  1.7690374984
H    6.2704288454 -6.1021182281  0.4704959926
C   -3.4485334808  3.3787151699  0.5185430929
C   -4.5313804197  3.8096808620 -0.2424391491
C   -3.3103486636  3.8634361796  1.8224402343
C   -5.4644940286  4.6769113025  0.2982241739
C   -4.2446052574  4.7267431840  2.3582110866
H   -6.3009976979  5.0035494273 -0.3021406475
C   -5.3315338756  5.1308709001  1.5996703825
H   -4.1256535030  5.0826898039  3.3712371862
H   -6.0663176993  5.8010246374  2.0200180712
H    5.1241641725  5.6753097319  1.4561993292
H    5.4705587669  4.9810833245 -2.7425905423
H   -6.5590524131 -4.1762005675  0.7207987242
H   -3.9660943126 -6.5356208903 -1.7169241155
H   -4.6246699698  3.4963923885 -1.2716570503
H   -2.4702637346  3.5320391895  2.4156020967
H    2.5555134038 -4.7730938335 -1.1599442819
H    4.6650271849 -2.3131623707  1.6199866917
H   -4.8261323771 -2.4412260981  0.8872260736
H   -2.2567967214 -4.7733010070 -1.6021313236
H    3.3679118518  3.9494686779  1.5929054578
H    3.7231664384  3.2468152409 -2.5986187999
Cl  -0.0245548028  0.0808485540  2.3764800080
78
aligned d3map frame 227
N   -0.0140754498  2.0442344616 -0.2105011532
N    1.9968582009  0.0238418934 -0.1688024006
C   -2.3762538605  2.3707099918 -0.7566628545
C   -1.0263054155  2.7925630615 -0.7451733283
C   -0.5065964238  4.0559986927 -1.1230751800
H   -1.0382125947  4.8294966998 -1.6416184306
C    0.8148803788  4.0787085916 -0.7298993515
H    1.5196994428  4.8790295673 -0.8476257135
C    1.0915559682  2.8150809839 -0.1666615869
C    2.3780946596  2.3881725946  0.3170174688
C    2.7958428160  1.0657392654  0.2436315847
C    4.1266723619  0.5706938410  0.4588512892
H    4.9467228057  1.1355334506  0.8543977525
C    4.1345340175 -0.7301058756  0.0713674819
H    4.9622706733 -1.4122187700  0.0850554024
C    2.7913925501 -1.0724571418 -0.3014353223
C    3.2136486711  3.4361240807  0.9021779062
C    4.5523593030  3.6540687328  0.5748064940
C    5.2866683052  4.6215097151  1.2355793475
C    4.7018588564  5.3935373937  2.2265094812
H    5.2839883003  6.1373947328  2.7499927547
C    3.3632348059  5.2121032412  2.5352324347
C    2.6247282638  4.2512100224  1.8744903005
N    0.0055280489 -2.0301997061 -0.1457140914
N   -1.9966426355 -0.0049007975 -0.1895699678
C    2.3796683205 -2.3686319379 -0.6518545624
C    1.0325129041 -2.7959576498 -0.6194080467
C    0.5304687432 -4.0788672438 -0.9557470336
H    1.0870090133 -4.8758301603 -1.4060790264
C   -0.8042033003 -4.0863457035 -0.6133122342
H   -1.5043749282 -4.8903671332 -0.7300491635
C   -1.1025355621 -2.8010671823 -0.1095285471
C   -2.3983613426 -2.3599313339  0.3296896786
C   -2.7947668000 -1.0318060829  0.2668516721
C   -4.1073090889 -0.5105756002  0.5332047016
H   -4.9126916533 -1.0534489065  0.9871746119
C   -4.1124115994  0.7836337353  0.1238767174
H   -4.9243361831  1.4832993601  0.1728620477
C   -2.7834986079  1.0952412084 -0.3224583988
C   -3.2953847860 -3.4091372605  0.8135294191
C   -2.7993286067 -4.3263888468  1.7450727304
C   -3.6085086669 -5.3205290173  2.2561766886
C   -4.9256639120 -5.4302872105  1.8382342894
H   -5.5591016767 -6.2081311823  2.2373499509
C   -5.4218657863 -4.5426687972  0.8972649305
C   -4.6173311906 -3.5417689963  0.3859950585
Fe  -0.0021062469  0.0121789949  0.2392066053
C    3.4134338918 -3.3428402979 -1.0128342361
C    3.4642370698 -4.6074243991 -0.4223953036
C    4.3685114793 -3.0172796775 -1.9780324319
C    4.4289268670 -5.5216557869 -0.7981650557
C    5.3315951690 -3.9347128014 -2.3525952352
H    4.4571554491 -6.4950872301 -0.3326431074
C    5.3637160417 -5.1905415075 -1.7688199518
H    6.0584152350 -3.6727286207 -3.1079963893
H    6.1151517263 -5.9063335343 -2.0657622936
C   -3.4156375682  3.3082746320 -1.1824077490
C   -3.4400593909  4.6367590572 -0.7523121869
C   -4.4165270721  2.8765569240 -2.0592555305
C   -4.4089793044  5.5081353552 -1.2096965176
C   -5.3875271208  3.7497540509 -2.5073703312
H   -4.4076120536  6.5347346583 -0.8719233580
C   -5.3831066166  5.0725454213 -2.0935495685
H   -6.1499599421  3.3985714093 -3.1878448832
H   -6.1362568126  5.7576804676 -2.4518185449
H    6.3238425578  4.7764685756  0.9759916723
H    2.8940583241  5.8168321826  3.2979594094
H   -3.2131502519 -6.0133179696  2.9847317584
H   -6.4425358899 -4.6350880176  0.5553342437
H   -2.7101506719  4.9716411732 -0.0308138833
H   -4.4073450684  1.8532432345 -2.4051756676
H    2.7574611934 -4.8540326067  0.3557848409
H    4.3316321022 -2.0460578714 -2.4493892976
H   -1.7777662114 -4.2298364072  2.0817887393
H   -4.9968679576 -2.8795412155 -0.3779103772
H    5.0055429701  3.0881169064 -0.2256225841
H    1.5867078218  4.0939676402  2.1290954613
Cl  -0.0169369861  0.0595487708  2.3781074808
78
aligned d3map frame 228
N   -0.0361067814  2.0484654067 -0.2274734763
N    2.0098377444 -0.0033855143 -0.0840857153
C   -2.4202296382  2.4226530403  0.1912329812
C   -1.1123719579  2.8662738815 -0.0655651796
C   -0.6979274158  4.2282500181 -0.1944403188
H   -1.3406025834  5.0822682167 -0.0979258489
C    0.6393835114  4.2132950995 -0.4607684630
H    1.2931449486  5.0490047048 -0.6148950688
C    1.0509730292  2.8450236814 -0.4447903583
C    2.3765400033  2.4103480373 -0.4950113196
C    2.8106696886  1.0939293500 -0.2410895074
C    4.1707266893  0.7139755766 -0.0911584489
H    5.0106378604  1.3766678752 -0.1681925098
C    4.1830945277 -0.6276358968  0.1847828974
H    5.0364695050 -1.2401512426  0.3950099193
C    2.8335419666 -1.0718743327  0.1433944447
C    3.4248780791  3.4166380607 -0.7765272321
C    4.2295972880  3.9232551282  0.2383377604
C    5.2348894434  4.8288263675 -0.0548590450
C    5.4504823953  5.2354483809 -1.3613831832
H    6.2438376581  5.9316285489 -1.5899359011
C    4.6463735376  4.7418455940 -2.3753579422
C    3.6364473655  3.8422198119 -2.0847637317
N    0.0202163985 -2.0324343018 -0.1650562223
N   -2.0091425076  0.0051097286 -0.1068385193
C    2.4142538709 -2.4160421399  0.2318713402
C    1.0982795702 -2.8450181909 -0.0230602635
C    0.7169597427 -4.1944478828 -0.2958967719
H    1.3769182816 -5.0402257140 -0.2761651944
C   -0.6084050096 -4.1745526612 -0.6200820377
H   -1.2342812490 -5.0026963910 -0.8922292289
C   -1.0421953805 -2.8179198305 -0.5092107609
C   -2.3625426382 -2.3813949032 -0.6301388930
C   -2.8085516982 -1.0749155984 -0.3555562018
C   -4.1721437607 -0.6790050250 -0.3014814779
H   -5.0112513705 -1.3287842768 -0.4614829441
C   -4.1867384202  0.6567360461  0.0006544619
H   -5.0394151434  1.2959847413  0.1166738382
C   -2.8304689491  1.0754508110  0.0917983114
C   -3.3605684292 -3.3571199888 -1.1253725792
C   -4.2074127235 -4.0629483796 -0.2805624755
C   -5.1277119575 -4.9561037160 -0.8055389074
C   -5.2164846014 -5.1450454386 -2.1735559638
H   -5.9400493352 -5.8354645370 -2.5834262637
C   -4.3720975116 -4.4443375163 -3.0210550553
C   -3.4457652008 -3.5611116440 -2.5012629969
Fe  -0.0021062469  0.0121789949  0.2392066053
C    3.4012063054 -3.4522305356  0.5593226394
C    4.5602236117 -3.6480028310 -0.1921741274
C    3.1760897913 -4.2650939701  1.6706644243
C    5.4820762256 -4.6078480466  0.1817154759
C    4.1048600673 -5.2168037473  2.0456794319
H    6.3772284459 -4.7490071449 -0.4072819658
C    5.2666218128 -5.3857830384  1.3086610043
H    3.9249992955 -5.8258260516  2.9197266611
H    5.9989209510 -6.1220992126  1.6082063441
C   -3.4460191294  3.4123375367  0.5578706919
C   -3.8544513099  4.4226176632 -0.3098227864
C   -4.0184125082  3.3391030203  1.8267912265
C   -4.8098717283  5.3388830899  0.0893174058
C   -4.9598985058  4.2688897852  2.2267431867
H   -5.1283777167  6.1133640451 -0.5938842623
C   -5.3596809759  5.2711815500  1.3590960135
H   -5.3814971190  4.2095004524  3.2194844608
H   -6.0990715695  5.9928973988  1.6712980299
H    5.8600693076  5.2101010826  0.7400994127
H    4.8122309153  5.0545158596 -3.3960158905
H   -5.7786343556 -5.5062085593 -0.1412945808
H   -4.4362677493 -4.5896167342 -4.0901332135
H   -3.4385615737  4.4702032803 -1.3056295914
H   -3.6992752391  2.5584598176  2.5016692144
H    4.7153698704 -3.0617467473 -1.0865846702
H    2.2765270348 -4.1190513914  2.2515417449
H   -4.1391435670 -3.9176789369  0.7877755620
H   -2.7833760582 -3.0137610468 -3.1569686120
H    4.0607770616  3.6046233547  1.2566577100
H    3.0152277388  3.4486681672 -2.8769704677
Cl  -0.0312270863  0.0618807127  2.3760029541
78
aligned d3map frame 229
N    0.0028345607  2.0457374928 -0.2394351205
N    1.9997562995  0.0286991278 -0.1075910964
C   -2.3933457470  2.3689807458 -0.7030344065
C   -1.0920936875  2.8211561943 -0.4310336610
C   -0.7531884975  4.1924270284 -0.1622546627
H   -1.4333397828  5.0201315480 -0.2216585642
C    0.5405009986  4.2126979429  0.2471499373
H    1.1097711007  5.0601711180  0.5729478385
C    1.0291660769  2.8645185337  0.1615531941
C    2.3228392253  2.4324994371  0.4120384399
C    2.7870470420  1.1136173083  0.0986373234
C    4.1374111798  0.7774776737 -0.1359438909
H    4.9685424120  1.4514170410 -0.0642852127
C    4.1573092651 -0.5511593902 -0.4996199561
H    5.0134751851 -1.1477378778 -0.7476430010
C    2.8179508942 -1.0091052608 -0.4586789234
C    3.3084313453  3.3222673593  1.0370042472
C    3.8921649166  2.8918234440  2.2309519300
C    4.7954013252  3.6923971668  2.9007857822
C    5.1506963388  4.9265783026  2.3782027855
H    5.8609191354  5.5523135496  2.8986746626
C    4.5964691180  5.3505397114  1.1822016683
C    3.6776964717  4.5594389995  0.5156974579
N    0.0229109990 -2.0328744196 -0.1735810948
N   -2.0026387535  0.0004362965 -0.1220090565
C    2.4132934260 -2.3565664862 -0.6045163397
C    1.1133446364 -2.8173647759 -0.3868647901
C    0.7246127614 -4.1985108834 -0.2927202496
H    1.3785383916 -5.0332103276 -0.4555278580
C   -0.5839653568 -4.2217332001  0.0628760933
H   -1.1996150706 -5.0803093243  0.2509886900
C   -1.0326700836 -2.8571406531  0.1048834170
C   -2.3320958744 -2.4230122062  0.3228132083
C   -2.7845266001 -1.0990306132  0.0265379060
C   -4.1162210031 -0.7896190680 -0.3198677920
H   -4.9387739557 -1.4782484523 -0.3069165585
C   -4.1272340499  0.5320233982 -0.7107323432
H   -4.9625190652  1.0824576142 -1.0948925569
C   -2.8093478287  1.0238731642 -0.5437672478
C   -3.3312917758 -3.3409751237  0.8936906170
C   -3.8134962068 -3.0279069504  2.1649197684
C   -4.6989124933 -3.8725204544  2.8063006206
C   -5.1383862678 -5.0253536284  2.1759449237
H   -5.8313567512 -5.6855480536  2.6767846977
C   -4.6902152057 -5.3248755615  0.8997710405
C   -3.7849320752 -4.4937897685  0.2618504321
Fe  -0.0021062469  0.0121789949  0.2392066053
C    3.4704339681 -3.3346455110 -0.9225656245
C    4.0931682607 -3.3047829669 -2.1682319766
C    3.8794500203 -4.2803118529  0.0135165651
C    5.0938358435 -4.2090125630 -2.4730749947
C    4.8909288323 -5.1736694605 -0.2897251957
H    5.5619533184 -4.1811630420 -3.4463605563
C    5.4987045305 -5.1431784723 -1.5340694585
H    5.2090099630 -5.8933784917  0.4504820595
H    6.2872811482 -5.8423244247 -1.7691815823
C   -3.3752453451  3.3741164417 -1.1224048806
C   -3.0631570017  4.2190742717 -2.1907964068
C   -4.6143863673  3.5194868945 -0.4979735424
C   -3.9728993871  5.1574955773 -2.6378087999
C   -5.5211725879  4.4604969224 -0.9482703087
H   -3.7183952031  5.7960043508 -3.4714538192
C   -5.2088500922  5.2766082532 -2.0233195305
H   -6.4772719081  4.5607148130 -0.4561086768
H   -5.9226290321  6.0053939718 -2.3775947810
H    5.2228666597  3.3543008400  3.8334603119
H    4.8851687135  6.3048422665  0.7643162867
H   -5.0428797332 -3.6316325483  3.8018103403
H   -5.0472714155 -6.2134483095  0.3993854137
H   -2.1060225260  4.1137938543 -2.6802392111
H   -4.8474250364  2.9112567364  0.3630860061
H    3.7775870659 -2.5738750611 -2.8986016851
H    3.4146281044 -4.2951948176  0.9888780572
H   -3.4604339974 -2.1309189048  2.6520641639
H   -3.4463783841 -4.7246080080 -0.7380359933
H    3.6037138948  1.9342968306  2.6395176686
H    3.2673353135  4.8841158134 -0.4297703221
Cl  -0.0178911661  0.0514256461  2.3778643824
78
aligned d3map frame 230
N    0.0036992110  2.0473558117 -0.2145769329
N    2.0053265191  0.0285549328 -0.1152758444
C   -2.3943711722  2.3563887051 -0.6498361313
C   -1.0666161226  2.8201373199 -0.5603987810
C   -0.6568611305  4.1742190662 -0.6540875353
H   -1.2934669497  4.9984560735 -0.9154852350
C    0.6777594494  4.2097324369 -0.3221788326
H    1.3188468596  5.0700740517 -0.2731804453
C    1.0673592774  2.8724653579 -0.0606896324
C    2.3975733004  2.4382738059  0.1977286668
C    2.8133295255  1.1137113578  0.1040601965
C    4.1827632079  0.6829241342  0.1251614979
H    5.0259886201  1.3181253594  0.3161349105
C    4.1870425115 -0.6461343410 -0.1523658315
H    5.0366555825 -1.2929466632 -0.2554933446
C    2.8189048751 -1.0568483732 -0.2781461075
C    3.3957660191  3.4694819913  0.5313992745
C    3.2859605452  4.1382498265  1.7498136203
C    4.2446946224  5.0595322974  2.1302893485
C    5.3053546868  5.3483514900  1.2862601890
H    6.0524841745  6.0692409038  1.5823896822
C    5.4043071057  4.7095832937  0.0604478448
C    4.4608962363  3.7689268989 -0.3131329290
N   -0.0012179065 -2.0308899017 -0.1520680913
N   -2.0071588236 -0.0252702176 -0.1338112539
C    2.4040636642 -2.3649563316 -0.5405094181
C    1.0648025795 -2.8065161571 -0.5140310334
C    0.6272688303 -4.1427615685 -0.6924900509
H    1.2408245837 -4.9707181193 -0.9901687666
C   -0.7175155656 -4.1651707799 -0.4037009695
H   -1.3865710506 -5.0028859373 -0.4441744683
C   -1.0809428378 -2.8404457567 -0.0573195315
C   -2.4074966507 -2.4102661992  0.2667371663
C   -2.8214325969 -1.0832884475  0.1739022399
C   -4.1793120129 -0.6186174082  0.2609434178
H   -5.0222291616 -1.2164011195  0.5496122854
C   -4.1790241075  0.6839528541 -0.1158183321
H   -5.0161885461  1.3489920179 -0.2027267464
C   -2.8109100642  1.0624991126 -0.3298177273
C   -3.3459047314 -3.4696707348  0.6486693606
C   -2.9758152899 -4.3527454502  1.6664205704
C   -3.8339872495 -5.3540130941  2.0774007209
C   -5.0717794134 -5.5035639737  1.4719887379
H   -5.7437247972 -6.2852620469  1.7958897597
C   -5.4390795614 -4.6515823329  0.4430670625
C   -4.5848078180 -3.6458129132  0.0304979290
Fe  -0.0021062469  0.0121789949  0.2392066053
C    3.4380862187 -3.3863126584 -0.8001604884
C    4.3104583852 -3.7852392523  0.2083679473
C    3.5422195844 -3.9757245601 -2.0562341174
C    5.2666727168 -4.7543670941 -0.0347748280
C    4.5053236964 -4.9390869817 -2.2989348255
H    5.9328808595 -5.0668461083  0.7554988506
C    5.3671122048 -5.3333676241 -1.2896657669
H    4.5797979341 -5.3850885702 -3.2799562633
H    6.1112903141 -6.0911721037 -1.4821554349
C   -3.4261102201  3.3163895838 -1.1007394722
C   -4.3300929029  3.9074600975 -0.2258162726
C   -3.5082964384  3.6039602148 -2.4617079395
C   -5.3199884116  4.7465821779 -0.7123411048
C   -4.5040268496  4.4345559135 -2.9439085124
H   -6.0179761248  5.2010882709 -0.0246664910
C   -5.4164948059  5.0024798072 -2.0705545788
H   -4.5723515878  4.6336484289 -4.0043309842
H   -6.2048841983  5.6393682680 -2.4476806545
H    4.1732330576  5.5441574406  3.0949891094
H    6.2225453779  4.9379173870 -0.6068650211
H   -3.5383165984 -6.0230241519  2.8712442106
H   -6.3945933105 -4.7753863535 -0.0455188103
H   -4.2563331949  3.7056264976  0.8330529871
H   -2.7953493271  3.1519814411 -3.1362743147
H    4.2224241746 -3.3422127038  1.1894745546
H    2.8718001328 -3.6652832402 -2.8441119662
H   -2.0160381818 -4.2276237118  2.1470206879
H   -4.8587952158 -3.0149748173 -0.8021241789
H    2.4608312877  3.9038453556  2.4060990600
H    4.5360415505  3.2697029866 -1.2687394075
Cl  -0.0256312685  0.0750774458  2.3791398735
78
aligned d3map frame 231
N    0.0170070615  2.0575284704 -0.1754760544
N    2.0017774443  0.0552429781 -0.1389823869
C   -2.3647805263  2.3784530111 -0.6686301813
C   -1.0560112708  2.8277653072 -0.5192754864
C   -0.6445776456  4.1949638838 -0.6156086518
H   -1.2915623930  5.0113013950 -0.8725773364
C    0.6780750118  4.2336192808 -0.2945533396
H    1.3219456930  5.0909811831 -0.2668099175
C    1.0849242839  2.8854871940 -0.0390051545
C    2.4139694551  2.4744793708  0.1544381794
C    2.8346245984  1.1295460097  0.0368940697
C    4.1842730690  0.6965009838 -0.0156599130
H    5.0476838372  1.3110694676  0.1426854763
C    4.1623279927 -0.6457334737 -0.2999700443
H    4.9988789393 -1.3045681294 -0.4261110518
C    2.7997348426 -1.0296069386 -0.3608792270
C    3.4136142960  3.5245969928  0.3845949057
C    3.2569750696  4.3855555035  1.4717916037
C    4.1859437165  5.3765874151  1.7260844325
C    5.2821133647  5.5352643143  0.8942858684
H    6.0095229083  6.3079580652  1.0946932689
C    5.4355508433  4.7011196117 -0.2013347726
C    4.5109528524  3.7060748888 -0.4571645101
N   -0.0064152838 -2.0437668973 -0.1080609609
N   -2.0033529095 -0.0175565291 -0.1554973502
C    2.3785931349 -2.3662941998 -0.5515506947
C    1.0792146133 -2.8289380229 -0.3682776089
C    0.6672428949 -4.1984044947 -0.4394925391
H    1.3184470800 -5.0275318194 -0.6342092828
C   -0.6707327611 -4.2219084061 -0.1956892957
H   -1.3249094495 -5.0720516802 -0.1814748419
C   -1.0871418494 -2.8647464871 -0.0058090850
C   -2.4172801315 -2.4406863460  0.1165372845
C   -2.8323751496 -1.0935844731  0.0155418640
C   -4.1839284030 -0.6665401538 -0.0437199607
H   -5.0444288236 -1.2861749506  0.1112357411
C   -4.1662041156  0.6744045401 -0.3325640785
H   -5.0063809801  1.3244267633 -0.4764226824
C   -2.8049132078  1.0642026322 -0.3894421946
C   -3.4497666537 -3.4836729162  0.2169300551
C   -3.4389528633 -4.3802614238  1.2852974578
C   -4.4002508874 -5.3683706951  1.3812840504
C   -5.3790541559 -5.4868176252  0.4071347024
H   -6.1259623677 -6.2633744719  0.4815571373
C   -5.3915157715 -4.6094562359 -0.6639178168
C   -4.4366099239 -3.6138952184 -0.7586849251
Fe  -0.0021062469  0.0121789949  0.2392066053
C    3.4053074385 -3.3207501326 -1.0194132516
C    3.9396947066 -4.3105848562 -0.2027380782
C    3.8378737458 -3.2213399539 -2.3401595750
C    4.8931770009 -5.1816285199 -0.6996330452
C    4.7771210851 -4.1040291812 -2.8375678405
H    5.3142664733 -5.9412249268 -0.0569212375
C    5.3096545606 -5.0846291665 -2.0170949599
H    5.0933033962 -4.0276424350 -3.8679022042
H    6.0483270922 -5.7711873989 -2.4024950071
C   -3.3551294481  3.3253739525 -1.2232400956
C   -3.2808108555  3.6068658127 -2.5854083155
C   -4.3571452471  3.9175950624 -0.4636616795
C   -4.2051755272  4.4433909258 -3.1817873005
C   -5.2727670710  4.7661266449 -1.0621269993
H   -4.1451221537  4.6403349157 -4.2429108289
C   -5.2065236330  5.0238307947 -2.4215082655
H   -6.0464596026  5.2257058051 -0.4639916300
H   -5.9333880628  5.6743242482 -2.8863848277
H    4.0542354340  6.0273858578  2.5780987791
H    6.2796765905  4.8286720315 -0.8635502411
H   -4.3861685337 -6.0498670912  2.2190505689
H   -6.1455148329 -4.7019287946 -1.4318185460
H   -2.4981608006  3.1511145226 -3.1746697699
H   -4.4102698843  3.7198427796  0.5972438726
H    3.6158014317 -4.3809618569  0.8253632600
H    3.4178355888 -2.4525994949 -2.9726610073
H   -2.6803023410 -4.2808823132  2.0478797200
H   -4.4329783330 -2.9444875231 -1.6062990797
H    2.4094809595  4.2543386346  2.1284956655
H    4.6182581764  3.0836244995 -1.3332845674
Cl  -0.0183736082  0.0337518176  2.3792347919
78
aligned d3map frame 232
N   -0.0291693185  2.0588175719 -0.1583018816
N    1.9930081046  0.0050069109 -0.1822653959
C   -2.4368482881  2.4101680134  0.1508387437
C   -1.1163558755  2.8612268287 -0.0007491341
C   -0.7352988158  4.2205602248 -0.2120148173
H   -1.3950824998  5.0640367302 -0.1540648609
C    0.5876904622  4.2145221307 -0.5443012102
H    1.2058884012  5.0530947832 -0.7972738201
C    1.0252078975  2.8548007781 -0.4890351113
C    2.3218237985  2.3962157109 -0.7447988874
C    2.7654341291  1.0735479365 -0.5232544039
C    4.1356954333  0.6931024142 -0.5174804161
H    4.9578241236  1.3430374833 -0.7445824639
C    4.1838592648 -0.6193769075 -0.1293150110
H    5.0557106896 -1.2272687736  0.0101930848
C    2.8393168310 -1.0495844700  0.0401545366
C    3.2884724747  3.3563326861 -1.3104233020
C    3.7660548005  4.4471984459 -0.5910897713
C    4.6229892254  5.3542790055 -1.1888418657
C    4.9982021132  5.1942932634 -2.5128058150
H    5.6518064232  5.9152064682 -2.9813564572
C    4.5326219248  4.1065668680 -3.2331719343
C    3.6937361143  3.1869146084 -2.6330680786
N    0.0207485877 -2.0430687599 -0.0937757230
N   -1.9918426728  0.0069530650 -0.2032716996
C    2.4294396344 -2.3727313662  0.2890199665
C    1.1120811899 -2.8291328949  0.1104688770
C    0.7546944238 -4.1939090351 -0.0978516863
H    1.4239737833 -5.0280808500 -0.0142869941
C   -0.5559919659 -4.2073049096 -0.4791705937
H   -1.1385318773 -5.0589187093 -0.7682552677
C   -1.0199749620 -2.8554584265 -0.4342131709
C   -2.3255089617 -2.4092422167 -0.6818334705
C   -2.7700808337 -1.0788040615 -0.4588242343
C   -4.1413125245 -0.7095637404 -0.3861539527
H   -4.9718510383 -1.3752124887 -0.5154087706
C   -4.1813126340  0.6242020360 -0.0768020806
H   -5.0496131093  1.2331845528  0.0803376658
C   -2.8353131747  1.0704690251 -0.0014077380
C   -3.3280289207 -3.3412865164 -1.2111742813
C   -3.6429910594 -4.5529829990 -0.5973181073
C   -4.5902141088 -5.3945879319 -1.1511766698
C   -5.2396238891 -5.0455551004 -2.3237347774
H   -5.9793580540 -5.7040556269 -2.7539017673
C   -4.9411323177 -3.8397062974 -2.9388011230
C   -3.9994281994 -2.9947873217 -2.3872544286
Fe  -0.0021062469  0.0121789949  0.2392066053
C    3.4414169077 -3.3736545342  0.6702175913
C    3.3525606200 -3.9617519469  1.9308294994
C    4.4806612162 -3.7471219624 -0.1777719071
C    4.3015495673 -4.8776175177  2.3446160757
C    5.4199787457 -4.6744404352  0.2356752238
H    4.2318982435 -5.3135139405  3.3303792176
C    5.3396506294 -5.2344263879  1.4999346384
H    6.2187556398 -4.9616087524 -0.4336422860
H    6.0808453175 -5.9499696366  1.8237764449
C   -3.4774376025  3.4373938389  0.3366858027
C   -3.5080388716  4.1906885451  1.5074935236
C   -4.4237186810  3.6873905954 -0.6544272157
C   -4.4806886313  5.1555552463  1.6916870980
C   -5.3824075000  4.6667052206 -0.4742666083
H   -4.5058864749  5.7220538407  2.6107512949
C   -5.4191846141  5.3976215465  0.7016934776
H   -6.1011668812  4.8607590034 -1.2564413349
H   -6.1746430940  6.1557354926  0.8443441227
H    4.9966888567  6.1943255498 -0.6216041985
H    4.8186855783  3.9778088868 -4.2672790744
H   -4.8280773657 -6.3274996038 -0.6610925915
H   -5.4456389318 -3.5564425285 -3.8512367412
H   -2.7730141344  3.9972876826  2.2760070011
H   -4.3853912735  3.1220280445 -1.5742218820
H    2.5452201999 -3.6753210209  2.5885126198
H    4.5334709000 -3.3245027350 -1.1703435730
H   -3.1681779259 -4.8127249574  0.3369052789
H   -3.7587244780 -2.0604256774 -2.8731661274
H    3.4719139923  4.5702660420  0.4411815980
H    3.3232804003  2.3391599949 -3.1911933225
Cl  -0.0130814209  0.0353830003  2.3784928564
78
aligned d3map frame 233
N   -0.0021581948  2.0536352288 -0.1906602561
N    1.9957550490  0.0438160949 -0.1520752932
C   -2.3520910534  2.3588961791 -0.7834071421
C   -1.0699713717  2.8334666531 -0.5063063805
C   -0.6692582306  4.2105059871 -0.4851483366
H   -1.3101102371  5.0381498331 -0.7180996076
C    0.6347500343  4.2395390240 -0.1063024959
H    1.2664645096  5.0972209655  0.0219188367
C    1.0570793469  2.8760193520  0.0486810641
C    2.3733827412  2.4582565869  0.2315176928
C    2.8136749075  1.1218892487  0.0220115333
C    4.1626373328  0.7185289688 -0.1189209115
H    5.0215305784  1.3482155666  0.0004689326
C    4.1493512186 -0.6196081593 -0.4333265607
H    4.9930511310 -1.2589438143 -0.6095415711
C    2.7925440388 -1.0289236300 -0.4380392773
C    3.3674957398  3.4858744409  0.5854371646
C    3.2539338539  4.1297034359  1.8162427264
C    4.1685209736  5.0933678969  2.1909034781
C    5.1981569940  5.4435261306  1.3341897422
H    5.9095900545  6.2014979076  1.6214188282
C    5.3065884794  4.8251938338  0.0993946704
C    4.4006899955  3.8482791214 -0.2735972639
N   -0.0121810160 -2.0407940182 -0.1246696704
N   -1.9936307476 -0.0152609784 -0.1731462613
C    2.3694406843 -2.3693873109 -0.5935661083
C    1.0763909039 -2.8315813362 -0.3307551429
C    0.6937441673 -4.2066791794 -0.1803679682
H    1.3415309512 -5.0468831942 -0.3212853789
C   -0.6135655568 -4.2200974241  0.1874183034
H   -1.2118715402 -5.0752393741  0.4323807372
C   -1.0701740979 -2.8564399708  0.1632217412
C   -2.3849722511 -2.4221736590  0.3030879747
C   -2.8057003893 -1.0922276554 -0.0172952984
C   -4.1323979527 -0.7441065299 -0.3582935920
H   -4.9751356464 -1.4055631178 -0.3521683573
C   -4.1133191893  0.5814091172 -0.7303459020
H   -4.9423031488  1.1832057634 -1.0498802796
C   -2.7759097272  1.0264247076 -0.5989651157
C   -3.4475533397 -3.3465338993  0.7108906274
C   -4.2636560786 -2.9876575379  1.7887603599
C   -5.2697043425 -3.8284208895  2.2187649470
C   -5.4953142385 -5.0357353114  1.5733933613
H   -6.2881447015 -5.6890137388  1.9064938665
C   -4.7082636643 -5.3914074220  0.4900526489
C   -3.6912647192 -4.5565627457  0.0606054335
Fe  -0.0021062469  0.0121789949  0.2392066053
C    3.3738875417 -3.3327984403 -1.0806450118
C    3.8181556821 -4.4149153035 -0.3247480498
C    3.8710613655 -3.1628458668 -2.3722365755
C    4.7158461690 -5.3205985069 -0.8616922211
C    4.7667377466 -4.0705493879 -2.9063190753
H    5.0452944429 -6.1611187137 -0.2660235696
C    5.1862055534 -5.1562677840 -2.1545004693
H    5.1325640044 -3.9366919321 -3.9163207257
H    5.8783946228 -5.8706244108 -2.5747585095
C   -3.3603009841  3.3201968025 -1.2809353764
C   -3.9536471515  4.2526883433 -0.4364528209
C   -3.7240854685  3.2904289272 -2.6249516614
C   -4.9046978913  5.1304028981 -0.9255733692
C   -4.6630773051  4.1806456850 -3.1141207175
H   -5.3708046808  5.8418325397 -0.2609200233
C   -5.2584767789  5.0982250541 -2.2648747498
H   -4.9319471823  4.1545421254 -4.1603217516
H   -6.0002412004  5.7863686952 -2.6442107610
H    4.0761325441  5.5759932372  3.1525070185
H    6.1026315387  5.1028673462 -0.5775260988
H   -5.8834880209 -3.5431803665  3.0604325051
H   -4.8897660940 -6.3231956628 -0.0279660562
H   -3.6746448688  4.2717349226  0.6094343126
H   -3.2601926771  2.5703523563 -3.2831550652
H    3.4699382195 -4.5351660394  0.6900152851
H    3.5301565838 -2.3225971846 -2.9586528990
H   -4.0804165703 -2.0510759483  2.2949428190
H   -3.1032271338 -4.8206799829 -0.8081287830
H    2.4508443713  3.8529437851  2.4831270044
H    4.4720485454  3.3803056642 -1.2439135113
Cl  -0.0093170589  0.0654287142  2.3792513224
78
aligned d3map frame 234
N   -0.0300894826  2.0534436030 -0.2012609010
N    2.0031685268  0.0271006406 -0.1154730500
C   -2.3948750425  2.3851197619 -0.7194427074
C   -1.0958098035  2.8465779005 -0.4990933693
C   -0.6716567249  4.2175169604 -0.5067019374
H   -1.2794311600  5.0632164447 -0.7611917198
C    0.6317934081  4.2321703256 -0.1210889402
H    1.2825973082  5.0774500883 -0.0091484461
C    1.0356131647  2.8659144393  0.0385008362
C    2.3467370003  2.4477926596  0.2380815837
C    2.8044151512  1.1274031472 -0.0359069372
C    4.1404851636  0.7670538332 -0.3169708804
H    4.9799809369  1.4332374355 -0.3361090909
C    4.1385708076 -0.5820992387 -0.5866545597
H    4.9723134989 -1.1800177567 -0.8954711013
C    2.8100294696 -1.0376605564 -0.4093193098
C    3.3017821739  3.4052559143  0.8239542467
C    3.0939224424  3.7326931933  2.1646059589
C    3.9898227385  4.5426394886  2.8365087275
C    5.0949255019  5.0509749425  2.1735174441
H    5.8081619216  5.6615626632  2.7036080374
C    5.2847009512  4.7648335968  0.8321244621
C    4.3951752152  3.9443690411  0.1568111207
N   -0.0053233249 -2.0399615791 -0.1348537421
N   -2.0008360050  0.0033845732 -0.1412575431
C    2.4081860557 -2.3974577911 -0.4291077870
C    1.0950371624 -2.8355323095 -0.2368599891
C    0.7180686936 -4.1952612197  0.0280619328
H    1.3875769310 -5.0319296352  0.0229867946
C   -0.6044397188 -4.1927614414  0.3301709007
H   -1.2092043671 -5.0287983552  0.6173973504
C   -1.0630572050 -2.8393224011  0.2050722334
C   -2.3684184176 -2.3937600878  0.3870510544
C   -2.8067113234 -1.0681144674  0.0909054715
C   -4.1557183467 -0.7079738768 -0.1235554614
H   -5.0012009558 -1.3603108242 -0.0245522806
C   -4.1567832651  0.6137105667 -0.5082647362
H   -5.0067302247  1.2237466095 -0.7423100435
C   -2.8085403166  1.0459974794 -0.5032990671
C   -3.3893727306 -3.3189804310  0.8931157396
C   -4.0741110744 -2.9826180670  2.0622178561
C   -5.0109056758 -3.8432322059  2.5987487098
C   -5.2960498162 -5.0449465543  1.9690239991
H   -6.0298599117 -5.7174665802  2.3887435787
C   -4.6403980604 -5.3761864202  0.7946693632
C   -3.6924231450 -4.5234363365  0.2600683962
Fe  -0.0021062469  0.0121789949  0.2392066053
C    3.4660297631 -3.4133848160 -0.5243385518
C    3.4145206116 -4.4217073630 -1.4872368481
C    4.5396131385 -3.3935111161  0.3681220585
C    4.4116788110 -5.3772493642 -1.5579002214
C    5.5295568414 -4.3552729870  0.2989186454
H    4.3630537491 -6.1470503656 -2.3140396262
C    5.4711865228 -5.3492880795 -0.6655493661
H    6.3493876362 -4.3299806622  1.0028583840
H    6.2463052878 -6.0995777526 -0.7181259697
C   -3.4256091125  3.3373734704 -1.1644603382
C   -4.0602689602  3.1366206491 -2.3884753858
C   -3.7847625704  4.4473792660 -0.4009960485
C   -5.0211667738  4.0228768892 -2.8393334628
C   -4.7559582604  5.3237239484 -0.8490921389
H   -5.4881963118  3.8616983242 -3.8002656086
C   -5.3758286509  5.1187668264 -2.0706900236
H   -5.0312568857  6.1716933576 -0.2402946219
H   -6.1341676224  5.8032083028 -2.4168927646
H    3.8333301862  4.7657492203  3.8827589854
H    6.1318242171  5.1751406945  0.3124673261
H   -5.5210407144 -3.5785483927  3.5127991485
H   -4.8701017855 -6.3047863036  0.2915613938
H   -3.7861288853  2.2843310420 -2.9933390733
H   -3.3146231233  4.6092473813  0.5597282822
H    2.5956883534 -4.4409657405 -2.1922547780
H    4.5740356170 -2.6327600051  1.1347580899
H   -3.8405057915 -2.0506477318  2.5558501488
H   -3.2011485453 -4.7703061537 -0.6698415538
H    2.2383556387  3.3157043593  2.6773320081
H    4.5349238496  3.7329837657 -0.8928894425
Cl  -0.0000716006  0.0551506931  2.3779341117
78
aligned d3map frame 235
N   -0.0466950767  2.0431636162 -0.2498889065
N    2.0025769335  0.0078713948 -0.0946712055
C   -2.3674095819  2.4241919895  0.3871380395
C   -1.0775323053  2.8702923677  0.1099012615
C   -0.6046581229  4.2261593980  0.1080994675
H   -1.1724878374  5.0870880589  0.3960833390
C    0.6829936588  4.2002075737 -0.3212744458
H    1.3509767063  5.0289916263 -0.4548390219
C    1.0407957065  2.8213587785 -0.4948226758
C    2.3512295318  2.3762456119 -0.6966497470
C    2.8019624172  1.0608311134 -0.4498904724
C    4.1492170500  0.6259089222 -0.4959282773
H    4.9913499221  1.2313219159 -0.7682137769
C    4.1541212181 -0.7008152045 -0.1302560665
H    4.9988117473 -1.3577680642 -0.0585118371
C    2.8074162873 -1.0681438147  0.0969419170
C    3.3240938330  3.3821293095 -1.1592708776
C    4.4145513289  3.7816479404 -0.3921473963
C    5.2900229108  4.7387053417 -0.8710244343
C    5.1014230908  5.2932654468 -2.1264946394
H    5.7911741720  6.0352293414 -2.4968661846
C    4.0229293350  4.8963129992 -2.8998390204
C    3.1331100247  3.9568944865 -2.4149200396
N    0.0114422861 -2.0304244052 -0.1843527884
N   -2.0013313671  0.0183144536 -0.1211437413
C    2.3714616548 -2.4115427318  0.3180916301
C    1.0720383659 -2.8496989670  0.0796699491
C    0.6315401625 -4.2161045536  0.0187744649
H    1.2453002130 -5.0734483177  0.2123862733
C   -0.6769388207 -4.1974417777 -0.3421699810
H   -1.3265602919 -5.0339037947 -0.5113615558
C   -1.0728229847 -2.8205976508 -0.4238705551
C   -2.3713024274 -2.3656364852 -0.6562535940
C   -2.8004142364 -1.0309136582 -0.4846596596
C   -4.1465237539 -0.5943352944 -0.5304120236
H   -4.9921384417 -1.2041519036 -0.7815140891
C   -4.1477532879  0.7331652246 -0.1625652284
H   -4.9905460979  1.3933846016 -0.0948172884
C   -2.8040243334  1.0905616009  0.0824631870
C   -3.4110031320 -3.3348714162 -1.0568074803
C   -3.8854013700 -4.3038255102 -0.1775942727
C   -4.8851286889 -5.1736321481 -0.5735906411
C   -5.4152410846 -5.0945578481 -1.8508997942
H   -6.1964809162 -5.7754998923 -2.1541627457
C   -4.9442554630 -4.1368166629 -2.7328523499
C   -3.9535714308 -3.2575187401 -2.3366140836
Fe  -0.0021062469  0.0121789949  0.2392066053
C    3.3964441232 -3.3533389545  0.7881828481
C    4.0211655321 -3.0794502326  2.0059327803
C    3.7666125625 -4.4978333724  0.0854859697
C    4.9639269096 -3.9457500617  2.5237360825
C    4.7227067178 -5.3545792132  0.6009775103
H    5.4243368734 -3.7288754644  3.4761690787
C    5.3164463532 -5.0885476006  1.8234072000
H    5.0086471435 -6.2356621643  0.0443238800
H    6.0546796475 -5.7654109591  2.2268059937
C   -3.3584761762  3.2804576128  1.0381379903
C   -3.9947539501  2.7604207105  2.1711611817
C   -3.6844708906  4.5724349455  0.6273594453
C   -4.8906242100  3.5221119314  2.8926806553
C   -4.5850697449  5.3309150990  1.3525006683
H   -5.3593277944  3.1066206203  3.7721184118
C   -5.1821020514  4.8163799727  2.4918407854
H   -4.8269275273  6.3331091734  1.0280110733
H   -5.8761592816  5.4168606439  3.0612464931
H    6.1223348816  5.0569957978 -0.2606446527
H    3.8735714732  5.3208968729 -3.8814569673
H   -5.2581427637 -5.9142484651  0.1187569460
H   -5.3513402077 -4.0686368284 -3.7311624196
H   -3.7483023329  1.7599639034  2.4925021713
H   -3.2626035399  4.9682555282 -0.2847719649
H    3.7378869825 -2.1912422035  2.5509855064
H    3.3258575827 -4.6969768947 -0.8803971196
H   -3.4816858314 -4.3538044020  0.8230602339
H   -3.5860128434 -2.5056358659 -3.0200541830
H    4.5519471018  3.3550257779  0.5919410228
H    2.2891487122  3.6459521321 -3.0135758994
Cl  -0.0157828399  0.0506839569  2.3780888402
78
aligned d3map frame 236
N   -0.0282969063  2.0506869863 -0.2134889122
N    2.0008308895 -0.0091309380 -0.1206173814
C   -2.3961928341  2.4186303203  0.2477221516
C   -1.0892128264  2.8653183081  0.0574785739
C   -0.6369788630  4.2304882010  0.0629832873
H   -1.2474245767  5.0817261410  0.2870369417
C    0.6767447022  4.2184716978 -0.2755001581
H    1.3389117270  5.0551508974 -0.3913460969
C    1.0653445405  2.8425332956 -0.4042477857
C    2.3640810236  2.3892389152 -0.6235442026
C    2.7962281000  1.0504154890 -0.4544683956
C    4.1511740088  0.6423227203 -0.4478666936
H    4.9954053522  1.2637047518 -0.6755704710
C    4.1669933235 -0.6818816843 -0.0650234497
H    5.0253942584 -1.3094317316  0.0665464973
C    2.8217753104 -1.0731868938  0.1118993767
C    3.4093515781  3.3733392526 -0.9767641023
C    3.9113480370  4.2692369309 -0.0381765930
C    4.9186462302  5.1525990490 -0.3829371293
C    5.4283131047  5.1571853327 -1.6703226607
H    6.2194487641  5.8429660990 -1.9348470779
C    4.9231573049  4.2799397200 -2.6158725898
C    3.9230625980  3.3910012815 -2.2717685956
N    0.0220465572 -2.0335833131 -0.1533247504
N   -2.0009129645 -0.0066899901 -0.1414670290
C    2.3739319484 -2.3921025315  0.4114286340
C    1.0731811618 -2.8298643671  0.1902008709
C    0.6565758731 -4.2044517142  0.1436357533
H    1.2947949089 -5.0367227108  0.3649512077
C   -0.6374371662 -4.2128601409 -0.2653214845
H   -1.2754842830 -5.0594208183 -0.4258765028
C   -1.0415488127 -2.8400110526 -0.4124414040
C   -2.3468659147 -2.4073371773 -0.6411803677
C   -2.7902318364 -1.0690003615 -0.4882432588
C   -4.1327315920 -0.6376517096 -0.6073033486
H   -4.9681106718 -1.2448448430 -0.8979797871
C   -4.1491984755  0.7034865585 -0.2874748232
H   -4.9974053548  1.3636949005 -0.2694032852
C   -2.8152227567  1.0744467200 -0.0081072993
C   -3.3609918922 -3.4140127019 -1.0022940231
C   -4.4187856397 -3.7066916420 -0.1430596094
C   -5.3857619470 -4.6210045400 -0.5131179724
C   -5.3155503190 -5.2478810476 -1.7461043759
H   -6.0845762227 -5.9468385599 -2.0480624771
C   -4.2599432545 -4.9718373854 -2.6008411375
C   -3.2821191380 -4.0676824947 -2.2296968796
Fe  -0.0021062469  0.0121789949  0.2392066053
C    3.3387144692 -3.3512251639  0.9817013100
C    3.1749591575 -3.7194793694  2.3173596408
C    4.3988454494 -3.8864195960  0.2568991631
C    4.0676548075 -4.5846979651  2.9212021998
C    5.2808436119 -4.7664501387  0.8605701792
H    3.9387897393 -4.8506048690  3.9605165749
C    5.1238974792 -5.1104744026  2.1939218849
H    6.0951033828 -5.1865390788  0.2865987213
H    5.8212199799 -5.7880194742  2.6655929302
C   -3.4446245772  3.3293236390  0.7155894786
C   -4.1915365715  2.9375025164  1.8325398175
C   -3.7386818857  4.5549161376  0.1167779847
C   -5.1685933246  3.7610050747  2.3548456159
C   -4.7230362880  5.3755987123  0.6398994336
H   -5.7244619205  3.4474612395  3.2267741325
C   -5.4349030002  4.9891171681  1.7642709101
H   -4.9397492773  6.3215643018  0.1631405018
H   -6.1992972882  5.6335324046  2.1739381589
H    5.3134102018  5.8346301561  0.3575924820
H    5.3142463913  4.2876467557 -3.6230428361
H   -6.2070680387 -4.8372911993  0.1640905836
H   -4.2028700412 -5.4593306845 -3.5641360117
H   -3.9740896761  1.9858738116  2.2979167485
H   -3.2180023652  4.8499864920 -0.7840870269
H    2.3514550938 -3.2998750200  2.8787006809
H    4.5151294453 -3.6294711078 -0.7860644774
H   -4.4666801190 -3.2151609214  0.8171560641
H   -2.4641651432 -3.8451240651 -2.9012985292
H    3.5207513468  4.2481999686  0.9699709250
H    3.5313075184  2.7041585307 -3.0087945130
Cl  -0.0271664078  0.0491408631  2.3778641783
78
aligned d3map frame 237
N   -0.0261412276  2.0438546265 -0.2422044152
N    2.0068810550  0.0095277856 -0.0897491357
C   -2.4138440999  2.4455530821  0.1670203929
C   -1.1021446037  2.8611428008 -0.0989362452
C   -0.7088960495  4.2130125284 -0.3805543979
H   -1.3665273554  5.0605823839 -0.3675455928
C    0.6125378733  4.1864194945 -0.6983776642
H    1.2437379112  5.0095982204 -0.9727603694
C    1.0441591943  2.8249206148 -0.5766207445
C    2.3633019322  2.3927172825 -0.6564414775
C    2.8075776528  1.0814162728 -0.3700057251
C    4.1651324445  0.6795328580 -0.3449452167
H    5.0071535037  1.3142873615 -0.5419560357
C    4.1785193731 -0.6576543833 -0.0231842275
H    5.0323782177 -1.3013936633  0.0692493718
C    2.8281884937 -1.0600015948  0.1100505483
C    3.3960181266  3.3792883118 -1.0446124136
C    4.2215008523  3.9733270814 -0.0971690602
C    5.1919057132  4.8785481370 -0.4876451417
C    5.3586173259  5.1896649359 -1.8275677307
H    6.1236683836  5.8892125970 -2.1307149870
C    4.5413863516  4.5984755643 -2.7768618230
C    3.5608815011  3.7041407477 -2.3883164776
N    0.0353417020 -2.0320543953 -0.1758976697
N   -2.0092016216  0.0233965307 -0.1080527867
C    2.4115379680 -2.4098327526  0.2441074254
C    1.1117310262 -2.8487132937  0.0023628061
C    0.6988779414 -4.2169586691 -0.1412051158
H    1.3459336785 -5.0661396570 -0.0402791685
C   -0.6250514687 -4.2017269953 -0.4421275676
H   -1.2713161547 -5.0329777046 -0.6405706604
C   -1.0444710299 -2.8287456366 -0.4247323187
C   -2.3608044366 -2.3963495109 -0.5259896482
C   -2.8035243189 -1.0720735575 -0.3003138685
C   -4.1640629357 -0.6935109135 -0.2043548894
H   -5.0048289831 -1.3508259704 -0.3194452641
C   -4.1866538283  0.6536308010  0.0709533373
H   -5.0517511980  1.2542321068  0.2573406379
C   -2.8399797537  1.0925714674  0.0853067566
C   -3.3899278257 -3.3936337636 -0.9012303980
C   -4.1466321433 -4.0769714304  0.0448453925
C   -5.1056131249 -4.9897492002 -0.3592458192
C   -5.3232785227 -5.2259284467 -1.7073527563
H   -6.0750523518 -5.9358865677 -2.0189871908
C   -4.5725179680 -4.5494045927 -2.6540452907
C   -3.6087961946 -3.6405073279 -2.2530122511
Fe  -0.0021062469  0.0121789949  0.2392066053
C    3.4532214547 -3.3967472764  0.5886498227
C    3.9370755058 -4.3166104250 -0.3371137564
C    3.9732313791 -3.3977733109  1.8808896333
C    4.9209625768 -5.2161053127  0.0236273781
C    4.9410923610 -4.3139110377  2.2442756758
H    5.3012329249 -5.9135347748 -0.7072678782
C    5.4228297796 -5.2196858892  1.3144159703
H    5.3246894283 -4.3152619835  3.2538497529
H    6.1854588794 -5.9277807273  1.5967945730
C   -3.3853811769  3.4989632513  0.4878370635
C   -4.5561315215  3.7050356960 -0.2404743715
C   -3.1083324709  4.3480017992  1.5627536710
C   -5.4278448238  4.7186309277  0.1066262685
C   -3.9853974197  5.3569250343  1.9087465827
H   -6.3253125138  4.8745937608 -0.4772901848
C   -5.1506691182  5.5439237344  1.1845896405
H   -3.7615720194  6.0001060944  2.7470465814
H   -5.8289532852  6.3469722099  1.4427639376
H    5.8255061460  5.3396978720  0.2560462437
H    4.6688329651  4.8318325291 -3.8240808494
H   -5.6884587547 -5.5176904616  0.3824076744
H   -4.7382934476 -4.7279863682 -3.7073705490
H   -4.7636912706  3.0883818693 -1.1011613389
H   -2.2049076981  4.1909914126  2.1341809116
H    3.5538590223 -4.3061665844 -1.3466656569
H    3.5952070373 -2.6827992357  2.5987967552
H   -3.9756122787 -3.8900808918  1.0954326835
H   -3.0196679970 -3.1100985811 -2.9876835927
H    4.0930366901  3.7250320706  0.9461230631
H    2.9234663605  3.2376208087 -3.1267317727
Cl   0.0013627922  0.0522300771  2.3778629708
78
aligned d3map frame 238
N   -0.0076327512  2.0545432084 -0.1998000500
N    1.9977662952  0.0273809440 -0.1360680588
C   -2.4091325211  2.3918624876 -0.5906934218
C   -1.1197697019  2.8302915589 -0.2531081250
C   -0.7900348852  4.1656253605  0.1616671903
H   -1.4922438705  4.9701292905  0.2614658299
C    0.5320754362  4.1747118920  0.4643722221
H    1.1079516271  4.9880522490  0.8599807823
C    1.0359924544  2.8563873611  0.1915378816
C    2.3613851662  2.4522945852  0.2478959003
C    2.7951164767  1.1264232951 -0.0795536475
C    4.1126267422  0.7838762104 -0.4540096917
H    4.9398815476  1.4628320611 -0.5211952240
C    4.1081960194 -0.5632176550 -0.7390315989
H    4.9348037630 -1.1691364632 -1.0548485976
C    2.7873450107 -1.0235709146 -0.5210334562
C    3.4058267008  3.4211919902  0.5886148716
C    4.3468544319  3.1108105511  1.5724215112
C    5.3311310785  4.0176123675  1.9132880974
C    5.4055723872  5.2430583927  1.2697002603
H    6.1792459902  5.9486055872  1.5334479632
C    4.4871240855  5.5552858841  0.2807874150
C    3.4944358123  4.6551928113 -0.0571727974
N    0.0133353864 -2.0411911279 -0.1338175220
N   -1.9989461940 -0.0001300053 -0.1541874314
C    2.3905760842 -2.3770400788 -0.5700149889
C    1.1067437283 -2.8340120559 -0.2739282846
C    0.7337767880 -4.2057329985 -0.0512232984
H    1.4071563759 -5.0395222659 -0.1143295803
C   -0.5805672855 -4.2116903649  0.2829923911
H   -1.2000836066 -5.0499837074  0.5372517048
C   -1.0423445420 -2.8522283788  0.1892306019
C   -2.3504762101 -2.4204569535  0.2759578869
C   -2.7731750968 -1.1136399528 -0.1292025898
C   -4.0593801347 -0.8200054754 -0.6227176767
H   -4.8590693421 -1.5258991348 -0.7382696876
C   -4.0591094147  0.5181475829 -0.9542427654
H   -4.8556084484  1.0712702037 -1.4136559776
C   -2.7853876938  1.0273137213 -0.6071454823
C   -3.4186556924 -3.2824320743  0.8173325205
C   -3.8727319977 -2.9807615346  2.1001448116
C   -4.8966291865 -3.7110347983  2.6695518151
C   -5.4934554441 -4.7376556244  1.9566418139
H   -6.3059422863 -5.2970860804  2.3940591136
C   -5.0480328338 -5.0402632877  0.6817730586
C   -4.0091809352 -4.3230519915  0.1138723257
Fe  -0.0021062469  0.0121789949  0.2392066053
C    3.4267359958 -3.3672266108 -0.9397446730
C    3.7448264265 -3.5477691532 -2.2821127659
C    4.0974789263 -4.1123872431  0.0229090455
C    4.7138850008 -4.4612564644 -2.6544256543
C    5.0730496758 -5.0191558639 -0.3526263791
H    4.9495011686 -4.5973521910 -3.6999443199
C    5.3820875619 -5.1974785017 -1.6902824012
H    5.5957976891 -5.5874573104  0.4024581572
H    6.1437900259 -5.9062797593 -1.9815439458
C   -3.4265869183  3.4078203377 -0.8630124072
C   -3.1428210820  4.4660879910 -1.7308211956
C   -4.6899028562  3.3564274324 -0.2696080768
C   -4.0937617201  5.4298057655 -2.0040377250
C   -5.6395200709  4.3196645763 -0.5492131406
H   -3.8572778185  6.2396260617 -2.6785113244
C   -5.3482267499  5.3585675560 -1.4190415224
H   -6.6121205525  4.2637999520 -0.0820246512
H   -6.0926000502  6.1100943901 -1.6355916031
H    6.0453027272  3.7689620929  2.6844767665
H    4.5478297912  6.5034708286 -0.2331978331
H   -5.2318819122 -3.4758340562  3.6693592500
H   -5.5165238769 -5.8366650281  0.1230730643
H   -2.1742784322  4.5116044796 -2.2061765762
H   -4.9083377621  2.5705313816  0.4372925637
H    3.2234566718 -2.9688576314 -3.0302202951
H    3.8578819447 -3.9682431444  1.0661082765
H   -3.4038967616 -2.1746179350  2.6448754679
H   -3.6687191485 -4.5542719111 -0.8851155935
H    4.2809158212  2.1610383550  2.0820549679
H    2.7988005968  4.8878855021 -0.8497324770
Cl  -0.0370488875  0.0365857901  2.3781952752
78
aligned d3map frame 239
N    0.0186659569  2.0481102530 -0.1975489429
N    1.9952891120  0.0532507066 -0.1655572685
C   -2.3413566071  2.3464809086 -0.8194069857
C   -1.0302372386  2.8204705036 -0.5947081492
C   -0.6221045912  4.1763695967 -0.6401229891
H   -1.2457127232  5.0063832929 -0.9103575150
C    0.6943711968  4.2082602950 -0.2371709399
H    1.3296700321  5.0687556920 -0.1569254821
C    1.0762999102  2.8700552118  0.0190184206
C    2.4006323164  2.4290229904  0.3070235447
C    2.8172356235  1.1075277145  0.1445829230
C    4.1739820757  0.6474636167  0.1718913163
H    5.0259747479  1.2347297076  0.4498431974
C    4.1603805713 -0.6559919929 -0.2161039859
H    4.9983313470 -1.3182271804 -0.3168784113
C    2.7910797722 -1.0275576671 -0.4031480885
C    3.3606422826  3.4553361426  0.7293561527
C    3.0632547946  4.2124456274  1.8643811415
C    3.9495045374  5.1646644137  2.3278093916
C    5.1406286283  5.3913217504  1.6566141070
H    5.8335746788  6.1366142754  2.0171116937
C    5.4338030775  4.6631098521  0.5160522276
C    4.5535078468  3.7016320125  0.0528746857
N    0.0026073807 -2.0359379876 -0.1298749821
N   -1.9980027863 -0.0118388801 -0.1802551019
C    2.3766010917 -2.3375870594 -0.6798818062
C    1.0589695788 -2.8149388905 -0.5026346356
C    0.6221715490 -4.1573761072 -0.6357818789
H    1.2227981330 -4.9858245001 -0.9554505225
C   -0.7092542021 -4.1799223228 -0.2951984547
H   -1.3698981781 -5.0246732958 -0.2830069940
C   -1.0790451475 -2.8440796381  0.0007983346
C   -2.4160362394 -2.4017689953  0.2083253433
C   -2.8284421685 -1.0797915420  0.0358261498
C   -4.1878146236 -0.6460520628 -0.0924724768
H   -5.0558149507 -1.2494027293  0.0828072603
C   -4.1561443354  0.6517036185 -0.4950671606
H   -4.9917772411  1.2806806110 -0.7305584804
C   -2.7833899623  1.0550423025 -0.5162327655
C   -3.4120659392 -3.4449335198  0.4895348132
C   -3.2578506448 -4.2441143663  1.6228507645
C   -4.1902626322 -5.2171071650  1.9279411446
C   -5.2830020472 -5.4203003849  1.1000514073
H   -6.0122734292 -6.1801471061  1.3402618529
C   -5.4306193951 -4.6522312897 -0.0422164405
C   -4.5025521442 -3.6741981572 -0.3475649381
Fe  -0.0021062469  0.0121789949  0.2392066053
C    3.3951638365 -3.2666758095 -1.1935994503
C    3.7190004913 -4.4601424753 -0.5529545336
C    4.0413290669 -2.9458668846 -2.3875174430
C    4.6524045470 -5.3182048239 -1.1051457286
C    4.9613891285 -3.8132637170 -2.9439322614
H    4.9016246189 -6.2376789472 -0.5964380965
C    5.2669880000 -5.0044952237 -2.3064240897
H    5.4393976775 -3.5618864189 -3.8792204203
H    5.9840794113 -5.6839847200 -2.7425350628
C   -3.2918538774  3.2753107927 -1.4609463927
C   -3.0596217343  3.6173851631 -2.7916439525
C   -4.4169122129  3.7848171838 -0.8206359895
C   -3.9495994336  4.4226454131 -3.4769147117
C   -5.2980669287  4.6032746292 -1.5055524830
H   -3.7673806471  4.6608763438 -4.5146242066
C   -5.0743233941  4.9154187442 -2.8361360723
H   -6.1674493806  4.9962056902 -0.9990512134
H   -5.7716084566  5.5422239590 -3.3719848306
H    3.7113673039  5.7306042724  3.2163152990
H    6.3547432875  4.8452996039 -0.0185301864
H   -4.0652653851 -5.8209216033  2.8143023107
H   -6.2704891992 -4.8172767138 -0.7013173481
H   -2.1852740242  3.2272271009 -3.2919115278
H   -4.5892259694  3.5489381643  0.2192474753
H    3.2534278968 -4.6978487340  0.3916906922
H    3.7955870579 -2.0195674381 -2.8861812121
H   -2.4110674570 -4.0788421600  2.2727079041
H   -4.6001255034 -3.1014980837 -1.2580316770
H    2.1396997671  4.0230073267  2.3906915007
H    4.7752678197  3.1602655508 -0.8549016960
Cl  -0.0025018246  0.0435576346  2.3783428599
78
aligned d3map frame 240
N    0.0145120038  2.0475105670 -0.2090290450
N    1.9997407499  0.0381723502 -0.1412928438
C   -2.3740442902  2.3620441418 -0.7133299385
C   -1.0462343955  2.8237599031 -0.5571924007
C   -0.6408455323  4.1842634671 -0.5894199566
H   -1.2679928751  5.0204067480 -0.8273444814
C    0.6845547088  4.2144615288 -0.2230848025
H    1.3208222214  5.0738048008 -0.1305144986
C    1.0771493537  2.8722493747 -0.0059423529
C    2.3939902535  2.4293859316  0.2689591645
C    2.8124600056  1.1127880816  0.1152813920
C    4.1811125933  0.7005084173  0.0260130948
H    5.0217216200  1.3405023789  0.1954729214
C    4.1801914775 -0.6064862645 -0.3439509731
H    5.0230758347 -1.2470800438 -0.5251239590
C    2.8093116288 -1.0217152568 -0.4219354540
C    3.3939245156  3.4542960247  0.6418043175
C    3.6548294079  3.6851286747  1.9885955661
C    4.5607065651  4.6614765818  2.3660476434
C    5.2212900256  5.4087615214  1.4060245238
H    5.9292227185  6.1706285286  1.7002024572
C    4.9734764515  5.1737367444  0.0625800715
C    4.0616224702  4.2059600642 -0.3188663153
N    0.0124325048 -2.0333778749 -0.1434649345
N   -2.0032548190 -0.0126878782 -0.1552495847
C    2.3999746624 -2.3382183110 -0.6577834591
C    1.0787480575 -2.8104782820 -0.4889057129
C    0.6520629650 -4.1561465335 -0.6230721477
H    1.2703343177 -4.9817492268 -0.9153488144
C   -0.6875254910 -4.1809993437 -0.3164862244
H   -1.3392139327 -5.0340546347 -0.3171473036
C   -1.0670481222 -2.8476346119 -0.0257349481
C   -2.4030433223 -2.4132319148  0.2112642590
C   -2.8228007998 -1.0899455146  0.0771273082
C   -4.1871472647 -0.6538014316  0.0344489184
H   -5.0432490261 -1.2669307272  0.2336119026
C   -4.1762556079  0.6574512537 -0.3236851737
H   -5.0225509201  1.2977451434 -0.4866481873
C   -2.8063391487  1.0639947620 -0.4103266661
C   -3.3604010388 -3.4774272227  0.5437373735
C   -3.0802906565 -4.2880253376  1.6479392859
C   -3.9353610992 -5.3109198487  2.0067803576
C   -5.0784553177 -5.5560543431  1.2611368670
H   -5.7423211040 -6.3619727601  1.5362056885
C   -5.3584782906 -4.7698716654  0.1562257320
C   -4.5080398720 -3.7377994864 -0.2020215256
Fe  -0.0021062469  0.0121789949  0.2392066053
C    3.4207688678 -3.3076763253 -1.0926259707
C    3.7849067328 -4.3941276659 -0.2995769533
C    4.0221184179 -3.1517039798 -2.3405976128
C    4.7252650288 -5.3017791453 -0.7502471583
C    4.9428345826 -4.0760288130 -2.7993962999
H    5.0172884772 -6.1311700967 -0.1240383152
C    5.2972947037 -5.1531101914 -2.0052843655
H    5.3853466497 -3.9528095782 -3.7779706227
H    6.0186854289 -5.8750795058 -2.3616238443
C   -3.3365426974  3.3472844451 -1.2350565528
C   -4.4403175163  3.7995799885 -0.5155433152
C   -3.1134799976  3.8600880012 -2.5149043131
C   -5.3046225122  4.7269494775 -1.0719371527
C   -3.9847867750  4.7764758521 -3.0708181424
H   -6.1524864149  5.0745461503 -0.4993766840
C   -5.0862746758  5.2121832870 -2.3509914145
H   -3.8024077922  5.1556278901 -4.0658385679
H   -5.7670428140  5.9291349121 -2.7874950530
H    4.7519071204  4.8408609466  3.4149080774
H    5.4936735184  5.7486603090 -0.6893700917
H   -3.7089770640 -5.9214422933  2.8683274269
H   -6.2404642822 -4.9659146590 -0.4368673516
H   -4.5985411703  3.4455252703  0.4936898162
H   -2.2546990115  3.5172675011 -3.0744200605
H    3.3379708500 -4.5057766624  0.6784800777
H    3.7408887070 -2.3114880818 -2.9601511778
H   -2.1893568506 -4.0927067886  2.2272334356
H   -4.7154586205 -3.1544423659 -1.0865166572
H    3.1362546225  3.1016111138  2.7353270164
H    3.8631623190  4.0180522090 -1.3650402230
Cl   0.0240481392  0.0763844335  2.3797567359
78
aligned d3map frame 241
N   -0.0282062221  2.0492347120 -0.2276608715
N    2.0037072428  0.0154720563 -0.0897672905
C   -2.4123864265  2.3586150086 -0.7032553235
C   -1.1114461097  2.8255460109 -0.4996228049
C   -0.7110532382  4.2072995343 -0.4932075873
H   -1.3515781358  5.0392113790 -0.7130365021
C    0.5961795554  4.2432608235 -0.1349586650
H    1.2197978336  5.1046870025  0.0031164806
C    1.0355953572  2.8805170300 -0.0070586087
C    2.3361913700  2.4571797569  0.2275588871
C    2.7884775426  1.1167005416  0.0311995029
C    4.1369301016  0.7711753684 -0.2120195762
H    4.9643113776  1.4537470322 -0.1994739978
C    4.1556819974 -0.5753044684 -0.4998955689
H    5.0055648280 -1.1711953766 -0.7692407131
C    2.8228951724 -1.0381319194 -0.3906561881
C    3.3623828626  3.4166340495  0.6680360581
C    3.9368367111  3.2195939586  1.9239632380
C    4.8955334683  4.0928275216  2.3989996493
C    5.3108985490  5.1596592756  1.6177778620
H    6.0687462227  5.8365851682  1.9835055221
C    4.7573756356  5.3521587593  0.3634968727
C    3.7827264270  4.4907092663 -0.1093745686
N   -0.0026882550 -2.0355232047 -0.1647814382
N   -2.0025620632 -0.0074282424 -0.1148773646
C    2.4074825486 -2.3879934798 -0.4961187843
C    1.0955421856 -2.8257300085 -0.2937429689
C    0.7425202522 -4.1841884334  0.0170008783
H    1.4181206791 -5.0171628053 -0.0106298801
C   -0.5543176619 -4.1776831419  0.4139389357
H   -1.1347617070 -5.0060885473  0.7686692540
C   -1.0312999334 -2.8298198689  0.2738503534
C   -2.3167937224 -2.3775335302  0.5352447634
C   -2.7891616745 -1.0769628190  0.1675875823
C   -4.1436001657 -0.7371694261 -0.0246844704
H   -4.9767885619 -1.3988978936  0.1123546405
C   -4.1674921626  0.5763221576 -0.4461629065
H   -5.0290006640  1.1718255225 -0.6790761523
C   -2.8242968036  1.0217218284 -0.4780374875
C   -3.2381316320 -3.2081102414  1.3212480746
C   -3.6427859937 -2.6852146352  2.5521450361
C   -4.4173296596 -3.4368485766  3.4122937036
C   -4.8253717070 -4.7102249364  3.0465574409
H   -5.4263557736 -5.3001158873  3.7228877509
C   -4.4615522076 -5.2198756517  1.8115190494
C   -3.6674837825 -4.4790220553  0.9528800046
Fe  -0.0021062469  0.0121789949  0.2392066053
C    3.4440342155 -3.4139727394 -0.6906149822
C    3.3887318586 -4.2792064331 -1.7815372676
C    4.4871871259 -3.5507610346  0.2252214772
C    4.3616360537 -5.2458612165 -1.9600774655
C    5.4467538397 -4.5296850176  0.0528031205
H    4.3160277296 -5.9014555789 -2.8177478997
C    5.3912476743 -5.3768536718 -1.0424819395
H    6.2410098338 -4.6354348171  0.7777213659
H    6.1455418709 -6.1379650048 -1.1776037215
C   -3.4505026074  3.3091511411 -1.1380279394
C   -4.0708433764  3.1151726303 -2.3719130916
C   -3.8336088614  4.3981529237 -0.3594383509
C   -5.0282717072  4.0014417532 -2.8261780142
C   -4.8033506608  5.2755647315 -0.8104979894
H   -5.4884108769  3.8461886262 -3.7912170373
C   -5.3967661860  5.0861610844 -2.0466683860
H   -5.0972106226  6.1110247259 -0.1920343126
H   -6.1466737256  5.7778493548 -2.4010652087
H    5.3220801569  3.9414157135  3.3796773220
H    5.0897807752  6.1757653663 -0.2534681602
H   -4.6973190670 -3.0320216751  4.3736984224
H   -4.7947033795 -6.2048123042  1.5171752434
H   -3.7796530409  2.2699154725 -2.9786333375
H   -3.3855938851  4.5400339268  0.6133393787
H    2.5871034165 -4.1768817942 -2.4991368499
H    4.5195527402 -2.8984106159  1.0853876329
H   -3.3060207936 -1.6991602438  2.8365315304
H   -3.3976794492 -4.8754033479 -0.0150663632
H    3.6068395870  2.3861887568  2.5266206132
H    3.3638835379  4.6268993403 -1.0956514230
Cl  -0.0225923545  0.0131872289  2.3786795831
78
aligned d3map frame 242
N    0.0055103286  2.0464779173 -0.2188535406
N    2.0020514896  0.0336388885 -0.1403830401
C   -2.3783459397  2.3363430128 -0.7416613287
C   -1.0558693483  2.8099651172 -0.6086427885
C   -0.6413863070  4.1563235292 -0.7529632126
H   -1.2698224524  4.9716515671 -1.0540747192
C    0.6920497283  4.1963578867 -0.4097766072
H    1.3434549602  5.0467978246 -0.4065556862
C    1.0714540097  2.8710847472 -0.0891349685
C    2.4066370995  2.4380176479  0.1775512317
C    2.8177903770  1.1134148992  0.0819521191
C    4.1855804314  0.6691144043  0.0867094515
H    5.0347936571  1.2922722266  0.2861826624
C    4.1802692485 -0.6523299184 -0.2147240827
H    5.0241883008 -1.3026131776 -0.3318248305
C    2.8059883476 -1.0559689318 -0.3276279900
C    3.3809328488  3.4867268774  0.5111384718
C    3.1527307468  4.2763784049  1.6380185288
C    4.0632232732  5.2456521712  2.0121615059
C    5.2064065408  5.4572647046  1.2582145646
H    5.9187623559  6.2136438883  1.5524769897
C    5.4267219954  4.6975965743  0.1206773846
C    4.5234986494  3.7197205475 -0.2518160574
N   -0.0101896633 -2.0289164666 -0.1561677863
N   -2.0025687903 -0.0311298016 -0.1599701068
C    2.3871737821 -2.3598753066 -0.5868022169
C    1.0471588280 -2.8094065814 -0.5234349719
C    0.6135876276 -4.1488769309 -0.6650531587
H    1.2250247691 -4.9813246179 -0.9520745652
C   -0.7293184214 -4.1651065133 -0.3505818772
H   -1.3896771478 -5.0097068324 -0.3621886282
C   -1.0897354959 -2.8382397454 -0.0295620160
C   -2.4146227301 -2.4019170802  0.2971650055
C   -2.8286771845 -1.0814666818  0.1532423920
C   -4.1886743575 -0.6155377437  0.1802540431
H   -5.0386986481 -1.2052369683  0.4617391721
C   -4.1739554391  0.6765006243 -0.2326356010
H   -5.0046663726  1.3408168256 -0.3718396486
C   -2.7997502662  1.0488681787 -0.4142807299
C   -3.3391954078 -3.4491913672  0.7403363064
C   -2.9483425978 -4.2533405765  1.8143308074
C   -3.7851668563 -5.2386483309  2.3015686319
C   -5.0234257828 -5.4499941828  1.7146753240
H   -5.6811210220 -6.2182130521  2.0963723710
C   -5.4133098407 -4.6768271330  0.6319058897
C   -4.5794003714 -3.6878452788  0.1445283605
Fe  -0.0021062469  0.0121789949  0.2392066053
C    3.4040966067 -3.3762023844 -0.9214131826
C    4.3318990252 -3.8153562877  0.0175621599
C    3.4256742385 -3.9253320460 -2.2012547304
C    5.2620982694 -4.7832837273 -0.3179237817
C    4.3623749651 -4.8838811563 -2.5364293675
H    5.9700479934 -5.1239139420  0.4230164542
C    5.2817346111 -5.3182360658 -1.5951405707
H    4.3756492876 -5.2964144178 -3.5344521723
H    6.0104132211 -6.0719372190 -1.8536852076
C   -3.3884178174  3.2870741274 -1.2603674994
C   -4.1972204555  4.0539121286 -0.4302682956
C   -3.5250742262  3.4043923696 -2.6403859934
C   -5.1301501799  4.9185880930 -0.9755555099
C   -4.4625277875  4.2655215845 -3.1819827720
H   -5.7552496347  5.5134353350 -0.3259156224
C   -5.2685723490  5.0245661134 -2.3503729564
H   -4.5629786347  4.3418834159 -4.2545729021
H   -6.0019140041  5.6964540725 -2.7715022777
H    3.8788515595  5.8374810102  2.8969343941
H    6.3083704549  4.8700427539 -0.4796197229
H   -3.4709980670 -5.8432419522  3.1398040021
H   -6.3702877135 -4.8526759852  0.1597965801
H   -4.0931555970  3.9681358958  0.6413639809
H   -2.8925133891  2.8120609748 -3.2854591918
H    4.3068892938 -3.4070824525  1.0171097499
H    2.7088938908 -3.5838845013 -2.9334684120
H   -1.9865770035 -4.0789254851  2.2761709056
H   -4.8678347492 -3.1206639063 -0.7281153718
H    2.2666315558  4.1009320396  2.2302093773
H    4.6855775170  3.1475434547 -1.1535341114
Cl  -0.0116761960  0.0759401058  2.3789060060
78
aligned d3map frame 243
N   -0.0105943664  2.0465955657 -0.2199722180
N    2.0031271826  0.0233765340 -0.1145046424
C   -2.3946813697  2.3744004416 -0.6902247287
C   -1.0926488816  2.8316894701 -0.4505216721
C   -0.7144340712  4.2093301003 -0.2925751826
H   -1.3742380351  5.0470963779 -0.3998718935
C    0.5972784492  4.2274792598  0.0592847748
H    1.2127935231  5.0842331193  0.2588861276
C    1.0414579138  2.8636431573  0.0897630891
C    2.3561495420  2.4464783467  0.2675711606
C    2.8099408595  1.1145906204  0.0623042574
C    4.1625364064  0.7309025748 -0.0813449498
H    5.0163707156  1.3678681428  0.0437364602
C    4.1652885938 -0.6027831367 -0.4178650437
H    5.0191367898 -1.2075814306 -0.6473414635
C    2.8149748003 -1.0356955533 -0.4075963241
C    3.3476918103  3.4773947245  0.6222919863
C    3.2494981978  4.1150906893  1.8590774521
C    4.1742029827  5.0754762472  2.2295925002
C    5.1999601272  5.4208765109  1.3650669942
H    5.9254188922  6.1705857745  1.6479366392
C    5.2900072678  4.8088247885  0.1221078971
C    4.3735345999  3.8399693707 -0.2475278044
N    0.0069716298 -2.0331935238 -0.1560059313
N   -2.0028681504 -0.0075261813 -0.1342441841
C    2.3880635098 -2.3715903099 -0.6252920939
C    1.0813884870 -2.8231221057 -0.4017543485
C    0.7001416724 -4.1999139416 -0.2525479908
H    1.3595720252 -5.0367453523 -0.3827504094
C   -0.6024278765 -4.2136951088  0.1364557685
H   -1.2218385347 -5.0607268341  0.3596499830
C   -1.0443620866 -2.8486795259  0.1580981773
C   -2.3526516972 -2.4204694196  0.3177440314
C   -2.7987437495 -1.1060488883  0.0055612783
C   -4.1314467851 -0.7737687369 -0.3212438150
H   -4.9634211636 -1.4500986447 -0.3093867517
C   -4.1306002291  0.5501032862 -0.7006848590
H   -4.9611108893  1.1148092256 -1.0779687237
C   -2.8062540903  1.0249344016 -0.5363669523
C   -3.3808800455 -3.3873003835  0.7604415260
C   -3.6234794173 -3.5224517668  2.1236255312
C   -4.6132524640 -4.3768960044  2.5759449200
C   -5.3681507183 -5.1021179105  1.6740755640
H   -6.1505586243 -5.7563951295  2.0277904806
C   -5.1220904854 -4.9835279986  0.3167377243
C   -4.1321822563 -4.1318359510 -0.1400253598
Fe  -0.0021062469  0.0121789949  0.2392066053
C    3.3609557068 -3.3486769265 -1.1378048171
C    3.0878603676 -3.9561299058 -2.3654230513
C    4.5484559285 -3.6694098573 -0.4835857953
C    3.9983505713 -4.8188684776 -2.9457309349
C    5.4524985042 -4.5444257461 -1.0611178262
H    3.7815827287 -5.2606084764 -3.9079242923
C    5.1890849772 -5.1076307226 -2.2991599361
H    6.3699340276 -4.7837439114 -0.5436954524
H    5.9049359439 -5.7754339730 -2.7586416352
C   -3.3991597918  3.3832829656 -1.0476531452
C   -3.1678859884  4.2351177131 -2.1301221152
C   -4.5754717490  3.5375154917 -0.3150705421
C   -4.0866722394  5.2061189025 -2.4706369310
C   -5.4960520735  4.5093098021 -0.6610842356
H   -3.8936351721  5.8596385184 -3.3094612753
C   -5.2567492132  5.3449674287 -1.7399434156
H   -6.4037028684  4.6137907482 -0.0873478525
H   -5.9733746463  6.1160123099 -1.9996181941
H    4.0910572049  5.5573951652  3.1925576470
H    6.0802477563  5.0862501988 -0.5610467044
H   -4.7990098578 -4.4668905509  3.6356049176
H   -5.7062193917 -5.5548913436 -0.3913032520
H   -2.2625589172  4.1158088263 -2.7078778766
H   -4.7445548533  2.9074202322  0.5450936962
H    2.1640742178 -3.7209210320 -2.8729530705
H    4.7490443874 -3.2498144619  0.4915826486
H   -3.0362646833 -2.9432723144  2.8240380058
H   -3.9423368621 -4.0328522238 -1.1989902171
H    2.4513243966  3.8355699327  2.5321916456
H    4.4350587005  3.3758122596 -1.2218592504
Cl  -0.0244086870  0.0507221752  2.3779776212
78
aligned d3map frame 244
N    0.0024187538  2.0595105848 -0.1574981812
N    1.9930484668  0.0247471047 -0.1838034047
C   -2.3657041845  2.3757126510 -0.7123089745
C   -1.0558007883  2.8509044831 -0.4834125507
C   -0.6299277702  4.2036974179 -0.5511035469
H   -1.2470184678  5.0404812740 -0.8147240683
C    0.7019606262  4.2194706221 -0.2193151504
H    1.3603681494  5.0638622298 -0.1698330910
C    1.0845961777  2.8715899181 -0.0000716464
C    2.4083493519  2.4220358450  0.1850375832
C    2.8174066652  1.0975639766  0.0171196522
C    4.1798644019  0.6799822724 -0.1013194309
H    5.0345124087  1.3119602046  0.0382126354
C    4.1596845098 -0.6387280485 -0.4402274743
H    4.9964115948 -1.2875655901 -0.6150672552
C    2.7884325658 -1.0452300841 -0.4717914803
C    3.4595732045  3.4282327083  0.4477627353
C    3.6475478705  3.9046246015  1.7405421462
C    4.6707497251  4.7951459259  2.0115671287
C    5.5058892171  5.2274198969  0.9944024563
H    6.3084175968  5.9173851856  1.2099927400
C    5.3110577646  4.7707617052 -0.2984458820
C    4.2962774406  3.8716370970 -0.5716523677
N    0.0072264182 -2.0427563875 -0.0939875254
N   -1.9931206633 -0.0192498802 -0.2007212736
C    2.3710128080 -2.3706412480 -0.6674498486
C    1.0665241608 -2.8405299372 -0.3998739427
C    0.6471176457 -4.1975676186 -0.4011222492
H    1.2661691846 -5.0421288057 -0.6303430832
C   -0.6818032759 -4.2049223957 -0.0568418933
H   -1.3313559810 -5.0534778080  0.0367444039
C   -1.0713701709 -2.8498654230  0.1067806367
C   -2.4048999402 -2.4036223735  0.2514652166
C   -2.8219359555 -1.0854108501  0.0174699272
C   -4.1798790430 -0.6589520498 -0.1039006311
H   -5.0423579387 -1.2734168035  0.0515191943
C   -4.1539818815  0.6544006587 -0.4652000259
H   -4.9900569721  1.3006368633 -0.6506368514
C   -2.7823788661  1.0525882085 -0.5029533906
C   -3.4182934915 -3.4135364977  0.5935345573
C   -3.3194893873 -4.0746826676  1.8179465588
C   -4.2871304873 -4.9813443345  2.2051757105
C   -5.3566716112 -5.2571771348  1.3693151067
H   -6.1183619943 -5.9603017576  1.6728869937
C   -5.4435408732 -4.6333721156  0.1359247213
C   -4.4832715444 -3.7165827649 -0.2511029436
Fe  -0.0021062469  0.0121789949  0.2392066053
C    3.3829649735 -3.2897880848 -1.2130537283
C    3.8507025079 -4.4131501358 -0.5360535054
C    3.9123224112 -2.9912040239 -2.4698256491
C    4.8287520335 -5.2111930940 -1.1038505869
C    4.8769624943 -3.7998454673 -3.0396417052
H    5.2028685251 -6.0706718594 -0.5648505316
C    5.3426800272 -4.9118757615 -2.3554900406
H    5.2687330510 -3.5601589998 -4.0184981617
H    6.1051981104 -5.5401349719 -2.7963308119
C   -3.3796458560  3.3178887542 -1.2157446134
C   -3.8089915357  4.4238390601 -0.4872380667
C   -3.9303691047  3.0875160975 -2.4759049560
C   -4.7699701728  5.2717737794 -1.0073647913
C   -4.8751380134  3.9481962422 -3.0005773525
H   -5.1070295766  6.1173421209 -0.4257571169
C   -5.3023455484  5.0418421274 -2.2648211797
H   -5.2788065799  3.7642637927 -3.9865832107
H   -6.0488670333  5.7086839540 -2.6703728368
H    4.8232256372  5.1484127811  3.0211464138
H    5.9582259182  5.1098469729 -1.0946024190
H   -4.2091617801 -5.4696204421  3.1661032686
H   -6.2656782313 -4.8577813570 -0.5282896920
H   -3.4052781099  4.6003609794  0.4987725394
H   -3.5932086305  2.2349742115 -3.0504736919
H    3.4709307874 -4.6375931241  0.4499472537
H    3.5470551953 -2.1215865641 -2.9988105189
H   -2.4894399864 -3.8449146204  2.4701138906
H   -4.5401033476 -3.2473027976 -1.2233582103
H    2.9994187033  3.5565100326  2.5314988907
H    4.1433602246  3.5063097396 -1.5769343593
Cl   0.0082213356  0.0560502975  2.3763048057
78
aligned d3map frame 245
N   -0.0108799350  2.0507497066 -0.2014886361
N    1.9983071539  0.0324525511 -0.1241197265
C   -2.3788977662  2.4183475487  0.3232898710
C   -1.0716362911  2.8506185653  0.1090915809
C   -0.6513788663  4.2223475742  0.0574080802
H   -1.2825892068  5.0691087054  0.2457187269
C    0.6587413322  4.2243730906 -0.2992601965
H    1.3022957082  5.0727833015 -0.4255973910
C    1.0611580232  2.8532186280 -0.4401498705
C    2.3693505786  2.4152750011 -0.6709047896
C    2.7922999816  1.0697652699 -0.5339486648
C    4.1152011190  0.5979845160 -0.7070162978
H    4.9457177572  1.1616863247 -1.0838865247
C    4.1218582021 -0.7260130942 -0.3246064384
H    4.9550004884 -1.4023755992 -0.3243976939
C    2.7959191972 -1.0520074512  0.0324215002
C    3.3884229875  3.4251602256 -0.9871045906
C    4.5469885655  3.5425534263 -0.2194608199
C    5.5059596507  4.4858408822 -0.5352139900
C    5.3272137330  5.3277455729 -1.6211085279
H    6.0814970597  6.0594673544 -1.8690532634
C    4.1746545457  5.2279433502 -2.3834718100
C    3.2110293753  4.2885419004 -2.0685512318
N    0.0240239933 -2.0406316027 -0.1325313266
N   -2.0012835848  0.0191938965 -0.1412319969
C    2.3787179271 -2.3724747929  0.3995655409
C    1.0853765145 -2.8436589237  0.1807975925
C    0.6572342664 -4.2118332087  0.1528602793
H    1.2661697871 -5.0630030555  0.3823652919
C   -0.6398788026 -4.2155640591 -0.2495174906
H   -1.2594859572 -5.0704686467 -0.4356562906
C   -1.0530057156 -2.8443968274 -0.3594423604
C   -2.3602891693 -2.4008687048 -0.5712498670
C   -2.7958160583 -1.0606595203 -0.3965354792
C   -4.1551601377 -0.6735077389 -0.3040938525
H   -5.0019292623 -1.3174884040 -0.4361715327
C   -4.1701174527  0.6608008238  0.0333576931
H   -5.0341455244  1.2656764907  0.2217731808
C   -2.8240652398  1.0830617930  0.0994118413
C   -3.4032377609 -3.3787974668 -0.9230933281
C   -3.7032946027 -4.4677460399 -0.1076752638
C   -4.6901300041 -5.3663114436 -0.4714294587
C   -5.3963554136 -5.1911567940 -1.6495411862
H   -6.1674029785 -5.8929537568 -1.9303572367
C   -5.1151788954 -4.1039103728 -2.4612466752
C   -4.1307776783 -3.2040038632 -2.1009804643
Fe  -0.0021062469  0.0121789949  0.2392066053
C    3.4081734582 -3.1752076385  1.0642752840
C    4.0167948624 -2.5826860582  2.1767801311
C    3.8110550249 -4.4539898254  0.6860185558
C    4.9726403505 -3.2592404719  2.9053882745
C    4.7773959281 -5.1246217578  1.4147273871
H    5.4205983321 -2.7885048636  3.7677695582
C    5.3549451362 -4.5362150231  2.5280094803
H    5.0864260225 -6.1130851214  1.1106855404
H    6.1045137511 -5.0661624461  3.0958276169
C   -3.3515376894  3.4244104113  0.7759372861
C   -4.4862923532  3.7570391598  0.0409483665
C   -3.1191476843  4.0787707799  1.9872948986
C   -5.3727010913  4.7086244124  0.5135148223
C   -4.0098574117  5.0229508691  2.4587011951
H   -6.2463399811  4.9591229422 -0.0709020493
C   -5.1419484295  5.3395725101  1.7237830033
H   -3.8227345914  5.5156488773  3.4017606675
H   -5.8370939446  6.0788550618  2.0928697330
H    6.3975993424  4.5662378062  0.0691590664
H    4.0273783578  5.8833126235 -3.2294113980
H   -4.9121750550 -6.2038633873  0.1725188201
H   -5.6677829598 -3.9561276383 -3.3778973099
H   -4.6555737809  3.2897933250 -0.9180757037
H   -2.2409800643  3.8208671245  2.5615123606
H    3.7047383460 -1.5930302076  2.4740948184
H    3.3987545827 -4.9057246539 -0.2033203881
H   -3.1823331496 -4.5875803996  0.8305561763
H   -3.9065848280 -2.3609947826 -2.7378753366
H    4.6764431635  2.9037140318  0.6412502005
H    2.3205378729  4.2007635593 -2.6740014184
Cl   0.0103900311  0.0410641194  2.3789256125
78
aligned d3map frame 246
N   -0.0303032932  2.0387319971 -0.2656340806
N    2.0030672465  0.0133385570 -0.0948497107
C   -2.3766373635  2.4309325894  0.2786605352
C   -1.0829203840  2.8655332951  0.0234701667
C   -0.6356161800  4.2290659444 -0.0441559971
H   -1.2405836342  5.0884669760  0.1693050186
C    0.6643834349  4.2017722394 -0.4330822376
H    1.3234308433  5.0336252565 -0.5912344887
C    1.0477783576  2.8194078826 -0.5321176930
C    2.3606203911  2.3763961720 -0.7234215229
C    2.8067855009  1.0559528437 -0.4686081513
C    4.1491727942  0.6093016092 -0.5243276181
H    4.9942536782  1.1969561517 -0.8236937887
C    4.1502478667 -0.7123982040 -0.1332362791
H    4.9916934258 -1.3740806305 -0.0567244081
C    2.8047417431 -1.0653917137  0.1060953526
C    3.3445238338  3.3640321591 -1.1944702571
C    4.4764484447  3.6968850075 -0.4544086059
C    5.3874324526  4.6144707935 -0.9450540786
C    5.1899220798  5.2023776990 -2.1838691236
H    5.9082683698  5.9100797106 -2.5699815107
C    4.0635768247  4.8819361925 -2.9244882665
C    3.1422167843  3.9789806131 -2.4301508742
N    0.0156479664 -2.0271476144 -0.2006762264
N   -2.0034472028  0.0114535216 -0.1173322604
C    2.3601612334 -2.3994885763  0.3528461163
C    1.0735336997 -2.8425644187  0.0881518081
C    0.6437358520 -4.2127977100  0.0167777439
H    1.2737981495 -5.0618008754  0.1998212897
C   -0.6605097336 -4.2007531965 -0.3565924491
H   -1.3105887845 -5.0373518260 -0.5253954711
C   -1.0611172741 -2.8222030278 -0.4430061208
C   -2.3647897696 -2.3768379849 -0.6441780031
C   -2.8007271459 -1.0458949438 -0.4531295549
C   -4.1500323029 -0.6211397474 -0.4933624560
H   -4.9899947353 -1.2419262942 -0.7387008436
C   -4.1583057115  0.7132346789 -0.1499638617
H   -5.0054341456  1.3675587846 -0.0806692563
C   -2.8130499787  1.0868944068  0.0659701232
C   -3.3953038488 -3.3680569589 -1.0295529027
C   -4.0746847553 -4.1136317212 -0.0739190667
C   -5.0447281302 -5.0222478955 -0.4598983819
C   -5.3426944871 -5.1962082636 -1.8009702025
H   -6.1008308020 -5.9045753826 -2.0995005531
C   -4.6659753337 -4.4586681217 -2.7577460416
C   -3.6978546061 -3.5475291211 -2.3750281159
Fe  -0.0021062469  0.0121789949  0.2392066053
C    3.3595698916 -3.3383704092  0.8980816246
C    3.9804026447 -4.3231635442  0.1393508115
C    3.6800492063 -3.2154596916  2.2487205949
C    4.9099368031 -5.1672844461  0.7228585529
C    4.5946724662 -4.0718711773  2.8308489054
H    5.3983745024 -5.9220144001  0.1234004433
C    5.2158223094 -5.0475292291  2.0678815708
H    4.8223916205 -3.9767386529  3.8824887180
H    5.9373499663 -5.7112868802  2.5208950490
C   -3.4028733596  3.3757855983  0.7439301466
C   -3.8138382345  4.4760199612 -0.0036320441
C   -3.9910712468  3.1432463528  1.9875642420
C   -4.7905092881  5.3252022197  0.4852050255
C   -4.9504670658  4.0059996901  2.4807499798
H   -5.1161674901  6.1675162060 -0.1082831976
C   -5.3560091474  5.0974640909  1.7287683842
H   -5.3851945511  3.8262589449  3.4529660717
H   -6.1144761363  5.7655180144  2.1096132275
H    6.2569931520  4.8728545845 -0.3585466919
H    3.9036511956  5.3356466648 -3.8918556012
H   -5.5703898366 -5.5951651021  0.2896865955
H   -4.8924161737 -4.5908739498 -3.8055989182
H   -3.3857188602  4.6430291718 -0.9813354740
H   -3.6692832256  2.2909948602  2.5683400850
H    3.7444774873 -4.4142389808 -0.9114097292
H    3.1899311845 -2.4529712485  2.8367698042
H   -3.8414826441 -3.9727979088  0.9713023087
H   -3.1699076312 -2.9669731943 -3.1177089166
H    4.6239374928  3.2495156190  0.5172817232
H    2.2654347770  3.7228757415 -3.0071511501
Cl  -0.0032653644  0.0181496279  2.3784776236
78
aligned d3map frame 247
N   -0.0187776582  2.0553121349 -0.2141241762
N    2.0125631366  0.0220251949 -0.0691095733
C   -2.4441107254  2.4166282630 -0.2066145885
C   -1.1348206418  2.8352685166 -0.3762863501
C   -0.7408553424  4.1600961277 -0.7532726405
H   -1.4225711346  4.9630348977 -0.9581729313
C    0.6151671979  4.1688750575 -0.8052183146
H    1.2554124270  4.9840664769 -1.0799577435
C    1.0595362149  2.8504797490 -0.4459098008
C    2.3974920954  2.4509694014 -0.3709633197
C    2.8221125680  1.1196454125 -0.1249920720
C    4.1707394274  0.7298790047  0.0614539568
H    5.0134534377  1.3918428717  0.1000659968
C    4.1749016218 -0.6381431295  0.2026153927
H    5.0219446365 -1.2810767530  0.3417063304
C    2.8294207262 -1.0621427249  0.1055747945
C    3.4298870451  3.4682772075 -0.6082641546
C    3.4715176897  4.6370301934  0.1530108413
C    4.4160115420  5.6117439385 -0.1070193330
C    5.3297350347  5.4423189572 -1.1346370624
H    6.0586407299  6.2106150813 -1.3446652117
C    5.3029654305  4.2812290796 -1.8910769278
C    4.3676135911  3.2995903620 -1.6277333136
N    0.0000116707 -2.0414205450 -0.1503326741
N   -2.0126382587 -0.0078753760 -0.0919338182
C    2.4198148773 -2.4143667969  0.0353354717
C    1.1131688941 -2.8375201503 -0.1783452995
C    0.7225795131 -4.1890644029 -0.4543447134
H    1.3947394642 -5.0209662912 -0.5311613089
C   -0.6248954503 -4.1886681283 -0.6143014153
H   -1.2539052974 -5.0172701345 -0.8723984866
C   -1.0759387765 -2.8472349383 -0.3734722380
C   -2.4105729983 -2.4391600332 -0.3310483892
C   -2.8175009057 -1.1059196855 -0.0497103813
C   -4.1520203199 -0.7163210913  0.2173201423
H   -4.9800168594 -1.3813728511  0.3655821178
C   -4.1623080485  0.6585043725  0.2646760353
H   -4.9989530024  1.3054344045  0.4447267340
C   -2.8325928002  1.0795956985  0.0390520054
C   -3.4834879395 -3.3734550794 -0.6869973607
C   -3.6452569190 -4.6210505593 -0.0856897534
C   -4.6690865715 -5.4621833888 -0.4828280380
C   -5.5473833464 -5.0768497031 -1.4824012676
H   -6.3444696940 -5.7364630760 -1.7923910655
C   -5.4030493356 -3.8347609649 -2.0805332900
C   -4.3856365286 -2.9908241146 -1.6852304239
Fe  -0.0021062469  0.0121789949  0.2392066053
C    3.4711001249 -3.4467277946  0.1492328227
C    4.0656252346 -3.6937924998  1.3834569156
C    3.8700107244 -4.1902649074 -0.9568248700
C    5.0271339456 -4.6793082704  1.5096421405
C    4.8417186901 -5.1667086995 -0.8286208840
H    5.4728538291 -4.8733001862  2.4742829229
C    5.4177309661 -5.4183197868  0.4048163648
H    5.1490286780 -5.7349730849 -1.6945495033
H    6.1693000524 -6.1872034439  0.5053757682
C   -3.5568175783  3.3587236421 -0.4661929471
C   -4.0538871405  4.2207433195  0.5028678534
C   -4.1574432299  3.3271047536 -1.7216166410
C   -5.1435179170  5.0271685751  0.2212996207
C   -5.2405767360  4.1395620548 -2.0019824288
H   -5.5354891029  5.6851652068  0.9834822262
C   -5.7413513358  4.9868801264 -1.0275125785
H   -5.6996156654  4.1032841769 -2.9793789162
H   -6.5990702130  5.6102330847 -1.2410690743
H    4.4378749641  6.5097733934  0.4935644744
H    6.0117136187  4.1452774687 -2.6950317752
H   -4.7866514524 -6.4241029260 -0.0052732417
H   -6.0854017620 -3.5224381384 -2.8580607761
H   -3.5949243733  4.2457031713  1.4800593160
H   -3.7677537611  2.6579386863 -2.4753652979
H    3.7547904738 -3.1170118572  2.2420728814
H    3.4217335128 -3.9904119183 -1.9194378636
H   -2.9854123837 -4.9122445701  0.7182895576
H   -4.2634127691 -2.0283998714 -2.1605525815
H    2.7683504527  4.7626830803  0.9630859048
H    4.3341621138  2.4022520277 -2.2287344510
Cl   0.0047019729  0.0306688016  2.3789959057
78
aligned d3map frame 248
N   -0.0107321642  2.0478314061 -0.2378432805
N    2.0079703905  0.0084695099 -0.0681396220
C   -2.4234736907  2.3968389726 -0.4989548592
C   -1.1064490577  2.8380669850 -0.4196420991
C   -0.7094044450  4.2196063558 -0.3648710989
H   -1.3740409054  5.0508222925 -0.4952766838
C    0.6140314883  4.2421032412 -0.0757714142
H    1.2485961421  5.0945484841  0.0662770122
C    1.0525398900  2.8738496416 -0.0056189030
C    2.3436874418  2.4455743086  0.2666271443
C    2.7971376584  1.1034033654  0.1019894057
C    4.1527928032  0.7462861137 -0.0698005233
H    4.9863307480  1.4177286981  0.0023849175
C    4.1731414165 -0.5960909960 -0.3739541628
H    5.0310530384 -1.1954737923 -0.6085466577
C    2.8331989776 -1.0473279687 -0.3410258566
C    3.3548813313  3.3951912912  0.7604012884
C    3.7969528768  3.2321617289  2.0734490569
C    4.7586860121  4.0735455398  2.5964425872
C    5.3108805470  5.0731262559  1.8088078374
H    6.0762483575  5.7154934506  2.2111489320
C    4.8798973220  5.2388577271  0.5029998149
C    3.8972788334  4.4124153055 -0.0170913005
N    0.0193828182 -2.0316614226 -0.1760836504
N   -2.0107385281 -0.0096904871 -0.0861348312
C    2.4188176908 -2.3925539240 -0.5153233552
C    1.1009819232 -2.8296128459 -0.3790333337
C    0.7030986764 -4.2070446480 -0.2536355141
H    1.3557895101 -5.0482229903 -0.3790640930
C   -0.6079648774 -4.2126415328  0.0922764838
H   -1.2426233034 -5.0554350031  0.2871596538
C   -1.0384469621 -2.8424990776  0.1247264368
C   -2.3412898449 -2.4219156845  0.3380875077
C   -2.8070205182 -1.0983177139  0.1016889599
C   -4.1628443388 -0.7293195761 -0.0165789812
H   -5.0024738685 -1.3876950856  0.0786047750
C   -4.1817911424  0.6197298032 -0.3030223790
H   -5.0418516086  1.2363472578 -0.4753599932
C   -2.8371453435  1.0538448088 -0.3185034918
C   -3.3083507746 -3.3960964893  0.8859280638
C   -3.2723530180 -3.6290533405  2.2588860453
C   -4.1619474757 -4.5117717684  2.8408562131
C   -5.0877341491 -5.1803498636  2.0553451388
H   -5.7802398529 -5.8732065823  2.5095712377
C   -5.1220783022 -4.9580727611  0.6896158916
C   -4.2406054835 -4.0648294805  0.1037783742
Fe  -0.0021062469  0.0121789949  0.2392066053
C    3.4592068924 -3.4069096344 -0.7598919308
C    3.4362249996 -4.1783075570 -1.9207479624
C    4.4768233252 -3.6180602669  0.1691337430
C    4.4206349975 -5.1215532226 -2.1511941975
C    5.4489395762 -4.5735435957 -0.0586806669
H    4.4036352849 -5.7052047340 -3.0610308874
C    5.4296236114 -5.3238707659 -1.2239503960
H    6.2247663070 -4.7379284579  0.6756397559
H    6.1961668598 -6.0619903750 -1.4060702589
C   -3.4991112789  3.4003001320 -0.6443588455
C   -3.7965356934  3.9670472298 -1.8767143011
C   -4.2491930743  3.7709755431  0.4705722952
C   -4.8268706414  4.8839604504 -1.9969692065
C   -5.2709423161  4.6945564277  0.3503001344
H   -5.0540317445  5.3111646653 -2.9641007246
C   -5.5640418249  5.2518794774 -0.8840849053
H   -5.8430109407  4.9769193635  1.2217568495
H   -6.3647968672  5.9699922716 -0.9769342381
H    5.0844741811  3.9506615214  3.6184784527
H    5.3103318914  6.0112490873 -0.1182542193
H   -4.1309969868 -4.6788266850  3.9073970010
H   -5.8399607357 -5.4826472181  0.0762093952
H   -3.2273726284  3.6786523397 -2.7484756587
H   -4.0167683924  3.3312988593  1.4298208353
H    2.6548393472 -4.0189000163 -2.6500427348
H    4.4852632113 -3.0414931046  1.0818189569
H   -2.5444124742 -3.1006419423  2.8576058521
H   -4.2654466040 -3.8903898626 -0.9620642245
H    3.3625994801  2.4505547322  2.6820868074
H    3.5677873008  4.5349626839 -1.0390799286
Cl  -0.0148184235  0.0651049355  2.3807921180
78
aligned d3map frame 249
N   -0.0358243930  2.0568038352 -0.1995022471
N    1.9958266644 -0.0122015231 -0.1541796786
C   -2.4020540285  2.4257885524  0.1909919259
C   -1.0893835408  2.8767276334  0.1086472619
C   -0.6137744149  4.2307058860  0.1957411584
H   -1.1965587650  5.0840131456  0.4769183288
C    0.6940583016  4.2171172683 -0.1641428170
H    1.3595086010  5.0535586344 -0.2548193503
C    1.0618274358  2.8439275091 -0.3637774412
C    2.3476229766  2.3868311554 -0.6562928684
C    2.7677030499  1.0438606567 -0.5617836675
C    4.1007066396  0.6050757347 -0.7582193305
H    4.9210063909  1.2218898837 -1.0702207458
C    4.1277968747 -0.7347707051 -0.4542299346
H    4.9681281351 -1.3989635157 -0.5035212585
C    2.8118667363 -1.0977280571 -0.0834574513
C    3.3568390390  3.3707457328 -1.0992820424
C    3.8853155672  4.3276586202 -0.2397810627
C    4.8230136312  5.2360856249 -0.6985847332
C    5.2389583874  5.2031053103 -2.0180123805
H    5.9687896787  5.9138696756 -2.3740284259
C    4.7198584193  4.2510931296 -2.8792875779
C    3.7894356271  3.3369520296 -2.4223797492
N    0.0135747542 -2.0382156506 -0.1397972470
N   -1.9942308121 -0.0108001542 -0.1779148824
C    2.3970026322 -2.4305563054  0.2229260105
C    1.0676512998 -2.8321648678  0.2253131382
C    0.5824076213 -4.1571554219  0.4975635703
H    1.1754256253 -4.9648322596  0.8797979748
C   -0.7445391777 -4.1593831085  0.2118474333
H   -1.4389526728 -4.9703864487  0.3154141634
C   -1.0874450944 -2.8299345623 -0.2046273432
C   -2.3580588952 -2.4092991313 -0.6235875247
C   -2.7341407542 -1.0488561726 -0.6926683158
C   -3.9619714097 -0.5440621377 -1.1789575929
H   -4.7086957419 -1.1040496524 -1.7060555345
C   -3.9875447019  0.8014661781 -0.8788704824
H   -4.7639729596  1.5084497589 -1.0970268391
C   -2.7626842261  1.0991609464 -0.2497892803
C   -3.3318733312 -3.4331345074 -1.0025927194
C   -4.6569869780 -3.3917405555 -0.5644441764
C   -5.5651631752 -4.3461827322 -0.9801259588
C   -5.1706025963 -5.3642275890 -1.8333596685
H   -5.8845634856 -6.1043124546 -2.1619808975
C   -3.8531420879 -5.4305015571 -2.2569879688
C   -2.9426020945 -4.4765448795 -1.8471089454
Fe  -0.0021062469  0.0121789949  0.2392066053
C    3.4407189468 -3.4484863604  0.3823739946
C    3.4192404699 -4.5957926692 -0.4132153536
C    4.4810956739 -3.2885177878  1.2971717761
C    4.4053279491 -5.5552040694 -0.2945786497
C    5.4605380152 -4.2558505116  1.4192992006
H    4.3786176863 -6.4317508366 -0.9253705825
C    5.4286412682 -5.3904370282  0.6242649873
H    6.2560862886 -4.1255916074  2.1379621063
H    6.1996367330 -6.1407286371  0.7163007224
C   -3.5096656938  3.2228637323  0.7043064563
C   -3.7501772657  4.5616808309  0.3888383675
C   -4.3895057916  2.5875283989  1.5920562591
C   -4.8001919123  5.2454942392  0.9735385510
C   -5.4351707866  3.2734538765  2.1718918178
H   -4.9687299668  6.2826677907  0.7206015721
C   -5.6411074016  4.6121397126  1.8734794759
H   -6.0920363366  2.7636128594  2.8610334954
H   -6.4559847288  5.1532031108  2.3317076953
H    5.2327877188  5.9719011137 -0.0216522783
H    5.0400219788  4.2208020299 -3.9118963653
H   -6.5885450947 -4.2976650686 -0.6367156733
H   -3.5359921117 -6.2251256809 -2.9161692705
H   -3.1434895462  5.0559166770 -0.3534781467
H   -4.2193794513  1.5509045349  1.8425707866
H    2.6361333123 -4.7108883117 -1.1480494719
H    4.5017543539 -2.4105666457  1.9255308854
H   -4.9604288199 -2.6199849726  0.1286622840
H   -1.9224392326 -4.5152394195 -2.1999579832
H    3.5717603762  4.3433785927  0.7933094551
H    3.3809798209  2.5931448683 -3.0908461637
Cl  -0.0182966622  0.0597687450  2.3774038095
78
aligned d3map frame 250
N   -0.0196144966  2.0455509141 -0.2344849707
N    2.0056024177  0.0330904402 -0.0948183513
C   -2.3829734505  2.4012382328  0.3115356894
C   -1.0973935745  2.8471349680  0.0167489419
C   -0.7027699578  4.2193747110 -0.1074844736
H   -1.3552358515  5.0593749546  0.0309066376
C    0.6127612290  4.2261993499 -0.4457387080
H    1.2422456659  5.0744936980 -0.6248611700
C    1.0453960567  2.8542429397 -0.4803736988
C    2.3757913732  2.4376465987 -0.5666448407
C    2.8140715791  1.1027548997 -0.3426865555
C    4.1673906505  0.6842502683 -0.3314075527
H    5.0174565808  1.3059211410 -0.5355653850
C    4.1706944745 -0.6576174045 -0.0258508059
H    5.0154411715 -1.3084892190  0.0778672992
C    2.8186598222 -1.0512945886  0.0956690922
C    3.3958717427  3.4718183913 -0.7933784058
C    4.3902840313  3.7148825362  0.1544108134
C    5.3297530420  4.7098684304 -0.0492586735
C    5.2990367252  5.4770673670 -1.2042205612
H    6.0359031987  6.2518559695 -1.3631108389
C    4.3164530776  5.2433408724 -2.1531647619
C    3.3692094810  4.2543974784 -1.9484567606
N   -0.0031696653 -2.0330699832 -0.1680116233
N   -2.0056094571  0.0010121051 -0.1183628885
C    2.3868128593 -2.3893461333  0.2409668134
C    1.0907041827 -2.8338870534 -0.0034134703
C    0.7144214729 -4.1972728396 -0.2330329351
H    1.3844098921 -5.0340614598 -0.1816724314
C   -0.6012907672 -4.1927678941 -0.5749381374
H   -1.2047861653 -5.0315317160 -0.8617452578
C   -1.0584495329 -2.8335225500 -0.4793072957
C   -2.3770348052 -2.3959299651 -0.6312451745
C   -2.8119477011 -1.0677969818 -0.3621551558
C   -4.1687432568 -0.6798798548 -0.2205288162
H   -5.0161637697 -1.3273729221 -0.3365385023
C   -4.1715494853  0.6517381544  0.1271920273
H   -5.0188835362  1.2825011193  0.3165396502
C   -2.8187481705  1.0651213147  0.1605551507
C   -3.4009608530 -3.3448076887 -1.0898174740
C   -3.6743247434 -4.5378828116 -0.4226473217
C   -4.6290111775 -5.4139460157 -0.9110256186
C   -5.3229151402 -5.1174960098 -2.0722708888
H   -6.0638616947 -5.8040608322 -2.4557035621
C   -5.0642220842 -3.9285925536 -2.7384734886
C   -4.1204086708 -3.0464475246 -2.2493195150
Fe  -0.0021062469  0.0121789949  0.2392066053
C    3.4005579844 -3.3843006302  0.6546975512
C    4.2053501451 -4.0689003105 -0.2468901201
C    3.5462695517 -3.6257798553  2.0181124872
C    5.1430160452 -4.9798873579  0.2121262344
C    4.4831635941 -4.5369163976  2.4728683933
H    5.7677470225 -5.5080674052 -0.4935798400
C    5.2847600558 -5.2154912585  1.5690794028
H    4.5856590851 -4.7146231789  3.5325222248
H    6.0196567001 -5.9259397000  1.9206103026
C   -3.3566187446  3.4054650056  0.7936369895
C   -4.1027896475  4.1940665110 -0.0732433893
C   -3.4883736650  3.5846934897  2.1680506444
C   -4.9627173117  5.1552496081  0.4317190512
C   -4.3423036614  4.5529183874  2.6659785758
H   -5.5404821940  5.7655324436 -0.2475887518
C   -5.0794678517  5.3434375290  1.7989074734
H   -4.4287787387  4.6952110605  3.7334535163
H   -5.7422696009  6.1010583827  2.1904648623
H    6.0880943910  4.8865265627  0.6989502409
H    4.2880391827  5.8319065778 -3.0589254575
H   -4.8350023851 -6.3313073758 -0.3761627853
H   -5.6039242874 -3.6889958977 -3.6435785963
H   -4.0014035797  4.0534806882 -1.1394091664
H   -2.9102025324  2.9660286474  2.8379924905
H    4.0964260905 -3.8864931737 -1.3064513512
H    2.9203954034 -3.0895990461  2.7163788782
H   -3.1569731357 -4.7595071927  0.4993701071
H   -3.9136921730 -2.1255195860 -2.7749868616
H    4.4043565328  3.1339007940  1.0658284955
H    2.6093607695  4.0676502563 -2.6945942567
Cl  -0.0047135426  0.0495032899  2.3777929810
78
aligned d3map frame 251
N   -0.0152982489  2.0553252115 -0.1536321106
N    1.9915547384  0.0140016712 -0.1869826641
C   -2.4268567325  2.3680565271  0.2870556719
C   -1.1100559252  2.8380458511  0.0088856004
C   -0.7738613475  4.1804966361 -0.2845707388
H   -1.4497411298  5.0128710163 -0.2589179030
C    0.5535820437  4.1876507829 -0.6492811202
H    1.1296131305  5.0277723838 -0.9797553033
C    1.0211820854  2.8544488132 -0.5299285293
C    2.3521770783  2.4012851050 -0.7148844590
C    2.7788878780  1.0877042092 -0.4835799652
C    4.1569369933  0.6965122739 -0.3925841819
H    4.9934805961  1.3436012362 -0.5709478869
C    4.1834513280 -0.6046148639  0.0001579681
H    5.0395190797 -1.2243964619  0.1860239972
C    2.8218326634 -1.0371268946  0.0989912138
C    3.3647976638  3.3714947182 -1.1582421505
C    3.6207080231  4.5504084894 -0.4604380195
C    4.5716034634  5.4423218114 -0.9181442056
C    5.2738221546  5.1801821551 -2.0821013522
H    6.0103918884  5.8822579917 -2.4428486935
C    5.0314833440  4.0086448600 -2.7803984676
C    4.0918728125  3.1077018760 -2.3194220652
N    0.0235679675 -2.0398484213 -0.0882999057
N   -1.9928132964  0.0047759543 -0.2048731140
C    2.4172869596 -2.3416321563  0.3703799838
C    1.1025006421 -2.8243779675  0.1607526167
C    0.7421307653 -4.1863826016  0.0048875163
H    1.4009547033 -5.0224621875  0.1359088651
C   -0.5798574475 -4.2051403943 -0.3749933703
H   -1.1789406666 -5.0663018617 -0.6010852603
C   -1.0198691545 -2.8567941404 -0.4019766207
C   -2.3364289296 -2.4060387097 -0.6376986592
C   -2.7722364983 -1.0909684046 -0.4558794429
C   -4.1503816059 -0.7219877536 -0.3433306139
H   -4.9767022936 -1.3916313240 -0.4913026380
C   -4.1886636300  0.5813136573  0.0406748157
H   -5.0571216491  1.1666564998  0.2675847181
C   -2.8341592082  1.0478078342  0.0761124110
C   -3.3349516811 -3.4196136706 -1.0343679450
C   -3.7668908929 -4.3960484343 -0.1432318888
C   -4.6877819338 -5.3452214935 -0.5437937762
C   -5.1712453368 -5.3438309188 -1.8415667739
H   -5.8820493528 -6.0919532570 -2.1553629144
C   -4.7369370386 -4.3811764854 -2.7386052498
C   -3.8359506463 -3.4151554118 -2.3345565749
Fe  -0.0021062469  0.0121789949  0.2392066053
C    3.4052985675 -3.3086785178  0.8883068203
C    3.3235219716 -3.6568701071  2.2344392349
C    4.3982897570 -3.8761109177  0.0962628062
C    4.2323831029 -4.5432492999  2.7830610340
C    5.2924086637 -4.7773804560  0.6441092968
H    4.1725585396 -4.7933412193  3.8333687194
C    5.2166046608 -5.1074698941  1.9885368212
H    6.0550512024 -5.2241462185  0.0222927799
H    5.9199784502 -5.8081974318  2.4124454457
C   -3.3761832796  3.3651703900  0.7983389230
C   -3.0455185002  4.0182825057  1.9878695874
C   -4.5826511132  3.6770273423  0.1766068499
C   -3.9168598666  4.9238514559  2.5580808738
C   -5.4466714111  4.5944029684  0.7451804026
H   -3.6561233206  5.4044175453  3.4901286712
C   -5.1236315113  5.2120311393  1.9415144283
H   -6.3791594136  4.8305977354  0.2539482639
H   -5.8042662699  5.9197850550  2.3916405708
H    4.7692506799  6.3510290290 -0.3670687951
H    5.5777721260  3.7923780171 -3.6859456724
H   -5.0289132048 -6.0869737393  0.1576085033
H   -5.1029322224 -4.3807530949 -3.7544229334
H   -2.1092768600  3.7815503338  2.4711567101
H   -4.8284558845  3.2201196310 -0.7710948040
H    2.5540520754 -3.2109856477  2.8492730515
H    4.4530075303 -3.6201106810 -0.9527652638
H   -3.3901431071 -4.3939208988  0.8686100754
H   -3.4931487663 -2.6602367087 -3.0288906193
H    3.0943117836  4.7461004760  0.4620088824
H    3.8946517571  2.1975051827 -2.8664397609
Cl  -0.0249195677  0.0484475915  2.3795984352
78
aligned d3map frame 252
N   -0.0344248138  2.0383969724 -0.2589010449
N    1.9994639877  0.0240317512 -0.1157737624
C   -2.3803257657  2.4159613512  0.3138070123
C   -1.0921949227  2.8601819980  0.0244823369
C   -0.6658386395  4.2215517788 -0.0825382392
H   -1.2833343702  5.0776036490  0.1032384805
C    0.6364055236  4.1998627250 -0.4778436564
H    1.2835512980  5.0379504801 -0.6530726676
C    1.0298581629  2.8246484493 -0.5572722002
C    2.3409127624  2.3755725309 -0.7935065247
C    2.7878343220  1.0564359364 -0.5374434533
C    4.1267929020  0.5972233885 -0.6470836110
H    4.9591701296  1.1668933980 -1.0080515306
C    4.1402855699 -0.7112534474 -0.2284663632
H    4.9796598116 -1.3775332071 -0.1818316680
C    2.8017699322 -1.0579314455  0.0742679553
C    3.2973226665  3.3526224095 -1.3300692749
C    4.5150543638  3.6293829918 -0.7112113016
C    5.4010285996  4.5274636281 -1.2783223249
C    5.0879477185  5.1630625447 -2.4688487434
H    5.7847205672  5.8549221949 -2.9183089808
C    3.8711858827  4.9105349562 -3.0827262007
C    2.9818019661  4.0175039789 -2.5172502107
N    0.0073418675 -2.0281126060 -0.1915060865
N   -1.9984122110  0.0179038741 -0.1403961592
C    2.3734165207 -2.3926049010  0.3156993275
C    1.0772703910 -2.8425318772  0.0580657233
C    0.6691230725 -4.2044167474 -0.1025955739
H    1.2853681547 -5.0649975189  0.0579240951
C   -0.6235887422 -4.1872673895 -0.5249089861
H   -1.2227448889 -5.0309633186 -0.8023240607
C   -1.0502711535 -2.8181012518 -0.5226685167
C   -2.3554691903 -2.3577733365 -0.7523902768
C   -2.7933311740 -1.0380877240 -0.4613529576
C   -4.1534584113 -0.6443817444 -0.3600726797
H   -4.9999895894 -1.2789566533 -0.5357857896
C   -4.1635581870  0.6712301934  0.0385582366
H   -5.0160874930  1.2963165297  0.2153010372
C   -2.8102870610  1.0767298161  0.1434642489
C   -3.3552128053 -3.2621508236 -1.3323638220
C   -3.6772464461 -4.5032742226 -0.7863576368
C   -4.5846896117 -5.3359743904 -1.4179015742
C   -5.1929475956 -4.9434105523 -2.5989555207
H   -5.8939207413 -5.5985738028 -3.0952195097
C   -4.9035076781 -3.6985409027 -3.1366393369
C   -3.9990210595 -2.8653785882 -2.5089290024
Fe  -0.0021062469  0.0121789949  0.2392066053
C    3.4032823232 -3.3273048593  0.7890241606
C    4.0274778075 -3.0423338569  2.0060581238
C    3.7774542374 -4.4757614106  0.0953112002
C    4.9675953888 -3.9065018758  2.5334711951
C    4.7274149081 -5.3325919286  0.6223690341
H    5.4274856643 -3.6817911782  3.4845471885
C    5.3164190757 -5.0588475320  1.8458906319
H    5.0125352528 -6.2200533162  0.0757692767
H    6.0498796470 -5.7356382361  2.2582793653
C   -3.3896350490  3.3829441694  0.7812487598
C   -3.8385734682  3.2773126809  2.0973314113
C   -3.9024736385  4.3871152717 -0.0337063352
C   -4.7697664843  4.1696244969  2.5922997412
C   -4.8502061476  5.2668576514  0.4602468754
H   -5.0994760195  4.0880652431  3.6179821918
C   -5.2813727233  5.1640855758  1.7730491395
H   -5.2558601302  6.0333499569 -0.1833825255
H   -6.0164409739  5.8564197260  2.1555734987
H    6.3416036235  4.7328584597 -0.7896837379
H    3.6174297729  5.4047745271 -4.0090335879
H   -4.8183280217 -6.2981728946 -0.9846406906
H   -5.3803360141 -3.3774689054 -4.0515365493
H   -3.4344968822  2.5007856032  2.7311351492
H   -3.5713988450  4.4595139267 -1.0599102750
H    3.7453891577 -2.1451686964  2.5396186763
H    3.3460634655 -4.6766967491 -0.8745072610
H   -3.2416502496 -4.8016761172  0.1562305535
H   -3.7614680806 -1.9016451705 -2.9367545387
H    4.7487055288  3.1622279202  0.2332051453
H    2.0401088012  3.8044438595 -3.0019506499
Cl  -0.0148765036  0.0124535683  2.3791369860
78
aligned d3map frame 253
N   -0.0166326059  2.0500563944 -0.2209663514
N    2.0018204555  0.0032660891 -0.1171007699
C   -2.4095662358  2.4326984980  0.1322393442
C   -1.0967255413  2.8669269966 -0.0345102836
C   -0.6651509275  4.2342724204 -0.1234023078
H   -1.2826266695  5.0959375054  0.0356425005
C    0.6532701826  4.2170458907 -0.4485153269
H    1.2925875109  5.0578117438 -0.6352246423
C    1.0654630678  2.8430200627 -0.4683690415
C    2.3702905104  2.3913318992 -0.6715342150
C    2.8017362099  1.0596418608 -0.4447436818
C    4.1571606334  0.6510752365 -0.4165326876
H    5.0031042544  1.2783568054 -0.6185577799
C    4.1680806136 -0.6769766040 -0.0547555531
H    5.0179769223 -1.3192316912  0.0649908520
C    2.8192979533 -1.0645867342  0.1040386487
C    3.3943939517  3.3252920982 -1.1732984256
C    3.8070483294  4.4561146370 -0.4763634723
C    4.7702226766  5.2941879951 -1.0099796401
C    5.3299939224  5.0197985392 -2.2462720644
H    6.0785732395  5.6767461033 -2.6637956244
C    4.9311760074  3.8921858917 -2.9451825575
C    3.9780333174  3.0481358948 -2.4106561994
N    0.0253890675 -2.0349213139 -0.1587655187
N   -2.0018743414 -0.0027425423 -0.1348338808
C    2.3917784384 -2.4024447640  0.3114073378
C    1.0963560724 -2.8449607333  0.0871555916
C    0.6919416662 -4.2174904555 -0.0370450124
H    1.3423002655 -5.0596204368  0.1076259470
C   -0.6141073520 -4.2119842115 -0.4074211459
H   -1.2524882009 -5.0505953026 -0.6065401589
C   -1.0333808605 -2.8386379939 -0.4469231249
C   -2.3373813695 -2.4023922655 -0.6624081373
C   -2.7839611630 -1.0760231863 -0.4631313157
C   -4.1337552884 -0.6654114770 -0.5538805735
H   -4.9610104233 -1.3012023649 -0.8039213896
C   -4.1621359461  0.6792219819 -0.2631559400
H   -5.0185774204  1.3246657510 -0.2555586762
C   -2.8262855289  1.0741808433 -0.0190297289
C   -3.3300590057 -3.3866746357 -1.1519639056
C   -4.1973536402 -4.0569090799 -0.2979666800
C   -5.1213926686 -4.9551873306 -0.8069313854
C   -5.1916813651 -5.1878867651 -2.1698422915
H   -5.9157979197 -5.8839053269 -2.5666993284
C   -4.3277907787 -4.5244647727 -3.0258761375
C   -3.3999336184 -3.6328236260 -2.5203584111
Fe  -0.0021062469  0.0121789949  0.2392066053
C    3.4257327327 -3.3883407518  0.6920739554
C    3.7323318274 -3.5537306842  2.0385484824
C    4.0970875451 -4.1450237553 -0.2609640066
C    4.6930440821 -4.4703985650  2.4251210194
C    5.0618122244 -5.0569421609  0.1296982804
H    4.9210522048 -4.5972018294  3.4731531422
C    5.3580924456 -5.2232138728  1.4717576491
H    5.5834560887 -5.6384893040 -0.6165829733
H    6.1080061998 -5.9378879670  1.7781101515
C   -3.4843067071  3.4096066253  0.3440844413
C   -4.3623874497  3.2434125572  1.4191527440
C   -3.6878755668  4.4789302458 -0.5280626635
C   -5.4018729315  4.1310717136  1.6206914000
C   -4.7286704635  5.3651213689 -0.3222619053
H   -6.0741185980  3.9883755344  2.4560956850
C   -5.5895353444  5.1941990364  0.7515114496
H   -4.8777897288  6.1838578474 -1.0116522728
H   -6.4093874800  5.8802927181  0.9064933515
H    5.0918266326  6.1644373397 -0.4577276225
H    5.3642780163  3.6718600222 -3.9095199593
H   -5.7913665178 -5.4721401133 -0.1348481519
H   -4.3798665404 -4.7015850110 -4.0919758832
H   -4.2097414159  2.4190342993  2.1000544679
H   -3.0447902363  4.5833658307 -1.3910626245
H    3.2061125011 -2.9599901041  2.7719737380
H    3.8617286425 -4.0094315031 -1.3067736793
H   -4.1449869493 -3.8759714693  0.7656529910
H   -2.7246405120 -3.1123857712 -3.1849818777
H    3.3939864375  4.6635224836  0.5002135195
H    3.6638115272  2.1698909563 -2.9545042296
Cl  -0.0073649968  0.0450236666  2.3788421518
78
aligned d3map frame 254
N    0.0053331785  2.0391611585 -0.2641102896
N    2.0032731761  0.0414884121 -0.0794364806
C   -2.3868859916  2.3263269776 -0.7450453611
C   -1.0922359384  2.7980741284 -0.5223055431
C   -0.7529032940  4.1858817471 -0.3705855162
H   -1.4356540431  5.0010707982 -0.5153181131
C    0.5353216184  4.2359158678  0.0513933737
H    1.1027188682  5.1010745778  0.3330391217
C    1.0281201244  2.8832710351  0.0705441025
C    2.3322407356  2.4712053784  0.3267460233
C    2.7924147688  1.1330194110  0.0891453505
C    4.1414049267  0.7800309091 -0.1306716023
H    4.9799014307  1.4474469502 -0.0853625033
C    4.1576685095 -0.5617152088 -0.4475244983
H    5.0106257783 -1.1621611771 -0.6959218213
C    2.8183221467 -1.0122601658 -0.3909904488
C    3.3348187258  3.4056650357  0.8461804343
C    4.0255956672  3.0402274709  2.0052104162
C    4.9593568801  3.8882844370  2.5670512123
C    5.2368210670  5.1083864222  1.9725402656
H    5.9722558719  5.7707362501  2.4068671669
C    4.5746648694  5.4734133861  0.8116963451
C    3.6298574414  4.6322773947  0.2521074461
N   -0.0102346863 -2.0270686050 -0.2004312947
N   -2.0046783346 -0.0230744716 -0.0991576403
C    2.3970727932 -2.3505344303 -0.5612328741
C    1.0878780003 -2.8035679300 -0.4019694020
C    0.7269787912 -4.1841495746 -0.2297087743
H    1.3975621609 -5.0139388197 -0.3478742800
C   -0.5710014238 -4.2103982392  0.1612401260
H   -1.1574299710 -5.0668643456  0.4271592573
C   -1.0426861340 -2.8518034019  0.1528141240
C   -2.3312287047 -2.4187446538  0.4442855687
C   -2.7960376167 -1.0953564615  0.1499055653
C   -4.1463095218 -0.7553008393 -0.0810408257
H   -4.9822516288 -1.4177010639  0.0343732938
C   -4.1589230450  0.5561329879 -0.5076386319
H   -5.0101336070  1.1423721343 -0.7937458558
C   -2.8168254913  1.0052619287 -0.4909608834
C   -3.2659588120 -3.3217521900  1.1240122177
C   -3.7285615015 -2.9249075775  2.3805878689
C   -4.5093738863 -3.7709418140  3.1420254123
C   -4.8656786655 -5.0166886792  2.6516430759
H   -5.4667322626 -5.6846934890  3.2506703966
C   -4.4506229897 -5.4016053676  1.3871793212
C   -3.6541112144 -4.5638419393  0.6279731182
Fe  -0.0021062469  0.0121789949  0.2392066053
C    3.4385255423 -3.3708175090 -0.7940890976
C    3.5009740283 -4.0483011560 -2.0081374639
C    4.3523216892 -3.6831099628  0.2080252698
C    4.4673966513 -5.0143707805 -2.2192996913
C    5.3055063348 -4.6630764343 -0.0003908596
H    4.5177850382 -5.5277056513 -3.1681911854
C    5.3678029326 -5.3268560892 -1.2138517783
H    6.0002597446 -4.9100114191  0.7889527432
H    6.1168405309 -6.0887973597 -1.3731712929
C   -3.4006312115  3.2999444268 -1.2047331878
C   -3.4119785185  3.6910776915 -2.5394912018
C   -4.3443599034  3.8307796941 -0.3323963158
C   -4.3588784136  4.5899218151 -2.9965620035
C   -5.2782574927  4.7434044057 -0.7889617469
H   -4.3670283069  4.8754876008 -4.0383034332
C   -5.2909030302  5.1212155133 -2.1214559713
H   -5.9996731071  5.1614240817 -0.1022577698
H   -6.0252484130  5.8285855968 -2.4761843582
H    5.4732355435  3.5956537427  3.4706835331
H    4.7964269491  6.4171193768  0.3353134776
H   -4.8322016073 -3.4620738694  4.1255347208
H   -4.7434079927 -6.3636388331  0.9930897034
H   -2.6811811503  3.2764447771 -3.2185022722
H   -4.3314625715  3.5310961744  0.7048300753
H    2.7931813971 -3.8018874694 -2.7862593907
H    4.2932174013 -3.1659282103  1.1539400578
H   -3.4312849662 -1.9605865925  2.7662493142
H   -3.3494508258 -4.8615882593 -0.3649891958
H    3.7999181605  2.0924346406  2.4709299915
H    3.1428952432  4.9066169457 -0.6719442657
Cl  -0.0177315590  0.0337137982  2.3781641258
78
aligned d3map frame 255
N    0.0044626543  2.0406081202 -0.2505514647
N    2.0056885104  0.0440208202 -0.1023043197
C   -2.3678271243  2.3159790616 -0.8101732319
C   -1.0676851413  2.7826834753 -0.6455007818
C   -0.6620007701  4.1509226064 -0.7968613204
H   -1.2994898412  4.9533291954 -1.1116375280
C    0.6503597991  4.2154437704 -0.4558209126
H    1.2867366590  5.0778500390 -0.4567649991
C    1.0661777362  2.8808490429 -0.1278643360
C    2.3857298792  2.4833725722  0.1108945436
C    2.8167713213  1.1300025115  0.0913467479
C    4.1695669352  0.7129824822  0.0845013498
H    5.0186554645  1.3348445696  0.2928324071
C    4.1716922273 -0.6258858754 -0.2206690448
H    5.0230965785 -1.2527894450 -0.3713780323
C    2.8188267203 -1.0315181983 -0.3187786330
C    3.4008786142  3.5418376525  0.2022205214
C    3.2836400603  4.5488155257  1.1629316677
C    4.2223799508  5.5599471708  1.2374856138
C    5.2897296158  5.5900918289  0.3532285670
H    6.0223316332  6.3804410777  0.4086528288
C    5.4055633474  4.6047417200 -0.6146257332
C    4.4703846592  3.5902264557 -0.6930971101
N   -0.0208514368 -2.0293753012 -0.1876701271
N   -2.0045730759 -0.0305313491 -0.1238018858
C    2.3815014890 -2.3517284646 -0.5995018595
C    1.0679509307 -2.8004832945 -0.4503266483
C    0.6950339116 -4.1838575688 -0.3799427476
H    1.3605460297 -5.0101328158 -0.5380359864
C   -0.6141732367 -4.2242435839 -0.0167259431
H   -1.2073301032 -5.0959678443  0.1771049082
C   -1.0703839757 -2.8673977496  0.0617167413
C   -2.3808339409 -2.4450604860  0.2890477733
C   -2.8155555034 -1.1069918023  0.0833674412
C   -4.1605311547 -0.7439172290 -0.1582074240
H   -5.0066667059 -1.3990444693 -0.0781156135
C   -4.1530035138  0.5736553239 -0.5532544838
H   -4.9890497889  1.1805807787 -0.8413965556
C   -2.8049514304  1.0054404448 -0.5126068527
C   -3.3940891570 -3.4351741356  0.6784168286
C   -4.0700898697 -3.2660460372  1.8870585624
C   -4.9786635010 -4.2122614363  2.3213831486
C   -5.2436734714 -5.3314929031  1.5485534624
H   -5.9549363535 -6.0671038504  1.8893933357
C   -4.6012636788 -5.4937653905  0.3319787522
C   -3.6811830665 -4.5556788274 -0.1001489205
Fe  -0.0021062469  0.0121789949  0.2392066053
C    3.3619603851 -3.3173489254 -1.1211528693
C    3.1332892189 -3.8451444120 -2.3924230555
C    4.5118134102 -3.6993193971 -0.4354520023
C    4.0556811518 -4.6885593177 -2.9817007615
C    5.4267473673 -4.5521736571 -1.0256993397
H    3.8739526095 -5.0689560695 -3.9756561153
C    5.2123925086 -5.0339873529 -2.3059336896
H    6.3156588518 -4.8422158288 -0.4854140173
H    5.9386388930 -5.6842307895 -2.7720586957
C   -3.3639809575  3.2881265797 -1.3180196056
C   -3.4149561871  3.5584494875 -2.6816665904
C   -4.2178905915  3.9669712561 -0.4566311136
C   -4.3007453359  4.4985241421 -3.1744091509
C   -5.0924316241  4.9193007669 -0.9517265716
H   -4.3369396295  4.7017992712 -4.2342247228
C   -5.1341176109  5.1892152513 -2.3090978620
H   -5.7418851167  5.4625411908 -0.2783483085
H   -5.8118510786  5.9386568293 -2.6935666653
H    4.1201626165  6.3300012244  1.9882414570
H    6.2220124324  4.6309964337 -1.3234295042
H   -5.4817233449 -4.0785599744  3.2663026252
H   -4.8168685511 -6.3548373446 -0.2841457089
H   -2.7554482008  3.0266903825 -3.3508055278
H   -4.1779819202  3.7544419847  0.6012017170
H    2.2332753501 -3.5665508802 -2.9235759788
H    4.6739887542 -3.3463333776  0.5717295496
H   -3.8536109358 -2.3959947935  2.4882033667
H   -3.1990550524 -4.6708615063 -1.0595352656
H    2.4565467203  4.5154288172  1.8607313879
H    4.5425665070  2.8448409132 -1.4699383064
Cl  -0.0142477158  0.0641219075  2.3753996488
78
aligned d3map frame 256
N   -0.0056521345  2.0488346871 -0.1892462791
N    1.9929818890  0.0238303528 -0.1683485815
C   -2.4026451510  2.3711504654  0.3470934127
C   -1.0976896487  2.8307190813 -0.0361253842
C   -0.7885260221  4.1549571647 -0.4145351343
H   -1.4745323629  4.9796013769 -0.4167696515
C    0.5324763741  4.1547767057 -0.8146077523
H    1.0871015569  4.9878611119 -1.1986466207
C    1.0169601176  2.8394437395 -0.6289264370
C    2.3520615852  2.3882041668 -0.7871607387
C    2.7811297036  1.0938194401 -0.4682717365
C    4.1593055256  0.7183767383 -0.3078538216
H    4.9915957223  1.3758728002 -0.4684001553
C    4.1790596909 -0.5703702836  0.1153165121
H    5.0308782986 -1.1811878558  0.3444287319
C    2.8147916949 -1.0167721042  0.1689654966
C    3.3634595868  3.3398600539 -1.2653136567
C    3.5864030150  4.5606752708 -0.6298899410
C    4.5378538805  5.4389786491 -1.1131231657
C    5.2756990839  5.1191932993 -2.2413961347
H    6.0133649261  5.8096299282 -2.6210824507
C    5.0665551614  3.9062209449 -2.8769890668
C    4.1249402767  3.0200967183 -2.3903588811
N    0.0356576032 -2.0359838636 -0.1212214225
N   -1.9975831528  0.0172070584 -0.1824977229
C    2.4262871248 -2.3380673227  0.3631613419
C    1.1170756702 -2.8312056007  0.0942804575
C    0.7408104193 -4.1863543651 -0.0526766435
H    1.3792105803 -5.0366546133  0.0820519536
C   -0.5909921723 -4.1940935230 -0.4041677551
H   -1.1954233592 -5.0523614620 -0.6223958707
C   -1.0204444903 -2.8449902215 -0.4125052075
C   -2.3487130951 -2.3920047150 -0.6058474078
C   -2.7798903949 -1.0805510999 -0.4001135089
C   -4.1552314815 -0.7195029146 -0.2109009768
H   -4.9847026573 -1.3905562894 -0.3214582794
C   -4.1776925095  0.5765895809  0.1926577661
H   -5.0330416846  1.1513153964  0.4808995699
C   -2.8256370996  1.0556460814  0.1546528582
C   -3.3586439640 -3.3964421597 -0.9893283338
C   -3.7053535357 -4.4496601034 -0.1491185505
C   -4.6324660455 -5.3927988746 -0.5564620874
C   -5.2119753183 -5.3063551785 -1.8107106891
H   -5.9243775431 -6.0518465453 -2.1313490941
C   -4.8754013511 -4.2583372067 -2.6523603712
C   -3.9646543125 -3.3037565930 -2.2411645312
Fe  -0.0021062469  0.0121789949  0.2392066053
C    3.4506345032 -3.2932576133  0.8196769178
C    3.9883948550 -3.1400956533  2.0959337215
C    3.8953070356 -4.3423214592  0.0195713572
C    4.9342347630 -4.0306673239  2.5690836263
C    4.8509024153 -5.2228409397  0.4922081521
H    5.3321485820 -3.9075014844  3.5655084898
C    5.3675800561 -5.0744969914  1.7688656695
H    5.1962706521 -6.0290023034 -0.1381441661
H    6.1083409779 -5.7688297098  2.1366918874
C   -3.2579329758  3.3731646514  0.9831178439
C   -2.7118077626  4.0586592189  2.0749648758
C   -4.5650929621  3.6694584120  0.6013374994
C   -3.4638730033  4.9685016018  2.7885130662
C   -5.3119522635  4.5898137834  1.3147240263
H   -3.0295823311  5.4706966242  3.6404278209
C   -4.7726444450  5.2327033708  2.4166740640
H   -6.3235715205  4.8100663157  1.0077966564
H   -5.3658351546  5.9406692996  2.9760811179
H    4.7063564374  6.3764191362 -0.6044111477
H    5.6412958456  3.6525292222 -3.7560473093
H   -4.9020253378 -6.2002472835  0.1082409391
H   -5.3210012399 -4.1857342482 -3.6333010638
H   -1.6983645899  3.8376762414  2.3742106299
H   -4.9848540187  3.2103254937 -0.2806901171
H    3.6430297670 -2.3270092960  2.7179184065
H    3.5051203305 -4.4465429514 -0.9819107306
H   -3.2583192821 -4.5145205448  0.8321224089
H   -3.6979973097 -2.4871695491 -2.8961976911
H    3.0283949993  4.8000029001  0.2625150175
H    3.9547012338  2.0774456226 -2.8893739759
Cl  -0.0168907558  0.0575296492  2.3783096450
78
aligned d3map frame 257
N   -0.0302551119  2.0586856171 -0.1512670807
N    2.0017807058  0.0186136531 -0.1541852735
C   -2.4296829192  2.4098842685  0.1948307582
C   -1.0963739354  2.8636999071  0.1318172434
C   -0.6686881944  4.2133043635  0.1778859417
H   -1.2922033964  5.0583034085  0.3954354462
C    0.6729430917  4.2116909400 -0.1196573369
H    1.3334010517  5.0560036905 -0.1547137216
C    1.0452227012  2.8596519833 -0.3332299480
C    2.3534180071  2.4073187005 -0.6668223962
C    2.7778889568  1.0805810396 -0.5354916689
C    4.1298344095  0.6351363642 -0.6966029371
H    4.9424368338  1.2313210510 -1.0606206051
C    4.1743013703 -0.6663446016 -0.3042904498
H    5.0331860796 -1.3053462513 -0.2579086629
C    2.8327068606 -1.0608161858 -0.0119449578
C    3.2591333983  3.4405490916 -1.1813804006
C    4.5272017328  3.6898213934 -0.6615249226
C    5.3233675520  4.6855833501 -1.1994683797
C    4.8685814013  5.4552727313 -2.2573973562
H    5.4938543289  6.2332785997 -2.6711960037
C    3.6035292222  5.2266873165 -2.7759282763
C    2.8078115770  4.2335122203 -2.2433642190
N    0.0059059178 -2.0430813720 -0.0850442110
N   -1.9996531744  0.0064652749 -0.1779929791
C    2.4253245395 -2.3712907242  0.2662209174
C    1.0987296879 -2.8322257888  0.0993720321
C    0.7362376203 -4.1900288753 -0.0877093145
H    1.4053138578 -5.0263675259 -0.0284076125
C   -0.6003283516 -4.2029452227 -0.4049444946
H   -1.1990667312 -5.0544009425 -0.6616462608
C   -1.0475764264 -2.8566298574 -0.3578164342
C   -2.3848751572 -2.4124439220 -0.5141736663
C   -2.7994920082 -1.0825701061 -0.3724227918
C   -4.1749970856 -0.6780144502 -0.3058791338
H   -5.0160290238 -1.3361676227 -0.3995426327
C   -4.1887620152  0.6586128718 -0.0625351863
H   -5.0414339577  1.2971649625  0.0690116131
C   -2.8259482000  1.0873710796  0.0006990088
C   -3.4192045025 -3.4247400424 -0.7703897324
C   -3.6000055739 -4.5035980285  0.0942864296
C   -4.5849567668 -5.4414230360 -0.1507957606
C   -5.4011556842 -5.3235388310 -1.2639650098
H   -6.1704308033 -6.0571312740 -1.4539522742
C   -5.2284976247 -4.2568461788 -2.1314668592
C   -4.2498278116 -3.3128059473 -1.8861292185
Fe  -0.0021062469  0.0121789949  0.2392066053
C    3.3944708243 -3.3807406883  0.7254902911
C    4.4796337186 -3.8234603188 -0.0249473653
C    3.1808219024 -3.9323564310  1.9899405151
C    5.3375607430 -4.7822327331  0.4850094960
C    4.0463587231 -4.8807122578  2.4998235470
H    6.1713571176 -5.1243762958 -0.1103768713
C    5.1290368135 -5.3088353083  1.7488305586
H    3.8724649115 -5.2894005139  3.4843195811
H    5.8011328197 -6.0558637505  2.1429012683
C   -3.4706444236  3.4457428736  0.3594855864
C   -4.2354559177  3.8454201489 -0.7324270143
C   -3.6702409208  4.0609770113  1.5906554499
C   -5.1736432561  4.8522667263 -0.5969727116
C   -4.6213151374  5.0564225804  1.7256556538
H   -5.7507558061  5.1653494667 -1.4549455204
C   -5.3690497301  5.4600503392  0.6318322325
H   -4.7757072081  5.5223540009  2.6879986438
H   -6.1003495992  6.2472271228  0.7364059264
H    6.3033415494  4.8689985154 -0.7841248008
H    3.2371478620  5.8258537694 -3.5961887833
H   -4.7204349112 -6.2669809516  0.5325067885
H   -5.8603048788 -4.1606498624 -3.0022033468
H   -4.0760262680  3.3727470528 -1.6907526094
H   -3.0819311876  3.7467613529  2.4401621242
H    4.6297437715 -3.4427641524 -1.0246285403
H    2.3376171938 -3.5944767943  2.5739057608
H   -2.9803856565 -4.5822440810  0.9751272388
H   -4.1071436789 -2.4871348824 -2.5679666591
H    4.8755920815  3.1292118326  0.1933829858
H    1.8250818983  4.0475387114 -2.6556240863
Cl  -0.0130110290  0.0232141898  2.3790437867
78
aligned d3map frame 258
N    0.0145894982  2.0490299652 -0.2037273887
N    1.9942918174  0.0191433520 -0.1618930844
C   -2.3657119800  2.3426965571 -0.7385644317
C   -1.0468914525  2.8203152055 -0.5831997118
C   -0.6202840725  4.1691869558 -0.6928490704
H   -1.2235618736  4.9932887616 -1.0171311464
C    0.6980183831  4.2046328176 -0.3072389688
H    1.3236351359  5.0701425396 -0.2258238011
C    1.0830817816  2.8685053464 -0.0375964157
C    2.3942284130  2.4081808590  0.2853747959
C    2.8016398057  1.0827242887  0.1214617504
C    4.1714839833  0.6670620902  0.0349149449
H    5.0201312410  1.3024153099  0.1996098475
C    4.1683622640 -0.6382709417 -0.3448513155
H    5.0159851659 -1.2718417967 -0.5204551384
C    2.7987719189 -1.0478537142 -0.4429988594
C    3.3897719874  3.3634506329  0.7906561097
C    3.9337937540  3.1232424838  2.0543556393
C    4.8365351068  4.0074287374  2.6117502471
C    5.2245047111  5.1375188631  1.9114737862
H    5.9271170266  5.8320891552  2.3488173660
C    4.7148440831  5.3688131018  0.6442632570
C    3.8050078284  4.4911328319  0.0860298897
N    0.0044197187 -2.0309626466 -0.1443126693
N   -1.9970643601 -0.0399595685 -0.1772057612
C    2.3774218862 -2.3593128427 -0.6901893952
C    1.0477093560 -2.8114790921 -0.5528926547
C    0.5862467971 -4.1404477927 -0.7318999361
H    1.1710810514 -4.9636721001 -1.0927867229
C   -0.7401389727 -4.1536764464 -0.3662307337
H   -1.4164430543 -4.9861210062 -0.3795447120
C   -1.0765621418 -2.8277380494 -0.0011204537
C   -2.3879469367 -2.3904872682  0.3779746409
C   -2.8161548956 -1.0735769237  0.2047217050
C   -4.1636278281 -0.5910775029  0.2806174957
H   -5.0119841401 -1.1499619724  0.6210625438
C   -4.1519404733  0.6968759384 -0.1576360302
H   -4.9859444145  1.3667848351 -0.2433211896
C   -2.7876841759  1.0442390109 -0.4156815727
C   -3.2459263691 -3.4218070920  0.9603571373
C   -2.7010402939 -4.1840333443  2.0008906889
C   -3.4486136850 -5.1526812346  2.6375518543
C   -4.7552773513 -5.3925685915  2.2425162308
H   -5.3420823370 -6.1497635585  2.7407213126
C   -5.2992156076 -4.6638098967  1.1972432002
C   -4.5541788848 -3.6900583975  0.5574516913
Fe  -0.0021062469  0.0121789949  0.2392066053
C    3.4024725879 -3.3612566346 -1.0264286973
C    4.1726382183 -3.2322440136 -2.1800215656
C    3.6153790238 -4.4565592272 -0.1917466017
C    5.1258071518 -4.1833566204 -2.4946533874
C    4.5798264246 -5.3965600052 -0.5015391160
H    5.7084703720 -4.0804918281 -3.3983977366
C    5.3352260884 -5.2653553870 -1.6555920387
H    4.7440436146 -6.2346243273  0.1601594824
H    6.0851226522 -6.0035096971 -1.8985277616
C   -3.3837681581  3.2668769219 -1.2623772006
C   -4.0502517270  2.9178678808 -2.4366083782
C   -3.6784832920  4.4885277990 -0.6602120637
C   -4.9555180810  3.7859353091 -3.0165427126
C   -4.5904649661  5.3512586314 -1.2384988209
H   -5.4514588869  3.5080580607 -3.9350032367
C   -5.2211097210  5.0097535818 -2.4242420951
H   -4.8092152032  6.2985093699 -0.7682342466
H   -5.9203722968  5.6936346720 -2.8820510433
H    5.2368624900  3.8156452709  3.5965928767
H    5.0279247669  6.2367817209  0.0854631736
H   -3.0108934525 -5.7224521529  3.4438409148
H   -6.3114930890 -4.8608325289  0.8752148567
H   -3.8309720698  1.9677304569 -2.9021702679
H   -3.2036843011  4.7440994246  0.2750463170
H    4.0043419008 -2.3911801680 -2.8365503354
H    3.0314868412 -4.5504797805  0.7118747686
H   -1.6888920776 -3.9822078436  2.3189081624
H   -4.9735710779 -3.1639072435 -0.2870076247
H    3.6191845066  2.2469927146  2.6016757812
H    3.4373484055  4.6588421074 -0.9155027306
Cl  -0.0086337461  0.0401376372  2.3789246997
78
aligned d3map frame 259
N   -0.0195533960  2.0694720219 -0.1327245896
N    2.0133278352  0.0317041000 -0.0809015330
C   -2.4391641449  2.4356549027 -0.2734433918
C   -1.1217439172  2.8708876496 -0.1907178280
C   -0.7158518399  4.2474263415 -0.1484427267
H   -1.3830438485  5.0847098840 -0.2173701877
C    0.6340004490  4.2583076920 -0.0215854543
H    1.2913665362  5.1044855560  0.0307316160
C    1.0632025801  2.8873231330 -0.0008981649
C    2.3872910742  2.4767056976  0.0883936226
C    2.8242767220  1.1302067377 -0.0329060340
C    4.1799467636  0.7323423262 -0.0568513974
H    5.0281234936  1.3858792863 -0.0177873905
C    4.1898803159 -0.6405774683 -0.1174045282
H    5.0459982339 -1.2850458667 -0.1380730194
C    2.8396660635 -1.0595914736 -0.1212437981
C    3.4015364420  3.4911101969  0.4265670998
C    3.3284238297  4.1015839677  1.6778906124
C    4.2937781421  5.0073984136  2.0739019577
C    5.3363114356  5.3298187064  1.2206758238
H    6.0946918207  6.0324114420  1.5324360830
C    5.4017069793  4.7479868247 -0.0347230299
C    4.4440651453  3.8312268680 -0.4301719913
N   -0.0013368520 -2.0551241160 -0.0658602491
N   -2.0123921028  0.0010013134 -0.1038931693
C    2.4300049102 -2.4124168366 -0.0427935030
C    1.1100588367 -2.8462589211 -0.0047744436
C    0.7153362481 -4.2154727420  0.1659337783
H    1.3877161870 -5.0500626615  0.2052494765
C   -0.6353164968 -4.2270850365  0.2768273105
H   -1.2682874878 -5.0742657200  0.4489216757
C   -1.0813527587 -2.8706887781  0.1235554831
C   -2.4005920064 -2.4374909025  0.2065825578
C   -2.8167517785 -1.0959625245 -0.0380330843
C   -4.1618660946 -0.7267126574 -0.2512500437
H   -4.9945543108 -1.4015156043 -0.2897002659
C   -4.1761745962  0.6403147178 -0.4141432257
H   -5.0273055206  1.2694469269 -0.5838381453
C   -2.8372513132  1.0775822477 -0.3024337591
C   -3.4312234697 -3.3586692910  0.6995990161
C   -4.1235350153 -2.9876741140  1.8556794085
C   -5.0320250847 -3.8474210467  2.4398328813
C   -5.2813845843 -5.0865057601  1.8713002090
H   -5.9837915975 -5.7628317503  2.3361714517
C   -4.6301447607 -5.4492731081  0.7034949840
C   -3.7119433782 -4.5946950199  0.1199220207
Fe  -0.0021062469  0.0121789949  0.2392066053
C    3.4903751020 -3.4187347493  0.1623193999
C    3.5735359503 -4.0689496767  1.3919964945
C    4.4288428392 -3.7113894993 -0.8221690988
C    4.5841134224 -4.9797976059  1.6361285611
C    5.4323650688 -4.6320553723 -0.5774052596
H    4.6443565701 -5.4667199703  2.5985533056
C    5.5177364160 -5.2625052188  0.6528024546
H    6.1537443187 -4.8564192901 -1.3496494555
H    6.3097258339 -5.9714611634  0.8455383042
C   -3.5098088514  3.4472965297 -0.1611487299
C   -3.6734529096  4.0965986297  1.0612833888
C   -4.3781879685  3.7437050074 -1.2059040831
C   -4.6990618121  5.0052147750  1.2408556058
C   -5.3952491415  4.6655412729 -1.0267111608
H   -4.8261478311  5.4877264558  2.1991258213
C   -5.5647181058  5.2903310729  0.1975810901
H   -6.0626376170  4.8935352015 -1.8452021224
H   -6.3687157226  5.9972038528  0.3406822592
H    4.2355154627  5.4579468847  3.0538448058
H    6.2061889811  5.0064172300 -0.7077843334
H   -5.5404282891 -3.5518684887  3.3459919248
H   -4.8358515127 -6.4057551103  0.2455300009
H   -2.9996552893  3.8627366407  1.8727395490
H   -4.2466426630  3.2569295091 -2.1617413610
H    2.8510189837 -3.8355373287  2.1603048035
H    4.3606289129 -3.2219359871 -1.7827308549
H   -3.9116128326 -2.0294966488  2.3068018446
H   -3.2276278842 -4.8727680859 -0.8052916596
H    2.5210679993  3.8361455501  2.3445889829
H    4.4908905925  3.3851441936 -1.4130461579
Cl  -0.0124516469  0.0407401059  2.3794025927
78
aligned d3map frame 260
N   -0.0228662063  2.0484900405 -0.2275708944
N    2.0019384903 -0.0153570344 -0.1151423995
C   -2.4252357669  2.4213400584  0.1143179327
C   -1.1194544679  2.8547504065 -0.1522510101
C   -0.7410171037  4.1938716223 -0.4853195826
H   -1.3953349476  5.0428532368 -0.4825970443
C    0.5761737096  4.1626224006 -0.8260414762
H    1.1717293452  4.9765209396 -1.1882796904
C    1.0352976744  2.8223085481 -0.6097606402
C    2.3564365919  2.3753678824 -0.7001192805
C    2.7888637150  1.0780307045 -0.2958121246
C    4.1354733101  0.7485757418 -0.0060825036
H    4.9595220391  1.4349785243 -0.0236530435
C    4.1570470804 -0.5830173107  0.3359057595
H    5.0061513450 -1.1563059732  0.6515705812
C    2.8299872821 -1.0615808525  0.2078390953
C    3.3954594932  3.2338533364 -1.2799080502
C    3.6539016922  4.5386483255 -0.8605991705
C    4.6269236657  5.2965116793 -1.4873328090
C    5.3634854734  4.7690463725 -2.5359061295
H    6.1192451979  5.3661423528 -3.0246344218
C    5.1312029201  3.4666241495 -2.9482587061
C    4.1623222179  2.7066363054 -2.3253361794
N    0.0428781511 -2.0315200028 -0.1669352104
N   -2.0040147856  0.0028434592 -0.1313619927
C    2.4315759550 -2.4174109572  0.2443014565
C    1.1233418139 -2.8464970160 -0.0341887744
C    0.7441664911 -4.1891336089 -0.3571470324
H    1.4013660370 -5.0365187128 -0.3557233687
C   -0.5729061952 -4.1606381763 -0.6984744755
H   -1.1955841517 -4.9794685250 -1.0035240356
C   -1.0122888325 -2.8050652623 -0.5553963804
C   -2.3278847877 -2.3752994074 -0.6990817199
C   -2.7929165426 -1.0745698906 -0.3999876927
C   -4.1578906737 -0.6898318665 -0.3518442022
H   -4.9915982826 -1.3391377748 -0.5341385911
C   -4.1839620541  0.6440371581 -0.0337259401
H   -5.0458203762  1.2721166353  0.0838437818
C   -2.8330257918  1.0707533115  0.0697068362
C   -3.3106433023 -3.3468690834 -1.2288451021
C   -4.2009889927 -4.0276646939 -0.4084129625
C   -5.1026242414 -4.9254043063 -0.9533584027
C   -5.1315711591 -5.1424939575 -2.3207427206
H   -5.8388718390 -5.8395258177 -2.7458508690
C   -4.2487302021 -4.4641330273 -3.1444427238
C   -3.3387098270 -3.5759275525 -2.6019230306
Fe  -0.0021062469  0.0121789949  0.2392066053
C    3.4524852579 -3.4560279483  0.4269062048
C    3.2722929335 -4.4559715191  1.3841473846
C    4.5939953398 -3.4940666117 -0.3748858852
C    4.2115119902 -5.4578803933  1.5390898705
C    5.5283179541 -4.5005954423 -0.2194388605
H    4.0614628969 -6.2238097288  2.2859769570
C    5.3419418651 -5.4847515448  0.7370696823
H    6.4027635058 -4.5200566934 -0.8541933317
H    6.0707684495 -6.2727809638  0.8546453384
C   -3.4921649115  3.4188778096  0.3133562031
C   -4.1682338480  3.4663658051  1.5300859049
C   -3.8710416677  4.2924051797 -0.7031136193
C   -5.1887431477  4.3784818194  1.7299092114
C   -4.8992673846  5.1948798153 -0.5041344726
H   -5.7000988527  4.4104367648  2.6808434891
C   -5.5586184310  5.2428650272  0.7133293344
H   -5.1918249518  5.8576874902 -1.3051282986
H   -6.3635077836  5.9468803520  0.8658273426
H    4.8164221127  6.3069241830 -1.1538306893
H    5.7064407166  3.0414124680 -3.7586954007
H   -5.7856167382 -5.4578397321 -0.3076724673
H   -4.2679640681 -4.6272427837 -4.2124702453
H   -3.8791972908  2.7899844009  2.3212061808
H   -3.3747461604  4.2392725303 -1.6616099296
H    2.3972489764 -4.4282563926  2.0169705707
H    4.7246818197 -2.7472268093 -1.1441071290
H   -4.1771925909 -3.8568510532  0.6579084601
H   -2.6453202422 -3.0452554466 -3.2382116378
H    3.1154961049  4.9445265642 -0.0170613852
H    3.9693983581  1.6955727596 -2.6552697254
Cl  -0.0336788103  0.0575630819  2.3788820041
78
aligned d3map frame 261
N   -0.0005466272  2.0654573371 -0.1544170540
N    2.0135864529  0.0273773406 -0.0692924577
C   -2.4186067175  2.4375389709 -0.0019073502
C   -1.1011639717  2.8690286308 -0.0865144093
C   -0.6935147661  4.2425546666 -0.1900998027
H   -1.3616176605  5.0817157300 -0.1866443120
C    0.6567633779  4.2476712861 -0.3139276479
H    1.3055412345  5.0935436613 -0.4323945826
C    1.0877490747  2.8779398703 -0.2674852978
C    2.4132463672  2.4580749334 -0.3324987112
C    2.8351684018  1.1077693913 -0.2454351077
C    4.1874591462  0.6943464055 -0.2066994084
H    5.0401968186  1.3362804305 -0.3147863082
C    4.1811719118 -0.6629129720  0.0254675060
H    5.0225412552 -1.3224930466  0.1156035466
C    2.8268898974 -1.0535047437  0.1062149471
C    3.4629710603  3.4914161876 -0.3987665205
C    3.6469478077  4.3582677929  0.6761050299
C    4.6432481716  5.3168260486  0.6422253956
C    5.4545989036  5.4371184095 -0.4731913347
H    6.2301103829  6.1891018064 -0.5063548381
C    5.2696680895  4.5875758422 -1.5525208868
C    4.2896327935  3.6131342928 -1.5131709201
N    0.0131876318 -2.0503398014 -0.0895670308
N   -2.0165083387 -0.0077922842 -0.0862049783
C    2.4002537453 -2.3921264926  0.3045030483
C    1.1032357612 -2.8439281809  0.1290124725
C    0.6926023142 -4.2154519777  0.1959894583
H    1.3626260739 -5.0416504672  0.3305020243
C   -0.6523570218 -4.2366397513  0.0382176775
H   -1.3114114819 -5.0848415813  0.0433748480
C   -1.0760876157 -2.8694537627 -0.0964703120
C   -2.4015203089 -2.4584098763 -0.1072019861
C   -2.8284441694 -1.1094669161 -0.1095181101
C   -4.1818342895 -0.7111016371 -0.0859295022
H   -5.0252927386 -1.3724006371 -0.1005141399
C   -4.1887726970  0.6650827448 -0.0368519080
H   -5.0449401993  1.3037823218  0.0077409564
C   -2.8396019863  1.0822879794 -0.0441300225
C   -3.4359440554 -3.5055482222  0.0619143295
C   -3.8192778252 -3.8529929007  1.3533246227
C   -4.7474289380 -4.8578887165  1.5602774286
C   -5.3031178287 -5.5249815099  0.4820506592
H   -6.0176571907 -6.3192319741  0.6476414861
C   -4.9326452043 -5.1746231363 -0.8055501000
C   -4.0046380364 -4.1695219165 -1.0179060783
Fe  -0.0021062469  0.0121789949  0.2392066053
C    3.3941461818 -3.3430044061  0.8494188052
C    4.1188803340 -4.2278787201  0.0611552654
C    3.5728640320 -3.3494013964  2.2304523760
C    5.0073670551 -5.1112191073  0.6510152718
C    4.4514339968 -4.2410805244  2.8154040298
H    5.5727920310 -5.7947365612  0.0333336432
C    5.1705234016 -5.1237671102  2.0264081500
H    4.5729927931 -4.2468521635  3.8886993455
H    5.8555793944 -5.8226716031  2.4848239254
C   -3.4643482762  3.4579222041  0.1931431772
C   -4.4439069678  3.7054064160 -0.7636725475
C   -3.4878506331  4.1738937151  1.3876287197
C   -5.4318167932  4.6443640214 -0.5232905212
C   -4.4852526086  5.1002526533  1.6319859383
H   -6.1859408286  4.8314882401 -1.2740443206
C   -5.4600779269  5.3373862325  0.6764227086
H   -4.5055196248  5.6319565102  2.5714900836
H   -6.2416290809  6.0588435089  0.8676854420
H    4.7863454564  5.9685953787  1.4933284324
H    5.8958073884  4.6850896850 -2.4276068944
H   -5.0314750228 -5.1213718927  2.5694974897
H   -5.3647619978 -5.6917183604 -1.6499842938
H   -4.4215625208  3.1660077013 -1.6997667585
H   -2.7308241485  3.9760248405  2.1337701863
H    3.9834802697 -4.2187874879 -1.0105840478
H    3.0035549390 -2.6583866923  2.8357531230
H   -3.3738559678 -3.3378869662  2.1925616185
H   -3.7131432904 -3.8989591813 -2.0221705377
H    3.0122889057  4.2586186992  1.5459949839
H    4.1436996204  2.9481129012 -2.3526286740
Cl  -0.0021560537  0.0025676138  2.3792204338
78
aligned d3map frame 262
N    0.0052743715  2.0458575900 -0.2365334772
N    1.9977381983  0.0152526764 -0.1268465563
C   -2.3798019879  2.3437143467 -0.7087822076
C   -1.0890888886  2.8180167876 -0.4835290622
C   -0.7164707493  4.2018676540 -0.3857556891
H   -1.3772465736  5.0300672880 -0.5525454378
C    0.5851282000  4.2383687118 -0.0023800702
H    1.1737576004  5.1055674300  0.2212877830
C    1.0515051629  2.8788573832  0.0422854109
C    2.3583118993  2.4478977056  0.2608165926
C    2.7949451265  1.1072521784  0.0072350299
C    4.1306167058  0.7584764048 -0.2912857106
H    4.9678059982  1.4287888542 -0.2875379923
C    4.1290369829 -0.5766040967 -0.6311665378
H    4.9682868227 -1.1693847735 -0.9363128680
C    2.7951499477 -1.0310239278 -0.5038278883
C    3.3963898134  3.3664680652  0.7350780642
C    4.1267770143  2.9858666768  1.8657054287
C    5.1044025027  3.8091282689  2.3857118712
C    5.3863876804  5.0230172712  1.7778859525
H    6.1528108339  5.6670424317  2.1826834493
C    4.6871903612  5.3996739312  0.6433492099
C    3.7001676316  4.5816441305  0.1231283542
N   -0.0003328151 -2.0281700208 -0.1778059336
N   -1.9992898629 -0.0391997162 -0.1448398118
C    2.3618061863 -2.3614594663 -0.7194862335
C    1.0625061218 -2.8158492092 -0.4885875007
C    0.6677478759 -4.1936716718 -0.4008869329
H    1.3092135300 -5.0272943841 -0.6129332992
C   -0.6209196262 -4.2117074125  0.0290631827
H   -1.2471326381 -5.0612321568  0.2192391356
C   -1.0440425193 -2.8443179405  0.1421063761
C   -2.3469174078 -2.4233155146  0.3907827592
C   -2.8100275274 -1.1061998964  0.1021448357
C   -4.1600714652 -0.7241822815 -0.0615865445
H   -5.0139487321 -1.3537583672  0.0907998855
C   -4.1548135414  0.5945433332 -0.4603958289
H   -5.0039792945  1.2111791102 -0.6813053539
C   -2.8023260969  1.0100258928 -0.4888251031
C   -3.2846576235 -3.3983376282  0.9728590224
C   -3.0433084535 -3.8147606284  2.2817113041
C   -3.9021303706 -4.6984850929  2.9058182496
C   -5.0033789875 -5.1937514059  2.2265222087
H   -5.6732769699 -5.8858068919  2.7153845900
C   -5.2373350389 -4.8019327855  0.9191799966
C   -4.3872732779 -3.9063158717  0.2943060270
Fe  -0.0021062469  0.0121789949  0.2392066053
C    3.3536459369 -3.3353415132 -1.2096130151
C    4.4607335883 -3.7111819952 -0.4543859943
C    3.1878944900 -3.8772119603 -2.4830437646
C    5.3850035433 -4.6026826779 -0.9681582354
C    4.1243835500 -4.7518478125 -3.0000174056
H    6.2361049824 -4.8948645319 -0.3703161092
C    5.2267998647 -5.1169989663 -2.2447844930
H    3.9962250682 -5.1473983816 -3.9973693111
H    5.9585904859 -5.7998447926 -2.6493095730
C   -3.4163020281  3.2835989088 -1.1836016720
C   -3.9532855908  4.2751599737 -0.3705309788
C   -3.8760234202  3.1547805244 -2.4925856049
C   -4.9316765468  5.1222755733 -0.8614801155
C   -4.8411937248  4.0126928486 -2.9831061128
H   -5.3541135938  5.8827229774 -0.2202195432
C   -5.3737675021  4.9983976237 -2.1676554003
H   -5.1832142875  3.9104912617 -4.0028194416
H   -6.1338249892  5.6631353234 -2.5501376912
H    5.6483106212  3.5031987929  3.2674169737
H    4.9180188489  6.3356040153  0.1558780269
H   -3.7105887004 -5.0007277790  3.9249946066
H   -6.0874704552 -5.1978943301  0.3827678546
H   -3.6159541333  4.3648441660  0.6514996697
H   -3.4592874029  2.3797110011 -3.1194855981
H    4.5815424463 -3.3124131572  0.5422810594
H    2.3291911916 -3.5859350301 -3.0704418542
H   -2.1864801503 -3.4177582442  2.8070606441
H   -4.5635667441 -3.6161456438 -0.7312578429
H    3.8957147610  2.0446436610  2.3423600766
H    3.1914096223  4.8645213095 -0.7863748809
Cl  -0.0178355044  0.0465892633  2.3781409784
78
aligned d3map frame 263
N    0.0130720006  2.0435280137 -0.2299698875
N    1.9955836275  0.0519782399 -0.1492123215
C   -2.3398035436  2.3679417304 -0.8377575270
C   -1.0466315152  2.8238701158 -0.5432237674
C   -0.6698159992  4.2045290346 -0.4021493922
H   -1.3138265654  5.0422117986 -0.5851357475
C    0.6121202356  4.2245717744  0.0478250266
H    1.2230129218  5.0774555065  0.2731553148
C    1.0495409764  2.8615306871  0.1281108594
C    2.3517990523  2.4421787366  0.3651684092
C    2.8111834423  1.1230330069  0.0833852548
C    4.1593578032  0.7361877348 -0.0749705245
H    5.0151036463  1.3659421715  0.0652323551
C    4.1507754878 -0.5862043952 -0.4595913808
H    4.9956414539 -1.2146591557 -0.6660110680
C    2.7965627135 -0.9973850527 -0.4832020562
C    3.3214929714  3.4025786988  0.9202539494
C    3.1472216872  3.8055119063  2.2420828420
C    4.0800815756  4.6279339288  2.8509728254
C    5.1800124508  5.0804761803  2.1398153114
H    5.9158179701  5.7108088213  2.6195089333
C    5.3396139474  4.7127084453  0.8140369962
C    4.4191439503  3.8750303352  0.2059186851
N    0.0142514918 -2.0335538502 -0.1604531513
N   -1.9981783179  0.0045322054 -0.1629588403
C    2.3773707191 -2.3373113309 -0.6993110355
C    1.0912047148 -2.8134721625 -0.4490006357
C    0.6858746940 -4.1939247585 -0.4479685277
H    1.3301541474 -5.0292246610 -0.6653909562
C   -0.6251538167 -4.2241231579 -0.0987813099
H   -1.2488199916 -5.0889531688  0.0300414394
C   -1.0580183888 -2.8585573887  0.0274921052
C   -2.3714120313 -2.4292453931  0.1849243619
C   -2.8008270817 -1.0905882943 -0.0393411926
C   -4.1220627513 -0.7555771891 -0.4143773653
H   -4.9552640747 -1.4316494091 -0.4228474997
C   -4.1004084902  0.5618267936 -0.8096340203
H   -4.9199514527  1.1198733900 -1.2184080003
C   -2.7788224760  1.0325542121 -0.6166307711
C   -3.4168390487 -3.4353436991  0.4405625140
C   -4.1388570265 -3.3898188142  1.6318486318
C   -5.0869892928 -4.3556099249  1.9142618986
C   -5.3508230387 -5.3603320959  0.9957752882
H   -6.0956380063 -6.1122420057  1.2128891030
C   -4.6577817255 -5.3964317935 -0.2032882056
C   -3.6897321803 -4.4475037131 -0.4775805789
Fe  -0.0021062469  0.0121789949  0.2392066053
C    3.3937290684 -3.2527535053 -1.2450267069
C    3.8647965902 -4.3637242063 -0.5528093379
C    3.9003203283 -2.9821213321 -2.5171397955
C    4.8179699734 -5.1904519905 -1.1235297206
C    4.8377810182 -3.8186548583 -3.0897275984
H    5.1882239171 -6.0424886368 -0.5735691666
C    5.3000997039 -4.9252220113 -2.3940424039
H    5.2135616325 -3.6074774790 -4.0807226009
H    6.0382471237 -5.5746330194 -2.8422033313
C   -3.2808690127  3.3422746091 -1.3979577495
C   -4.5494011849  3.5659150293 -0.8620384368
C   -2.8990057940  4.0674657964 -2.5308083566
C   -5.4188759509  4.4570017136 -1.4623215029
C   -3.7725321898  4.9542720871 -3.1293485581
H   -6.3982051127  4.6180136349 -1.0360194221
C   -5.0403683007  5.1445021864 -2.6045972619
H   -3.4677113742  5.4967573290 -4.0124048571
H   -5.7282959082  5.8289355858 -3.0790969152
H    3.9525487368  4.9130442864  3.8849655398
H    6.1875120100  5.0743915073  0.2504198810
H   -5.6200559724 -4.3266990725  2.8547736316
H   -4.8694590164 -6.1693365765 -0.9286346557
H   -4.8345625992  3.0581440990  0.0476162469
H   -1.9171168419  3.9047396536 -2.9521546385
H    3.5037529338 -4.5583478571  0.4474716685
H    3.5371126106 -2.1179906070 -3.0548215698
H   -3.9289066969 -2.6044227879  2.3434003678
H   -3.1516487677 -4.4698008223 -1.4155654894
H    2.2934105083  3.4424648812  2.7971054663
H    4.5360165821  3.5953788436 -0.8307817268
Cl  -0.0019322694  0.0720684903  2.3780898773
