78
aligned d3map frame 1
N   -0.2644300278 -2.0360065340 -0.0689002685
N   -1.9807720938  0.2656534375 -0.0652268626
C    2.0704795716 -2.7438167420 -0.1879174746
C    0.7083367008 -2.9854145436 -0.0263928084
C    0.1190198882 -4.2825186657  0.1819872726
H    0.6713850323 -5.1967683448  0.2828939088
C   -1.2197443673 -4.1016720113  0.2393659223
H   -1.9855456529 -4.8372858139  0.3888437855
C   -1.4599719342 -2.6923583033  0.0637042123
C   -2.7043444673 -2.1037380330 -0.0134915385
C   -2.9284300335 -0.7087299766 -0.1699180041
C   -4.1905336323 -0.1399050783 -0.4573777902
H   -5.0996905402 -0.6861302861 -0.6132367831
C   -4.0061701073  1.2191380500 -0.5107509253
H   -4.7420221018  1.9725701705 -0.7168370114
C   -2.6331526996  1.4551262549 -0.2488795597
C   -3.9106461819 -2.9558027804  0.0306807717
C   -4.7800398952 -2.9045655399  1.1218140302
C   -5.9371938996 -3.6644605306  1.1585687162
C   -6.2442459109 -4.4901803094  0.0905980957
H   -7.1462216786 -5.0809859009  0.1139942111
C   -5.4017307961 -4.5641207811 -1.0055656724
C   -4.2452516269 -3.8032892655 -1.0258303303
N    0.2858724797  2.0333305519 -0.0999074936
N    2.0004480241 -0.2708596114 -0.0815430588
C   -2.0537584748  2.7379007472 -0.1704158502
C   -0.6892868292  2.9794977539 -0.0487840144
C   -0.1027373732  4.2785899061  0.1505779748
H   -0.6536952089  5.1933351877  0.2458753646
C    1.2362070074  4.1005193503  0.2108356029
H    1.9983031564  4.8382658366  0.3686433259
C    1.4803356365  2.6922045761  0.0281250687
C    2.7242016364  2.1000918731 -0.0537594858
C    2.9413511737  0.7048497752 -0.2294589068
C    4.1863447971  0.1379699690 -0.5880686432
H    5.0862863436  0.6859503114 -0.7893482218
C    4.0005230023 -1.2219679052 -0.6357549981
H    4.7220500340 -1.9741024634 -0.8902046300
C    2.6431473980 -1.4604430603 -0.3009652031
C    3.9202015853  2.9611395343  0.0121817004
C    4.8106945189  2.8634459334  1.0835439724
C    5.9229941270  3.6844936729  1.1763935805
C    6.1666859005  4.6162298705  0.1827828374
H    7.0287153762  5.2615634114  0.2498197694
C    5.3124128273  4.7264457624 -0.9016900648
C    4.2021184934  3.9033690319 -0.9796730342
Fe   0.0125671918  0.0010084317  0.2913542290
C   -2.9665712757  3.8953868071 -0.2200521849
C   -3.8911477206  4.1329706095  0.7997302012
C   -2.9528357148  4.7856364405 -1.2955660034
C   -4.7670501404  5.2044148231  0.7464150723
C   -3.8211566145  5.8613527076 -1.3615085590
H   -5.4686101432  5.3538008117  1.5511326139
C   -4.7292273542  6.0656527389 -0.3364808216
H   -3.7826534159  6.5229377520 -2.2076870559
H   -5.4101545677  6.9008593033 -0.3810716375
C    2.9692392396 -3.9120327001 -0.2497553178
C    3.9121533372 -4.1560512849  0.7512033361
C    2.8888381614 -4.8323485135 -1.2981713893
C    4.7284570060 -5.2752941767  0.7189190067
C    3.7005517813 -5.9527415070 -1.3444560376
H    5.4368617544 -5.4389683410  1.5141936779
C    4.6171991790 -6.1712081719 -0.3300240004
H    3.6104610755 -6.6422466344 -2.1684678913
H    5.2474385456 -7.0478160466 -0.3566897057
H   -6.5872763229 -3.6044237861  2.0159579533
H   -5.6392324738 -5.1995277849 -1.8435758254
H    6.5836528731  3.5933119325  2.0222549508
H    5.5028419985  5.4431743705 -1.6843749589
Cl   4.0306423868 -3.0527994196  2.0762121671
Cl   1.7637495133 -4.5466878680 -2.5816433967
Cl  -3.9161390043  3.0784113459  2.1692724306
Cl  -1.8408224102  4.5132788162 -2.5949873888
Cl   4.4899933261  1.7147068272  2.3319913118
Cl   3.1571164776  4.0184660643 -2.3537215470
Cl  -4.3781415845 -1.8785627715  2.4519828949
Cl  -3.2009592626 -3.8737193439 -2.4006560923
Cl   0.0029634373  0.0322965827  2.4260121700
78
aligned d3map frame 2
N   -0.2681390851 -2.0375670470 -0.0554213816
N   -1.9743497567  0.2662596957 -0.0875171648
C    2.0667828275 -2.7374907114 -0.0538023780
C    0.7194030183 -2.9778635569  0.0970785535
C    0.1196323385 -4.2537945138  0.4047362976
H    0.6688691213 -5.1532017898  0.6006258041
C   -1.2186729544 -4.0729174341  0.4035341160
H   -1.9870540931 -4.7950251177  0.6010505974
C   -1.4530810233 -2.6827501634  0.1027606318
C   -2.7070685019 -2.0951351978 -0.0480338228
C   -2.9150352756 -0.7166992122 -0.2480739199
C   -4.1529864467 -0.1387800259 -0.6333471353
H   -5.0604563121 -0.6794974591 -0.8343314393
C   -3.9536132373  1.2179446846 -0.6920472541
H   -4.6660895261  1.9733229601 -0.9617664686
C   -2.6087142149  1.4478347887 -0.3161138123
C   -3.9119915543 -2.9437572966  0.0017231685
C   -4.8565827683 -2.7767229009  1.0183855184
C   -6.0230360966 -3.5206051983  1.0533840277
C   -6.2650848257 -4.4531035171  0.0600663852
H   -7.1805455389 -5.0178495659  0.0676396666
C   -5.3410880071 -4.6555657616 -0.9504811065
C   -4.1745562239 -3.9082430590 -0.9711252779
N    0.2905740078  2.0339321676 -0.0883720096
N    1.9965581694 -0.2605574913 -0.1042778828
C   -2.0421371886  2.7413853196 -0.1150602769
C   -0.6952421048  2.9764289234  0.0529946262
C   -0.0954737938  4.2555167902  0.3480766255
H   -0.6452723685  5.1552570688  0.5450194296
C    1.2438470277  4.0755729702  0.3345863125
H    2.0153680239  4.7973291853  0.5208491684
C    1.4765650101  2.6848770548  0.0355487063
C    2.7262889893  2.1009497204 -0.1640715679
C    2.9281906715  0.7177524567 -0.3392092147
C    4.1520158832  0.1259956785 -0.7426241119
H    5.0415832008  0.6574422252 -1.0149184152
C    3.9622492726 -1.2328632209 -0.7185468405
H    4.6683436923 -2.0006819626 -0.9659017677
C    2.6287248347 -1.4473103656 -0.2979141538
C    3.9145355375  2.9705035335 -0.2160190142
C    4.9507377516  2.8321853527  0.7140392082
C    6.0841715003  3.6239690104  0.6555335135
C    6.1977600090  4.5826853228 -0.3358353694
H    7.0806748731  5.2019673959 -0.3791511952
C    5.1862371454  4.7538400877 -1.2645046674
C    4.0616324548  3.9498788459 -1.2003942651
Fe   0.0125671918  0.0010084317  0.2913542290
C   -2.9833464475  3.8753729400 -0.1083862811
C   -3.9943564708  3.9652509078  0.8527793729
C   -2.9279039269  4.8762421978 -1.0823731848
C   -4.9226112572  4.9937862229  0.8347144484
C   -3.8436896966  5.9141967095 -1.1053057630
H   -5.6942569150  5.0278957949  1.5865939442
C   -4.8436152684  5.9647078382 -0.1487333350
H   -3.7750465565  6.6653634013 -1.8763103517
H   -5.5658912796  6.7655085036 -0.1699306802
C    3.0283679004 -3.8496585471  0.0510130827
C    3.9750628171 -3.8657174352  1.0781607447
C    3.0551201465 -4.8978885652 -0.8718274881
C    4.9165051914 -4.8762800453  1.1779164472
C    3.9946660102 -5.9118571966 -0.7849525484
H    5.6322164736 -4.8597434147  1.9832429981
C    4.9232160598 -5.8953125088  0.2418777724
H    3.9946361496 -6.7019640930 -1.5176874824
H    5.6599808091 -6.6814018177  0.3108786762
H   -6.7316258684 -3.3605699048  1.8492169558
H   -5.5203803022 -5.3819345543 -1.7260191429
H    6.8655229275  3.4889645694  1.3857922352
H    5.2608598378  5.5063673576 -2.0341454350
Cl   3.9465169179 -2.6051602970  2.2595776396
Cl   1.9195374308 -4.9045354250 -2.1744763122
Cl  -4.0672706121  2.7766054299  2.1032728199
Cl  -1.7140257705  4.7987442298 -2.3126252452
Cl   4.7860282861  1.6849348671  1.9934921704
Cl   2.8181138613  4.1482613160 -2.3890820289
Cl  -4.5384505795 -1.6316297208  2.2758404536
Cl  -3.0440607885 -4.1342178739 -2.2574919278
Cl   0.0226995267  0.0230201568  2.4260715499
78
aligned d3map frame 3
N   -0.2600468091 -2.0374362898 -0.0869776745
N   -1.9838172307  0.2728619017 -0.0333646291
C    2.0742381739 -2.7456560824 -0.0026629111
C    0.7191927161 -2.9926650454  0.0216295551
C    0.1138116278 -4.2899256270  0.1827999103
H    0.6524192144 -5.2106046338  0.2991354679
C   -1.2247234356 -4.1059192412  0.1570122046
H   -2.0014943459 -4.8389845333  0.2536761054
C   -1.4497889074 -2.6915734348  0.0009709967
C   -2.7052587904 -2.0944224274 -0.0222664377
C   -2.9384134831 -0.7079629558 -0.0958759370
C   -4.2194666297 -0.1284257259 -0.2683922703
H   -5.1393383922 -0.6724422531 -0.3634502797
C   -4.0345027091  1.2313951593 -0.3135437376
H   -4.7792890661  1.9921801519 -0.4383712948
C   -2.6468103598  1.4574551530 -0.1566205297
C   -3.8899909539 -2.9725476967  0.0825833410
C   -4.6267457593 -3.0208504444  1.2672484760
C   -5.7282457588 -3.8516757965  1.3998114090
C   -6.1125127368 -4.6464699471  0.3343697553
H   -6.9673758822 -5.2955227232  0.4304357403
C   -5.4045364553 -4.6172213804 -0.8559672767
C   -4.3015005951 -3.7878852124 -0.9715291890
N    0.2920410504  2.0304134883 -0.1201339198
N    2.0060465712 -0.2627856769 -0.0518438966
C   -2.0479288637  2.7471351736 -0.1481636249
C   -0.6901099480  2.9844705668 -0.0999669124
C   -0.0906979815  4.2930223690 -0.0274186791
H   -0.6422244387  5.2121831562  0.0186881680
C    1.2483911591  4.1115320739 -0.0145040647
H    2.0183040171  4.8555000928  0.0484787605
C    1.4797075688  2.6933616628 -0.0899074240
C    2.7360312321  2.0988602149 -0.1549129312
C    2.9557828429  0.7076244775 -0.2216278405
C    4.2161974737  0.1119396945 -0.4817378606
H    5.1271118320  0.6425257543 -0.6780991525
C    4.0254378225 -1.2475309765 -0.4402952740
H    4.7535998934 -2.0194372348 -0.6016106157
C    2.6569090510 -1.4551230922 -0.1584709662
C    3.9360957377  2.9576274122 -0.1811407025
C    4.8538350063  2.9288105219  0.8726344892
C    6.0120687696  3.6891559220  0.8437931347
C    6.2720272572  4.4970575136 -0.2507363552
H    7.1805091186  5.0808693353 -0.2865607729
C    5.3777744837  4.5553495490 -1.3062581253
C    4.2214631172  3.7913224160 -1.2624370354
Fe   0.0125671918  0.0010084317  0.2913542290
C   -2.9592571069  3.9070058162 -0.2513990875
C   -3.7811238657  4.2824491445  0.8138890040
C   -3.0355315422  4.6530803365 -1.4265685018
C   -4.6486297972  5.3561276960  0.7066120883
C   -3.9074949855  5.7243527626 -1.5506963666
H   -5.2690478143  5.6310883979  1.5461949185
C   -4.7105926459  6.0702725279 -0.4794656205
H   -3.9507397713  6.2692163641 -2.4798510720
H   -5.3924632167  6.9025005619 -0.5664896147
C    3.0235865491 -3.8587835932  0.1907827156
C    3.7982390755 -3.9130872370  1.3534701968
C    3.2081848452 -4.8664625843 -0.7561453332
C    4.7136647666 -4.9297745906  1.5668327078
C    4.1245921919 -5.8861536393 -0.5578568047
H    5.2892481183 -4.9428355401  2.4781853297
C    4.8740373122 -5.9142979649  0.6062275960
H    4.2508768539 -6.6463424677 -1.3117758010
H    5.5886308557 -6.7064139159  0.7658763368
H   -6.2647015160 -3.8768858349  2.3355143970
H   -5.6949948096 -5.2366964141 -1.6883207247
H    6.7026412289  3.6409457402  1.6703734255
H    5.5736410551  5.1767833077 -2.1645530675
Cl   3.5778206170 -2.6879601786  2.5530616674
Cl   2.2980996618 -4.8154613246 -2.2245531247
Cl  -3.6809718287  3.3899022891  2.2903017525
Cl  -2.0374291687  4.2106968435 -2.7664326562
Cl   4.5210781881  1.9355397308  2.2471151198
Cl   3.1260048029  3.8356432300 -2.6014856492
Cl  -4.1226493465 -2.0427023255  2.5983936296
Cl  -3.4136222813 -3.7376646676 -2.4543893023
Cl   0.0213322008 -0.0099104606  2.4287069800
78
aligned d3map frame 4
N   -0.2713411227 -2.0357414793 -0.0718248287
N   -1.9776493839  0.2629227191 -0.0715014886
C    2.0653199833 -2.7372981574 -0.2344947305
C    0.7061802696 -2.9786141219 -0.0537776959
C    0.1312347071 -4.2764897345  0.1817647512
H    0.6922973950 -5.1866587204  0.2604789311
C   -1.2025226389 -4.0991918216  0.3130157409
H   -1.9509952362 -4.8368703987  0.5252326446
C   -1.4585131735 -2.6954422409  0.1074930752
C   -2.7033650812 -2.1094732789  0.0150148358
C   -2.9103706604 -0.7165658724 -0.2214118458
C   -4.1462697782 -0.1597536533 -0.6144867359
H   -5.0373340842 -0.7141690735 -0.8401379935
C   -3.9676647728  1.2002980389 -0.6686736117
H   -4.6863436850  1.9488311884 -0.9325426642
C   -2.6215063727  1.4476805491 -0.3053526863
C   -3.9184958348 -2.9331767171  0.1370699351
C   -4.8381697121 -2.6804633687  1.1606548311
C   -6.0132323319 -3.4051031090  1.2758017444
C   -6.2880566212 -4.4060811668  0.3626171091
H   -7.2032030621 -4.9720075293  0.4471174635
C   -5.3936977017 -4.6900720394 -0.6566780674
C   -4.2273480540 -3.9520567079 -0.7670648024
N    0.2804956842  2.0333106707 -0.1020797764
N    2.0008319968 -0.2716100349 -0.0862651988
C   -2.0586744289  2.7336530704 -0.1739368408
C   -0.6961021398  2.9779717730 -0.0260922743
C   -0.1075308916  4.2720177179  0.2047364468
H   -0.6605932651  5.1823618090  0.3365652291
C    1.2316336769  4.0941247281  0.2452880586
H    1.9918315692  4.8303270956  0.4074079199
C    1.4756254600  2.6884994878  0.0368971364
C    2.7207498125  2.1000826535 -0.0265657318
C    2.9471231751  0.7019626917 -0.1843879135
C    4.2097210798  0.1347198130 -0.4757817471
H    5.1225010995  0.6787964611 -0.6192054972
C    4.0259697399 -1.2236322912 -0.5433046224
H    4.7608722165 -1.9767525155 -0.7500841896
C    2.6519264526 -1.4613732159 -0.2900055443
C    3.9214004308  2.9561122656  0.0331402949
C    4.8082466093  2.8694096858  1.1097956648
C    5.9587758184  3.6381821193  1.1623454609
C    6.2427048698  4.5085905606  0.1243472179
H    7.1407226559  5.1003241153  0.1561651376
C    5.3820633457  4.6227211770 -0.9536055314
C    4.2316291564  3.8531484341 -0.9899839279
Fe   0.0125671918  0.0010084317  0.2913542290
C   -2.9912076341  3.8753157626 -0.1845462944
C   -3.9605470867  4.0162724914  0.8124916116
C   -2.9594157648  4.8412336309 -1.1925892624
C   -4.8552265211  5.0725684468  0.8051154137
C   -3.8454322136  5.9062207234 -1.2069312875
H   -5.5931962842  5.1524385623  1.5857242125
C   -4.7939890449  6.0155996819 -0.2073344729
H   -3.7918502419  6.6301631304 -2.0042174765
H   -5.4900639252  6.8398549512 -0.2147928165
C    2.9478261413 -3.9116519364 -0.4007257279
C    3.8284620130 -4.3168200052  0.6013479425
C    2.9136834827 -4.6565534168 -1.5795492825
C    4.6350273681 -5.4317443881  0.4422922047
C    3.7239580459 -5.7677083505 -1.7586026188
H    5.2967720422 -5.7304519684  1.2388243967
C    4.5806942021 -6.1502888281 -0.7417831740
H    3.6787456836 -6.3219740542 -2.6835747433
H    5.2078969382 -7.0219431345 -0.8667297943
H   -6.7011502567 -3.1755112698  2.0738962201
H   -5.6012674251 -5.4656988489 -1.3751410937
H    6.6208271883  3.5486870345  2.0083853804
H    5.5970413595  5.2953198464 -1.7667720949
Cl   3.8787843064 -3.4186832974  2.0748630431
Cl   1.8413096332 -4.1715417490 -2.8424000317
Cl  -4.0188056036  2.8664592935  2.0996716078
Cl  -1.8109468599  4.6855554985 -2.4734104537
Cl   4.4334134192  1.7932368374  2.4060019758
Cl   3.1761099455  3.9753741456 -2.3540925797
Cl  -4.4831806317 -1.4539174125  2.3228028383
Cl  -3.1534212194 -4.2748423087 -2.0877349032
Cl   0.0280482296  0.0317287031  2.4255745330
78
aligned d3map frame 5
N   -0.2626970530 -2.0380349763 -0.0619152565
N   -1.9729703868  0.2723292573 -0.0926486320
C    2.0715429670 -2.7431650372 -0.1272874535
C    0.7132399211 -2.9823414434  0.0411772934
C    0.1201861847 -4.2697092408  0.2987674561
H    0.6708089544 -5.1773916500  0.4532134816
C   -1.2199967274 -4.0900965442  0.3178833426
H   -1.9892457159 -4.8204052906  0.4804285124
C   -1.4585185581 -2.6903998135  0.0761651975
C   -2.6994475409 -2.0975373937 -0.0388790449
C   -2.9081995199 -0.7069547164 -0.2456854102
C   -4.1463966961 -0.1449274035 -0.6356759384
H   -5.0438111912 -0.6932995724 -0.8424843217
C   -3.9606387108  1.2134918642 -0.6962343280
H   -4.6775946791  1.9618453359 -0.9757839568
C   -2.6141219591  1.4570860411 -0.3308420167
C   -3.9209394460 -2.9225767065  0.0212024262
C   -4.8307714422 -2.7597779126  1.0687514094
C   -6.0257733109 -3.4582203956  1.1052775270
C   -6.3334893013 -4.3321866060  0.0750706916
H   -7.2747578572 -4.8619634660  0.0859066123
C   -5.4474277878 -4.5269151252 -0.9699142030
C   -4.2484428053 -3.8307863455 -0.9868044069
N    0.2823160335  2.0342149195 -0.0944532709
N    1.9954897787 -0.2682647224 -0.1089001136
C   -2.0503837540  2.7447515780 -0.1761942727
C   -0.6919312788  2.9807497765 -0.0004813460
C   -0.0982757892  4.2669514246  0.2548584672
H   -0.6435930097  5.1779270288  0.4070859376
C    1.2413924965  4.0850763953  0.2777897330
H    2.0110006773  4.8134810954  0.4496808312
C    1.4787238383  2.6857746810  0.0303383207
C    2.7206014272  2.0998707638 -0.1278798854
C    2.9262290049  0.7063396724 -0.3154289224
C    4.1556076953  0.1309764459 -0.7201765430
H    5.0413687288  0.6807765992 -0.9771655557
C    3.9723246961 -1.2279539524 -0.7227495577
H    4.6838643940 -1.9855960655 -0.9873508116
C    2.6326237774 -1.4595663220 -0.3205507764
C    3.9236458612  2.9506465418 -0.1467240947
C    4.9300202204  2.7931621446  0.8115391634
C    6.0891096372  3.5509036913  0.7769491822
C    6.2599996503  4.4913105612 -0.2244707394
H    7.1632183479  5.0808056888 -0.2615716252
C    5.2804742996  4.6774907463 -1.1844200256
C    4.1277572517  3.9101825450 -1.1413663811
Fe   0.0125671918  0.0010084317  0.2913542290
C   -2.9835057948  3.8844353231 -0.2152362663
C   -4.0088662042  4.0040777916  0.7289483432
C   -2.9130116525  4.8620282996 -1.2100889291
C   -4.9332253409  5.0339318537  0.6691036356
C   -3.8232463589  5.9032534202 -1.2738368994
H   -5.7173717387  5.0856973238  1.4062630006
C   -4.8386082049  5.9805769503 -0.3347226832
H   -3.7401516902  6.6357109237 -2.0601214725
H   -5.5598218154  6.7790320836 -0.3926757781
C    3.0141395601 -3.8768124135 -0.1177345974
C    4.0120990913 -3.9665070028  0.8570011215
C    2.9791406717 -4.8744403647 -1.0962911575
C    4.9459379908 -4.9900551172  0.8490189286
C    3.8982536498 -5.9084620755 -1.1081896539
H    5.7052735672 -5.0215906932  1.6139540882
C    4.8861047012 -5.9574915982 -0.1374880674
H    3.8466570832 -6.6619495326 -1.8779933020
H    5.6118459527 -6.7592113729 -0.1502364993
H   -6.7056023871 -3.3092705200  1.9280421459
H   -5.6861674863 -5.2025103785 -1.7770561637
H    6.8495416697  3.4007673328  1.5257623182
H    5.4015814177  5.4038325801 -1.9711943805
Cl   4.0651592759 -2.7817974341  2.1138472624
Cl   1.7848398629 -4.7911002419 -2.3456702884
Cl  -4.1092774559  2.8566927442  2.0171469894
Cl  -1.6857929064  4.7468341769 -2.4260737989
Cl   4.7095536050  1.6422123532  2.0787703652
Cl   2.9367427814  4.1129833764 -2.3790269232
Cl  -4.4322890156 -1.6696940616  2.3515864442
Cl  -3.1576101047 -4.0516081183 -2.3077639111
Cl   0.0240934233  0.0132776705  2.4252164898
78
aligned d3map frame 6
N   -0.2561845586 -2.0387569932 -0.0586027037
N   -1.9726390424  0.2766329417 -0.0926943850
C    2.0750002036 -2.7476104488 -0.1409974534
C    0.7113162331 -2.9839343956  0.0400230183
C    0.1143706312 -4.2729965032  0.2859700026
H    0.6581079604 -5.1852237056  0.4334491245
C   -1.2249933018 -4.0904247858  0.3007262620
H   -1.9984387005 -4.8180913595  0.4567477746
C   -1.4605808841 -2.6880175296  0.0652263189
C   -2.6907407203 -2.0962425492 -0.0776587260
C   -2.9001248057 -0.7012632169 -0.2845612199
C   -4.1428109892 -0.1384448444 -0.6584655139
H   -5.0318730308 -0.6904322672 -0.8949550563
C   -3.9714881228  1.2235240987 -0.6609154936
H   -4.6972774987  1.9722622962 -0.9098342981
C   -2.6233717852  1.4659712876 -0.2910336132
C   -3.9255931387 -2.9045967190 -0.0053990947
C   -4.7541814134 -2.8021593430  1.1122025904
C   -5.9689624830 -3.4658881379  1.1744844610
C   -6.3722051532 -4.2415230107  0.1010442442
H   -7.3250346060 -4.7464722092  0.1322606420
C   -5.5644790608 -4.3750670630 -1.0158297889
C   -4.3491150749 -3.7113455294 -1.0602854231
N    0.2778479403  2.0347093636 -0.0906188849
N    1.9942470390 -0.2751451808 -0.1091387042
C   -2.0566395189  2.7440803451 -0.1345863577
C   -0.6909846681  2.9783614257  0.0167329779
C   -0.0967779277  4.2704100277  0.2466044508
H   -0.6510610159  5.1761204205  0.3978296519
C    1.2430197610  4.0919623893  0.2454403656
H    2.0143241299  4.8222216911  0.3935009555
C    1.4806899578  2.6892173109  0.0070268492
C    2.7132078651  2.1000566779 -0.1517167785
C    2.9187007394  0.7002890439 -0.3344410669
C    4.1494605209  0.1299818358 -0.7362140456
H    5.0292266672  0.6832342549 -0.9999278917
C    3.9764109170 -1.2311092480 -0.7209488723
H    4.6873101410 -1.9897414993 -0.9808890404
C    2.6371924517 -1.4680779660 -0.3132640446
C    3.9245906622  2.9426172625 -0.1472582988
C    4.8739839498  2.8129526381  0.8685085220
C    6.0401780529  3.5598411336  0.8700823999
C    6.2754138798  4.4554474340 -0.1583492255
H    7.1884753905  5.0301001281 -0.1687786904
C    5.3500522245  4.6166451045 -1.1749308296
C    4.1841026352  3.8685368787 -1.1592833395
Fe   0.0125671918  0.0010084317  0.2913542290
C   -2.9683178668  3.9022612419 -0.1869163092
C   -3.9391489913  4.1077774207  0.7956126659
C   -2.9098275058  4.8164639484 -1.2418875668
C   -4.8055770932  5.1873383625  0.7385268266
C   -3.7780190838  5.8922000522 -1.3176055389
H   -5.5379217497  5.3255801305  1.5170093412
C   -4.7234806536  6.0731759447 -0.3221383878
H   -3.7154965928  6.5709532081 -2.1522723792
H   -5.4031225281  6.9079604929 -0.3786035904
C    2.9833839878 -3.9061526947 -0.2307286261
C    4.0126930988 -4.1088923621  0.6923608528
C    2.8588549849 -4.8340875790 -1.2693582413
C    4.8783526314 -5.1860614793  0.5874759872
C    3.7167679605 -5.9134744713 -1.3851657662
H    5.6618294255 -5.3128524509  1.3175045818
C    4.7265272214 -6.0856802422 -0.4527035289
H    3.5955837546 -6.6065207212 -2.2021695513
H    5.3984516184 -6.9227894794 -0.5448029163
H   -6.5827586824 -3.3606059664  2.0520214907
H   -5.8778691454 -4.9733530498 -1.8574003426
H    6.7509156162  3.4345672108  1.6701291436
H    5.5245585220  5.3128420018 -1.9794082110
Cl   4.1926871792 -3.0020195410  2.0054385184
Cl   1.6350091528 -4.6001625179 -2.4667688071
Cl  -4.0375682812  3.0043774567  2.1209383931
Cl  -1.7493452935  4.5737303974 -2.4994301052
Cl   4.5611928471  1.7074822644  2.1568613280
Cl   3.0457539329  4.0545003051 -2.4472506020
Cl  -4.2328668883 -1.8230251501  2.4334804165
Cl  -3.3434202338 -3.8506491376 -2.4575289331
Cl   0.0258637367  0.0089294227  2.4243475008
78
aligned d3map frame 7
N   -0.2632997234 -2.0249386287 -0.1223246187
N   -1.9841449709  0.2639831085 -0.0472864797
C    2.1026453225 -2.7192362655 -0.1329085895
C    0.7135594821 -2.9525992496 -0.3094148107
C    0.1436924656 -4.1919611935 -0.6960239418
H    0.6953552789 -5.0801498243 -0.9366407238
C   -1.2150248714 -4.0120975338 -0.7125694749
H   -1.9727051179 -4.7267740827 -0.9669280934
C   -1.4512186137 -2.6630108571 -0.3338480262
C   -2.7213940359 -2.0739615322 -0.1817883841
C   -2.9356801519 -0.7125285046  0.0273860884
C   -4.2219174196 -0.1211648956  0.2708722709
H   -5.1316811627 -0.6681162579  0.4217169049
C   -4.0434369262  1.2209646261  0.2903511360
H   -4.7811920228  1.9831470101  0.4502716296
C   -2.6463397342  1.4609104232  0.0530484912
C   -3.8997263321 -2.9517876293 -0.3107438485
C   -4.1477424952 -3.9850594219  0.5972918353
C   -5.2467696595 -4.8177412540  0.4620732505
C   -6.1221894034 -4.6247702590 -0.5932229059
H   -6.9811946215 -5.2687725634 -0.7018374927
C   -5.9046152736 -3.6116914946 -1.5103315662
C   -4.8002644706 -2.7877250619 -1.3672996390
N    0.2840373545  2.0214411345 -0.1523310276
N    2.0041216050 -0.2733434975 -0.0637179684
C   -2.0823950938  2.7138424346 -0.1169463940
C   -0.6962636780  2.9527898889 -0.3025072406
C   -0.1284192603  4.2062281540 -0.6506567012
H   -0.6802789557  5.1042505492 -0.8482420552
C    1.2298555479  4.0278773619 -0.6831393113
H    1.9852426878  4.7539110401 -0.9118363223
C    1.4697921164  2.6642769455 -0.3580228961
C    2.7377448757  2.0666787386 -0.2515742499
C    2.9564822214  0.7059031869 -0.0425584850
C    4.2515702874  0.1179052665  0.1530839453
H    5.1667887505  0.6713978123  0.2449612558
C    4.0763793830 -1.2238977475  0.2080491962
H    4.8213360803 -1.9831192417  0.3522128648
C    2.6710168336 -1.4676621013  0.0285123878
C    3.9290735414  2.9229345687 -0.4276051740
C    4.2767641745  3.9052224455  0.5011384493
C    5.4133386862  4.6799162429  0.3381640485
C    6.2224538264  4.4857576859 -0.7692144292
H    7.1107363233  5.0844621359 -0.8932651201
C    5.8986781873  3.5263827958 -1.7123312377
C    4.7613369962  2.7573813045 -1.5372037184
Fe   0.0125671918  0.0010084317  0.2913542290
C   -2.9814630466  3.8828678016 -0.1593269349
C   -2.9265029709  4.8719525444  0.8242583299
C   -3.9075467376  4.0471384638 -1.1923911801
C   -3.7612392073  5.9771475261  0.7854502496
C   -4.7480468675  5.1461301209 -1.2426717010
H   -3.6964009991  6.7221770617  1.5623427694
C   -4.6701740606  6.1081430497 -0.2503108869
H   -5.4492080300  5.2439314827 -2.0551648793
H   -5.3220877820  6.9670594882 -0.2829373789
C    2.9830783650 -3.9009765315 -0.1804980901
C    2.8968579685 -4.9019818587  0.7907986912
C    3.9026158765 -4.0844936408 -1.2153205776
C    3.6908471412 -6.0348911782  0.7365288936
C    4.7072363118 -5.2087487593 -1.2788374012
H    3.5961873778 -6.7900765299  1.4989301331
C    4.5962613362 -6.1824044614 -0.3004630651
H    5.4052178948 -5.3186845568 -2.0904849050
H    5.2174137202 -7.0633559438 -0.3474744745
H   -5.4111431602 -5.6026477884  1.1827856825
H   -6.5785020980 -3.4586764254 -2.3378361991
H    5.6576875743  5.4257458187  1.0790267300
H    6.5194578971  3.3700795174 -2.5805846956
Cl   1.7811542622 -4.7061797420  2.0952297039
Cl   4.0131414946 -2.8986085345 -2.4696219245
Cl  -1.8103964481  4.6843639432  2.1273219871
Cl  -3.9856373386  2.8673519057 -2.4528095607
Cl   3.2784020494  4.1255765351  1.8959808373
Cl   4.3489499211  1.5762540375 -2.7308799609
Cl  -3.0777664981 -4.2036964263  1.9349000720
Cl  -4.5065572734 -1.5613723439 -2.5464410595
Cl   0.0093563031  0.0174289454  2.4254475344
78
aligned d3map frame 8
N   -0.2620324854 -2.0376985866 -0.0606125390
N   -1.9694023447  0.2734308531 -0.1026024765
C    2.0666523146 -2.7381626886  0.0293992581
C    0.7171690483 -2.9754963811  0.1581866333
C    0.1012843173 -4.2394847937  0.4847957691
H    0.6358476805 -5.1343011754  0.7381599159
C   -1.2356366810 -4.0588230996  0.4081684327
H   -2.0148562510 -4.7749084853  0.5847368606
C   -1.4540781490 -2.6769216950  0.0612037340
C   -2.6989452623 -2.0864188075 -0.1400170253
C   -2.8955041570 -0.7062774422 -0.3435616240
C   -4.1144578518 -0.1192387779 -0.7697547690
H   -4.9979296402 -0.6551272450 -1.0570513280
C   -3.9261413599  1.2398432203 -0.7514374913
H   -4.6293888919  2.0041138469 -1.0197626363
C   -2.6011731741  1.4599256452 -0.3076267439
C   -3.9115198982 -2.9248062956 -0.1355386009
C   -4.9039007225 -2.7354477976  0.8314197113
C   -6.0780089927 -3.4689211258  0.8155896300
C   -6.2811627628 -4.4103025611 -0.1793604523
H   -7.1988497900 -4.9748380759 -0.2047617297
C   -5.3124597806 -4.6320325776 -1.1422533117
C   -4.1380567236 -3.8952664154 -1.1130081267
N    0.2846592126  2.0330598104 -0.0940066328
N    1.9922521171 -0.2643220453 -0.1193754898
C   -2.0417012923  2.7482862672 -0.0464590098
C   -0.6924411085  2.9761345404  0.1084456788
C   -0.0748784977  4.2403407547  0.4263623687
H   -0.6072723966  5.1369596453  0.6775973850
C    1.2619835088  4.0553188948  0.3524195345
H    2.0417307993  4.7698855092  0.5317653122
C    1.4761775455  2.6733862837  0.0038696051
C    2.7192818425  2.0902571277 -0.2505033715
C    2.9117781303  0.7065754355 -0.4237558648
C    4.1180057209  0.1003151168 -0.8608493112
H    4.9905621278  0.6236827766 -1.2002095507
C    3.9341368125 -1.2569204402 -0.7711920911
H    4.6317354872 -2.0338898188 -1.0160421560
C    2.6200425643 -1.4566516662 -0.2881431856
C    3.8992159260  2.9649719496 -0.3438248039
C    4.9880026922  2.8145480638  0.5219659692
C    6.1073005336  3.6253305270  0.4256558522
C    6.1525435563  4.6183073308 -0.5367308046
H    7.0225622663  5.2517933667 -0.6120028844
C    5.0877438567  4.8013530032 -1.4024595401
C    3.9807780352  3.9768539128 -1.3053778170
Fe   0.0125671918  0.0010084317  0.2913542290
C   -2.9955413749  3.8675490813  0.0270805979
C   -4.0201889555  3.8683625468  0.9802342187
C   -2.9551821381  4.9361431744 -0.8726091241
C   -4.9672467183  4.8771352878  1.0265509060
C   -3.8924079955  5.9548684021 -0.8305455963
H   -5.7476198848  4.8395915100  1.7695700029
C   -4.9005778944  5.9182382195  0.1168773204
H   -3.8338589688  6.7602322872 -1.5448432255
H   -5.6399920490  6.7034409082  0.1449578227
C    3.0454810198 -3.8207026234  0.2269781902
C    4.0030737773 -3.7152749091  1.2419936983
C    3.1006507442 -4.9494621827 -0.5936082555
C    4.9742277898 -4.6831703400  1.4270355172
C    4.0666178347 -5.9268937420 -0.4156538032
H    5.6978322609 -4.5657836485  2.2173943593
C    5.0036270116 -5.7875486504  0.5926645445
H    4.0847832241 -6.7819981408 -1.0720561034
H    5.7630747307 -6.5415025856  0.7269896036
H   -6.8224777823 -3.2978384239  1.5761961872
H   -5.4624457468 -5.3628247505 -1.9197819805
H    6.9298064609  3.4756220088  1.1062844005
H    5.1136849359  5.5732960468 -2.1548291436
Cl   3.9488787330 -2.3549650259  2.3058927028
Cl   1.9775436887 -5.1086642893 -1.8983725227
Cl  -4.0844455837  2.5939732754  2.1433541157
Cl  -1.7437669251  4.9688936841 -2.1068648768
Cl   4.9234253366  1.6223819719  1.7695331524
Cl   2.6865568984  4.1815283935 -2.4345940670
Cl  -4.6455460049 -1.5777711761  2.0862725570
Cl  -2.9494421613 -4.1484914890 -2.3384369483
Cl   0.0249543953  0.0052127690  2.4247295194
78
aligned d3map frame 9
N   -0.2560909772 -2.0377982659 -0.0812850870
N   -1.9840624749  0.2751000303 -0.0276460092
C    2.0732952118 -2.7474671324  0.0706080962
C    0.7182006216 -2.9939191475  0.0485820246
C    0.1070072633 -4.2940714398  0.1646405124
H    0.6451422979 -5.2139938684  0.2841082890
C   -1.2301077372 -4.1081957741  0.0857307686
H   -2.0068343375 -4.8468032564  0.1294022694
C   -1.4489913167 -2.6919605765 -0.0431937720
C   -2.7025689227 -2.0918742473 -0.0723333543
C   -2.9388861177 -0.7056407268 -0.0978070779
C   -4.2255131698 -0.1210265820 -0.2076247944
H   -5.1503005408 -0.6589715125 -0.2824904568
C   -4.0426766247  1.2401774829 -0.2089514006
H   -4.7939608273  2.0001691622 -0.2890415764
C   -2.6505317146  1.4612988643 -0.0917291123
C   -3.8937849663 -2.9723272704 -0.0427908328
C   -4.5575619939 -3.2257040564  1.1561737980
C   -5.6781872536 -4.0397123174  1.2003937241
C   -6.1506746796 -4.6075265753  0.0301203503
H   -7.0254579857 -5.2376439793  0.0549766653
C   -5.5129885171 -4.3716777075 -1.1766637379
C   -4.3899159075 -3.5608307036 -1.2030412762
N    0.2900735826  2.0306585159 -0.1141020239
N    2.0065059704 -0.2667860675 -0.0465174904
C   -2.0489596710  2.7501440557 -0.0761086449
C   -0.6903798942  2.9863187070 -0.0669748154
C   -0.0870372978  4.2927768396 -0.0089263627
H   -0.6308680886  5.2154993926  0.0477362674
C    1.2523715111  4.1088815912 -0.0281921381
H    2.0247136551  4.8511402744  0.0183836322
C    1.4790818289  2.6906387929 -0.1099210485
C    2.7343371806  2.0930939556 -0.1900478012
C    2.9577826259  0.7021506839 -0.2306095840
C    4.2221417772  0.1014360098 -0.4498122921
H    5.1375764705  0.6204642046 -0.6539153693
C    4.0336742863 -1.2569205380 -0.3628916071
H    4.7669736697 -2.0309818114 -0.4778412599
C    2.6604027766 -1.4589202449 -0.1030384642
C    3.9281627698  2.9593154200 -0.2301868162
C    4.8538122735  2.9472997610  0.8172916717
C    5.9975937694  3.7317543599  0.7815690950
C    6.2334886497  4.5492658151 -0.3127431585
H    7.1293133034  5.1501290761 -0.3513615767
C    5.3269730552  4.5931061647 -1.3593297582
C    4.1874857019  3.8013180869 -1.3117501200
Fe   0.0125671918  0.0010084317  0.2913542290
C   -2.9578906616  3.9163114597 -0.1017950332
C   -3.7015207820  4.2782039372  1.0217449996
C   -3.1005236831  4.6894649217 -1.2538594497
C   -4.5539715645  5.3698849185  0.9996360030
C   -3.9551084067  5.7793547060 -1.2930415032
H   -5.1103178849  5.6301153854  1.8854176760
C   -4.6788432946  6.1141990060 -0.1621018045
H   -4.0441717438  6.3524536731 -2.2012930701
H   -5.3446100087  6.9625958733 -0.1850972966
C    3.0222633593 -3.8445601824  0.3441931754
C    3.7036004447 -3.8577043169  1.5650280923
C    3.3074260629 -4.8593157987 -0.5681253283
C    4.6284442757 -4.8429196994  1.8677147713
C    4.2351835769 -5.8484827023 -0.2802874571
H    5.1339892722 -4.8252789174  2.8201072557
C    4.8930390402 -5.8347486876  0.9379456721
H    4.4427192643 -6.6135566763 -1.0119627841
H    5.6199456949 -6.6007364503  1.1617503173
H   -6.1695182621 -4.2201044577  2.1430367283
H   -5.8795554028 -4.8089321682 -2.0910846322
H    6.6936367202  3.6956725769  1.6036493217
H    5.5009118578  5.2271777911 -2.2113126384
Cl   3.3555890559 -2.6186268565  2.7196607463
Cl   2.5098946124 -4.8551868735 -2.1031905481
Cl  -3.5213982500  3.3480478528  2.4665980344
Cl  -2.2018163202  4.2583054808 -2.6656972932
Cl   4.5457125180  1.9519975255  2.1958418540
Cl   3.0801319008  3.8289667605 -2.6418713090
Cl  -3.9465403653 -2.5056895380  2.6027931037
Cl  -3.5828583672 -3.2495844315 -2.6985222067
Cl   0.0202899633 -0.0264276452  2.4253531610
78
aligned d3map frame 10
N   -0.2632798501 -2.0364068006 -0.0668805574
N   -1.9688594569  0.2764730268 -0.1032657424
C    2.0612073488 -2.7311067678  0.1028475565
C    0.7086709085 -2.9722782204  0.1864147908
C    0.0837361783 -4.2361666977  0.4965389974
H    0.6095223766 -5.1310715625  0.7663906563
C   -1.2502488464 -4.0565941796  0.3745354778
H   -2.0339512378 -4.7737218143  0.5248742624
C   -1.4590037168 -2.6746784066  0.0252651217
C   -2.7001640406 -2.0797800266 -0.1911043839
C   -2.8951332369 -0.6967117860 -0.3694217184
C   -4.1136378359 -0.0982026598 -0.7824644197
H   -4.9965846065 -0.6269662412 -1.0837663446
C   -3.9242865313  1.2598056599 -0.7277855046
H   -4.6262097908  2.0318438906 -0.9762306146
C   -2.5992245581  1.4675796913 -0.2775919387
C   -3.9115578007 -2.9205995580 -0.2094253884
C   -4.9086015591 -2.7560837713  0.7569933636
C   -6.0781753009 -3.4964925074  0.7216491490
C   -6.2709519234 -4.4203065335 -0.2909080162
H   -7.1872485610 -4.9882835322 -0.3299639152
C   -5.2968622373 -4.6182693690 -1.2537836713
C   -4.1291846095 -3.8743828544 -1.2046927687
N    0.2832670231  2.0312274130 -0.1012569334
N    1.9925214426 -0.2609492657 -0.1195650018
C   -2.0371404208  2.7505897928  0.0095703112
C   -0.6838956050  2.9746678913  0.1376948794
C   -0.0528236255  4.2379745070  0.4335126973
H   -0.5729234505  5.1336033767  0.7125075908
C    1.2793311381  4.0539168581  0.2928504346
H    2.0659523922  4.7701066474  0.4333458509
C    1.4784190137  2.6711886922 -0.0571903251
C    2.7108509471  2.0841490319 -0.3563884290
C    2.9065039776  0.6974377559 -0.4793361324
C    4.1067801478  0.0726055138 -0.9096998015
H    4.9736694022  0.5794926303 -1.2861386321
C    3.9257291251 -1.2796569445 -0.7554738802
H    4.6192265516 -2.0681278193 -0.9755122858
C    2.6174146016 -1.4584368741 -0.2494838710
C    3.8613018841  2.9792194607 -0.5667051287
C    5.0044175764  2.9216306349  0.2360293498
C    6.0768075684  3.7751140999  0.0315946183
C    6.0215532236  4.7136078613 -0.9837091490
H    6.8519195325  5.3838564530 -1.1426291892
C    4.9039860723  4.7984643758 -1.7965517176
C    3.8421946778  3.9355800816 -1.5876719144
Fe   0.0125671918  0.0010084317  0.2913542290
C   -2.9906665649  3.8629545107  0.1453825908
C   -3.9882636451  3.8212251860  1.1263432920
C   -2.9747546825  4.9704249727 -0.7076486479
C   -4.9279450397  4.8303400013  1.2497961267
C   -3.9019725106  5.9915722311 -0.5856438399
H   -5.6872132014  4.7613430022  2.0130896379
C   -4.8798285860  5.9154310952  0.3921140193
H   -3.8608860966  6.8312604327 -1.2606616334
H   -5.6099042876  6.7044453947  0.4842663358
C    3.0352690566 -3.7937600500  0.4007737604
C    3.9193657354 -3.6318977932  1.4737363750
C    3.1469112047 -4.9627803477 -0.3542393129
C    4.8597591765 -4.5971532207  1.7901305825
C    4.0818644430 -5.9368592343 -0.0461940345
H    5.5222438892 -4.4413546136  2.6261420191
C    4.9345349556 -5.7503828200  1.0282635360
H    4.1427815509 -6.8273993462 -0.6509618752
H    5.6646652792 -6.5068241326  1.2699392320
H   -6.8258674411 -3.3429918289  1.4828487231
H   -5.4376155997 -5.3363446954 -2.0451674526
H    6.9416747744  3.7017646468  0.6713585078
H    4.8500246013  5.5238529761 -2.5924992204
Cl   3.8050386916 -2.2066481455  2.4432861151
Cl   2.1301146781 -5.1770387996 -1.7369718298
Cl  -4.0272261776  2.4911316093  2.2295431702
Cl  -1.8104874173  5.0484856979 -1.9841210907
Cl   5.0663583086  1.7947513562  1.5440048858
Cl   2.4733305897  4.0219783851 -2.6417048134
Cl  -4.6607937805 -1.6219426858  2.0365383031
Cl  -2.9288877072 -4.1000726192 -2.4272934464
Cl   0.0154256942 -0.0004065576  2.4247870221
78
aligned d3map frame 11
N   -0.2601601667 -2.0309434305 -0.0967635434
N   -1.9859928908  0.2657366167 -0.0273224764
C    2.0833506589 -2.7442034257 -0.1236850481
C    0.7216590194 -2.9768662259 -0.2408026095
C    0.1181253913 -4.2504415073 -0.5150779736
H    0.6590413731 -5.1567665964 -0.7020307719
C   -1.2258084096 -4.0625247742 -0.4980008889
H   -2.0012829128 -4.7845621267 -0.6671918882
C   -1.4472846651 -2.6756287440 -0.2093301715
C   -2.7113898167 -2.0892254160 -0.0396400390
C   -2.9396839581 -0.7150056954  0.0895895747
C   -4.2195252546 -0.1156998304  0.2781977084
H   -5.1374894419 -0.6470641399  0.4350741060
C   -4.0366496202  1.2381416386  0.2200759478
H   -4.7778579114  2.0080151980  0.3172884069
C   -2.6473149914  1.4549909323  0.0160028554
C   -3.8788149944 -2.9894068789  0.0130119218
C   -4.0338289080 -3.8930655094  1.0679209684
C   -5.1356246192 -4.7283045367  1.1522430047
C   -6.1118585049 -4.6739695592  0.1715256810
H   -6.9750424883 -5.3188056659  0.2367973307
C   -5.9833969838 -3.7984605025 -0.8939725047
C   -4.8755035712 -2.9700918866 -0.9655047298
N    0.2834359023  2.0277939484 -0.1263763234
N    2.0060047674 -0.2776309363 -0.0441781584
C   -2.0617355435  2.7321263539 -0.1672895650
C   -0.7011589811  2.9721025447 -0.2590750958
C   -0.1033794217  4.2516963685 -0.5263890777
H   -0.6527530182  5.1587236054 -0.6869162070
C    1.2402117524  4.0618175175 -0.5480442708
H    2.0109699203  4.7852777840 -0.7272821280
C    1.4673879280  2.6701342101 -0.2795125146
C    2.7320357637  2.0756734002 -0.1783398475
C    2.9600423091  0.7058013028  0.0004271102
C    4.2446985179  0.1180151540  0.1775318928
H    5.1685990035  0.6530158832  0.2714060825
C    4.0615774251 -1.2370737010  0.2035157283
H    4.8064901554 -1.9982444439  0.3285082756
C    2.6698111423 -1.4643809811  0.0347201213
C    3.9270535892  2.9358479770 -0.3045249451
C    4.2751931601  3.8564575642  0.6856889017
C    5.4248292814  4.6229605305  0.5874296911
C    6.2471973333  4.4816627681 -0.5179250529
H    7.1484921044  5.0693685677 -0.5943250901
C    5.9194101128  3.5898528407 -1.5254251503
C    4.7677367723  2.8278948757 -1.4142595834
Fe   0.0125671918  0.0010084317  0.2913542290
C   -2.9951528247  3.8689545758 -0.3186505483
C   -3.1517000347  4.8319785329  0.6784616081
C   -3.7646438102  3.9997670249 -1.4757220400
C   -4.0518508648  5.8761920989  0.5374813272
C   -4.6561184017  5.0453597112 -1.6379901497
H   -4.1571373563  6.5992088503  1.3310073277
C   -4.8019409747  5.9760452826 -0.6213653557
H   -5.2285121926  5.1279460664 -2.5478681511
H   -5.5013387810  6.7901133073 -0.7378663690
C    2.9963415586 -3.9021869170 -0.1964098075
C    2.9973777323 -4.8901367140  0.7895971075
C    3.8855251502 -4.0561770840 -1.2638166813
C    3.8384735115 -5.9872559609  0.7174977856
C    4.7374268158 -5.1448897169 -1.3474041966
H    3.8063807252 -6.7362553307  1.4919083891
C    4.7068276994 -6.1078051982 -0.3526327315
H    5.4069891889 -5.2358245462 -2.1892511777
H    5.3609131460 -6.9611161461 -0.4193311090
H   -5.2229889112 -5.4072307901  1.9847301787
H   -6.7361671585 -3.7557761654 -1.6657974940
H    5.6787673954  5.3174680927  1.3733116724
H    6.5473775940  3.4776416625 -2.3945341795
Cl   1.9197471173 -4.7433238876  2.1232147382
Cl   3.8923617895 -2.8811076813 -2.5320375463
Cl  -2.2034688719  4.6985090157  2.1197158039
Cl  -3.5593907373  2.8394769507 -2.7433311766
Cl   3.2588087116  4.0076212178  2.0736992577
Cl   4.3469825657  1.7301062560 -2.6819688114
Cl  -2.8294540585 -3.9472399280  2.3104188545
Cl  -4.7053934266 -1.9068141981 -2.3165869125
Cl   0.0160567322  0.0050152401  2.4263680400
78
aligned d3map frame 12
N   -0.2630816744 -2.0352837405 -0.0755749283
N   -1.9698057479  0.2732810398 -0.0944893346
C    2.0562190191 -2.7266084230  0.1685918955
C    0.7022149077 -2.9692989018  0.2097143851
C    0.0705263893 -4.2332065448  0.4998132002
H    0.5869991862 -5.1279269119  0.7850949549
C   -1.2586699643 -4.0551914169  0.3338525218
H   -2.0437736911 -4.7749664403  0.4620622864
C   -1.4596776327 -2.6733925267 -0.0180103916
C   -2.7010009899 -2.0800567983 -0.2455553929
C   -2.8993505625 -0.6916615662 -0.3830508836
C   -4.1268261589 -0.0774691494 -0.7437535811
H   -5.0148898435 -0.5924260932 -1.0523470284
C   -3.9403596567  1.2775841093 -0.6269948149
H   -4.6505341581  2.0569124051 -0.8229966139
C   -2.6039732046  1.4695633305 -0.2062357776
C   -3.8974130262 -2.9379563558 -0.3097928262
C   -4.9356470904 -2.8031257675  0.6175550658
C   -6.0818012340 -3.5767180982  0.5394984321
C   -6.2074523666 -4.5130698411 -0.4708288361
H   -7.1014476456 -5.1126749158 -0.5404650341
C   -5.1900733901 -4.6848210568 -1.3934770517
C   -4.0497648976 -3.9030391758 -1.3076103484
N    0.2853562243  2.0297341705 -0.1091530840
N    1.9931537760 -0.2620678522 -0.1112863780
C   -2.0299297667  2.7449723842  0.0919441660
C   -0.6733130978  2.9726999686  0.1648761884
C   -0.0326774122  4.2372843777  0.4286117178
H   -0.5392706263  5.1348210782  0.7254638115
C    1.2929386524  4.0552868127  0.2320464442
H    2.0825597737  4.7744674822  0.3323255897
C    1.4804687705  2.6688714606 -0.1102880669
C    2.7094459180  2.0762868125 -0.4134946671
C    2.9091554313  0.6864205597 -0.4935179127
C    4.1165176087  0.0510353153 -0.8841789962
H    4.9872692717  0.5462823052 -1.2658313040
C    3.9380285693 -1.2953919386 -0.6791107710
H    4.6369179937 -2.0885179333 -0.8609393148
C    2.6220620570 -1.4607475434 -0.1920687044
C    3.8561551946  2.9644381679 -0.6678131118
C    5.0079309999  2.9382708293  0.1238555138
C    6.0849724824  3.7681759782 -0.1381566987
C    6.0266122481  4.6522825042 -1.2016895619
H    6.8650562158  5.2992622172 -1.4070987083
C    4.8977002960  4.7116883839 -1.9987488749
C    3.8293266675  3.8738224239 -1.7300563991
Fe   0.0125671918  0.0010084317  0.2913542290
C   -2.9795432004  3.8495368290  0.3034296026
C   -3.9179645428  3.7764458199  1.3365621515
C   -3.0202991125  4.9745016933 -0.5228168583
C   -4.8569748064  4.7735905581  1.5364952307
C   -3.9507339694  5.9823629876 -0.3265117172
H   -5.5665016196  4.6839319219  2.3463808124
C   -4.8697416831  5.8752938617  0.6999432848
H   -3.9595324945  6.8334298745 -0.9918106952
H   -5.6011041663  6.6543892060  0.8477277952
C    3.0199585711 -3.7756792186  0.5408824519
C    3.8395200239 -3.5747727939  1.6573192881
C    3.1795783841 -4.9653161860 -0.1699518847
C    4.7618632996 -4.5240072849  2.0584016094
C    4.0999095271 -5.9247371727  0.2218309476
H    5.3722977177 -4.3412674172  2.9261990663
C    4.8855473987 -5.7009898669  1.3387120858
H    4.2004204539 -6.8351449824 -0.3530877755
H    5.6050198954 -6.4428471559  1.6450053828
H   -6.8641010828 -3.4398791018  1.2673511070
H   -5.2802909476 -5.4128598477 -2.1820555989
H    6.9549516501  3.7226929774  0.4953008105
H    4.8381715376  5.3992007895 -2.8214244192
Cl   3.6653104200 -2.1138680894  2.5665838028
Cl   2.2452470015 -5.2267677373 -1.6030455721
Cl  -3.8788243176  2.4209652564  2.4031631855
Cl  -1.9326722823  5.0897001970 -1.8685313930
Cl   5.0741862045  1.8789135162  1.4880197230
Cl   2.4383641431  3.9328360960 -2.7549606861
Cl  -4.7727632323 -1.6705799727  1.9108550264
Cl  -2.8051860672 -4.0993236174 -2.4859070137
Cl   0.0004593055  0.0091213103  2.4267411354
78
aligned d3map frame 13
N   -0.2598677441 -2.0375652327 -0.0835301848
N   -1.9839060974  0.2700304550 -0.0321187918
C    2.0662254392 -2.7452245213  0.1023559208
C    0.7138425666 -2.9941502373  0.0664601656
C    0.0992536239 -4.2941430371  0.1657701106
H    0.6351363747 -5.2145071005  0.2938856902
C   -1.2346730294 -4.1085081332  0.0472192955
H   -2.0125415643 -4.8469733290  0.0597489006
C   -1.4509043297 -2.6902553038 -0.0768901486
C   -2.7053253938 -2.0908088215 -0.1492266445
C   -2.9398952956 -0.7056733367 -0.1574262042
C   -4.2236494269 -0.1126536745 -0.2595313210
H   -5.1473253176 -0.6467283545 -0.3663896537
C   -4.0367827271  1.2455613521 -0.1979331496
H   -4.7810081302  2.0151446352 -0.2502844690
C   -2.6454890457  1.4573759847 -0.0555606313
C   -3.8943983992 -2.9736992977 -0.1897557882
C   -4.4370562962 -3.4925628836  0.9844725388
C   -5.5554209755 -4.3088836737  0.9609416050
C   -6.1476272724 -4.6155820886 -0.2525938090
H   -7.0203681976 -5.2485244807 -0.2745183436
C   -5.6310132713 -4.1158154296 -1.4345443612
C   -4.5109053227 -3.3010313094 -1.3938831307
N    0.2916581943  2.0275940262 -0.1150713322
N    2.0060790389 -0.2658464070 -0.0507575344
C   -2.0426837419  2.7438707759  0.0178930365
C   -0.6877356390  2.9826149920 -0.0097945404
C   -0.0813777069  4.2889381333  0.0490995440
H   -0.6230439774  5.2100046191  0.1451295236
C    1.2552751886  4.1052552791 -0.0316789173
H    2.0274191500  4.8507101913 -0.0085684816
C    1.4788971528  2.6865508489 -0.1400922159
C    2.7348722782  2.0908085640 -0.2373292402
C    2.9578112922  0.6999202853 -0.2524104186
C    4.2198882799  0.0924019836 -0.4627627911
H    5.1365420759  0.6056164256 -0.6748508263
C    4.0305645311 -1.2641778899 -0.3523285535
H    4.7592806907 -2.0441615984 -0.4557530336
C    2.6573036234 -1.4597231996 -0.0889719460
C    3.9228746944  2.9616800050 -0.3156111954
C    4.8777057268  2.9695647757  0.7061601780
C    6.0159175761  3.7508363292  0.6253873818
C    6.2171567528  4.5493103756 -0.4861324451
H    7.1081831582  5.1588595210 -0.5556526996
C    5.2829638853  4.5771161758 -1.5073073201
C    4.1480664312  3.7908413814 -1.4136905310
Fe   0.0125671918  0.0010084317  0.2913542290
C   -2.9588981791  3.9031856191  0.0812444343
C   -3.5940878736  4.2522443404  1.2711579717
C   -3.2189261939  4.6752096128 -1.0498225634
C   -4.4521515444  5.3371566221  1.3370798310
C   -4.0845931069  5.7544723031 -1.0035809774
H   -4.9208797659  5.5901347802  2.2737240216
C   -4.6956572410  6.0804894604  0.1944003529
H   -4.2743128034  6.3266504522 -1.8970289066
H   -5.3685606897  6.9224001385  0.2367493012
C    3.0093771593 -3.8321902873  0.4342210988
C    3.6354697324 -3.8061114166  1.6834554835
C    3.3400806611 -4.8688669246 -0.4362955736
C    4.5507752437 -4.7761027120  2.0537536172
C    4.2586569858 -5.8435382957 -0.0804582660
H    5.0136512929 -4.7289106634  3.0259266490
C    4.8604666356 -5.7914802397  1.1651258746
H    4.5036398678 -6.6246833029 -0.7813133134
H    5.5800752819 -6.5455235074  1.4413889210
H   -5.9553537978 -4.6942013361  1.8842836348
H   -6.0843847519 -4.3493154809 -2.3836174650
H    6.7312198101  3.7327007728  1.4319238671
H    5.4297784540  5.2018955311 -2.3733658323
Cl   3.2288057792 -2.5361435868  2.7845202074
Cl   2.6105975408 -4.9091597902 -2.0022682090
Cl  -3.2748226194  3.3100402556  2.6836108359
Cl  -2.4445938350  4.2522920847 -2.5353204821
Cl   4.6134476327  2.0014020864  2.1108305755
Cl   3.0029361015  3.8022726918 -2.7102709905
Cl  -3.6852490243 -3.0871232598  2.4868409746
Cl  -3.8493460807 -2.6692802035 -2.8577104255
Cl   0.0373690715  0.0454574720  2.4230796601
78
aligned d3map frame 14
N   -0.2751974394 -2.0347846707 -0.0670664573
N   -1.9782566747  0.2589543716 -0.0744420005
C    2.0566688994 -2.7326430371 -0.2873483114
C    0.7036929474 -2.9805488019 -0.0943819495
C    0.1264100697 -4.2863628273  0.0799719315
H    0.6847852297 -5.2020156696  0.1071382486
C   -1.2067728640 -4.1108168689  0.2283235077
H   -1.9570841617 -4.8554050231  0.4095135208
C   -1.4610234351 -2.6991683988  0.0848931409
C   -2.7085707064 -2.1100081713  0.0062999340
C   -2.9193084344 -0.7175220723 -0.2056964709
C   -4.1607436793 -0.1533354096 -0.5834432450
H   -5.0609982790 -0.7000868098 -0.7865211974
C   -3.9744243449  1.2052409280 -0.6433470799
H   -4.6930169596  1.9566958067 -0.9080078984
C   -2.6200078937  1.4458633355 -0.3003872405
C   -3.9208576853 -2.9432343188  0.0980631670
C   -4.8410838163 -2.7388310067  1.1311410181
C   -6.0099889088 -3.4750010879  1.2153806047
C   -6.2802635439 -4.4396929577  0.2605014065
H   -7.1922149312 -5.0135366631  0.3219402411
C   -5.3898464008 -4.6709567158 -0.7705496239
C   -4.2275478674 -3.9214486310 -0.8485770450
N    0.2844430174  2.0337307614 -0.0976001524
N    2.0001062714 -0.2675080939 -0.0889996196
C   -2.0548932724  2.7337220407 -0.1670409557
C   -0.6930150327  2.9802888800 -0.0375640458
C   -0.1032138045  4.2775869479  0.1693732581
H   -0.6557523886  5.1915040256  0.2739336676
C    1.2362977337  4.0998752218  0.2112979706
H    2.0006883511  4.8376971803  0.3589231393
C    1.4780214304  2.6894559458  0.0330245286
C    2.7264662918  2.1005321206 -0.0199200575
C    2.9534897369  0.7035999639 -0.1654366938
C    4.2184298048  0.1319063950 -0.4406785985
H    5.1331519208  0.6787052912 -0.5618864735
C    4.0274389724 -1.2240431406 -0.5316572788
H    4.7595691367 -1.9831652898 -0.7266529352
C    2.6469531736 -1.4561383771 -0.3082210382
C    3.9210623114  2.9665353504  0.0279526016
C    4.7959182320  2.9222096387  1.1162729157
C    5.9285143323  3.7178065283  1.1654878733
C    6.2066991153  4.5732906167  0.1130824387
H    7.0896902125  5.1925471104  0.1441534484
C    5.3610722750  4.6395797381 -0.9807705073
C    4.2293569764  3.8412826148 -1.0152007434
Fe   0.0125671918  0.0010084317  0.2913542290
C   -3.0032470058  3.8617345142 -0.1339740118
C   -3.9467094065  3.9617593478  0.8940926873
C   -3.0281226303  4.8433675734 -1.1260848208
C   -4.8771386530  4.9864135913  0.9250500933
C   -3.9528926903  5.8747270112 -1.1055168966
H   -5.5919586019  5.0312560731  1.7304661892
C   -4.8787298230  5.9392148631 -0.0792741142
H   -3.9478872149  6.6104915065 -1.8934047250
H   -5.6065926034  6.7348346427 -0.0631767778
C    2.9307493939 -3.8960025001 -0.5721806630
C    3.5886152497 -4.6077792889  0.4263629446
C    3.1009829330 -4.3148853654 -1.8911945141
C    4.3926633371 -5.6969898977  0.1235085037
C    3.9014096568 -5.3983817985 -2.2111789434
H    4.8883188134 -6.2303863521  0.9188718485
C    4.5460992515 -6.0854376226 -1.1963997665
H    4.0126088876 -5.6953990410 -3.2419460859
H    5.1713354745 -6.9315588723 -1.4362790102
H   -6.7049642738 -3.2855604745  2.0218041716
H   -5.5933272822 -5.4128465147 -1.5249635761
H    6.5823770806  3.6652710835  2.0211068065
H    5.5739882519  5.2988384941 -1.8067907202
Cl   3.3835587394 -4.1167801281  2.0731236678
Cl   2.2808492828 -3.4461408946 -3.1410146608
Cl  -3.9308369103  2.7945986727  2.1669684520
Cl  -1.9066786471  4.7435641774 -2.4375377654
Cl   4.4283800585  1.8660316293  2.4324014590
Cl   3.1912999563  3.9038636600 -2.3949968139
Cl  -4.4880932940 -1.5596801994  2.3412861941
Cl  -3.1565760420 -4.1818044527 -2.1879335472
Cl   0.0082406371  0.0337843249  2.4261325694
78
aligned d3map frame 15
N   -0.2616557455 -2.0197960207 -0.1487688220
N   -1.9813443607  0.2683856609 -0.0455512212
C    2.1030661829 -2.7187010726 -0.0572819772
C    0.7179079404 -2.9412854032 -0.3204494774
C    0.1651386352 -4.1630420226 -0.7774856409
H    0.7164505209 -5.0508308091 -1.0204997526
C   -1.1898164565 -3.9730580497 -0.8597622187
H   -1.9272282732 -4.6800919113 -1.1811214249
C   -1.4455203481 -2.6421318125 -0.4381063003
C   -2.7150269206 -2.0578841240 -0.2782324541
C   -2.9257249837 -0.7081406076  0.0079111599
C   -4.2068442019 -0.1325415425  0.3262097807
H   -5.1074983682 -0.6953369497  0.4756054362
C   -4.0279181913  1.2053932328  0.4132469282
H   -4.7502486500  1.9628226730  0.6526982055
C   -2.6390630319  1.4640167071  0.1251397701
C   -3.8995040874 -2.9091022155 -0.5007229096
C   -4.1800288537 -4.0156735086  0.3040076497
C   -5.2792861734 -4.8236217806  0.0628893812
C   -6.1254375348 -4.5346841323 -0.9931326417
H   -6.9798306676 -5.1631877524 -1.1867867333
C   -5.8811116532 -3.4404130561 -1.8029919414
C   -4.7780334469 -2.6413105021 -1.5549010838
N    0.2779653105  2.0152137854 -0.1789834418
N    2.0028300714 -0.2746990246 -0.0613613349
C   -2.0862602976  2.7114443450 -0.0825875452
C   -0.7035081299  2.9351037181 -0.3504799564
C   -0.1534638287  4.1575372718 -0.8077158695
H   -0.7112499905  5.0408752267 -1.0508239583
C    1.2026155225  3.9723195609 -0.8893054000
H    1.9405928364  4.6810019091 -1.2073314262
C    1.4600682600  2.6373363039 -0.4754573942
C    2.7293709500  2.0486469711 -0.3498264015
C    2.9485178328  0.7009690973 -0.0501117110
C    4.2371326859  0.1298016018  0.2367165296
H    5.1420696349  0.6960590853  0.3448797515
C    4.0586439952 -1.2062784616  0.3568253884
H    4.7903086292 -1.9569414489  0.5863738118
C    2.6623025099 -1.4686109416  0.1128531592
C    3.9089093685  2.8856367883 -0.6406734912
C    4.2553945753  3.9918756052  0.1388423860
C    5.3429187196  4.7901964962 -0.1771203650
C    6.1053376455  4.4945816612 -1.2934215818
H    6.9477226503  5.1192989093 -1.5552212879
C    5.7934697636  3.4031033559 -2.0852813923
C    4.7093142640  2.6070490539 -1.7530511468
Fe   0.0125671918  0.0010084317  0.2913542290
C   -2.9730273276  3.8881730866 -0.0977470296
C   -2.8122174662  4.9266929924  0.8243689246
C   -3.9935718065  4.0183752975 -1.0424542052
C   -3.6304919964  6.0436981818  0.8063997558
C   -4.8256975794  5.1267390326 -1.0648776539
H   -3.4730286900  6.8288080611  1.5243104908
C   -4.6399283531  6.1370310607 -0.1362735800
H   -5.6045029357  5.1926149509 -1.8096018382
H   -5.2825051133  7.0041574076 -0.1533769348
C    2.9691188874 -3.9102768903 -0.0468673882
C    2.7739521129 -4.9301509354  0.8908792725
C    3.9786310140 -4.0940303079 -0.9952368505
C    3.5452209166 -6.0802392587  0.8851300249
C    4.7640433393 -5.2349144260 -1.0046835719
H    3.3622593096 -6.8504687978  1.6182723886
C    4.5418472707 -6.2272962509 -0.0652976794
H    5.5340885414 -5.3414335337 -1.7524876974
H    5.1441318594 -7.1215907044 -0.0750766731
H   -5.4655793734 -5.6705507556  0.7036592490
H   -6.5305679791 -3.2064703307 -2.6316696731
H    5.5850008054  5.6355177656  0.4527506816
H    6.3837157616  3.1632329355 -2.9553849271
Cl   1.5546916958 -4.7298584423  2.0971219157
Cl   4.2303613302 -2.8958027994 -2.2194461797
Cl  -1.5722576396  4.7954025809  2.0212430860
Cl  -4.2042423012  2.7916592274 -2.2443123038
Cl   3.3193401608  4.3479479145  1.5485244423
Cl   4.3133369936  1.2640886299 -2.7646787413
Cl  -3.1494437878 -4.3655502579  1.6467090288
Cl  -4.4607355477 -1.3004833885 -2.6019134001
Cl   0.0248731699  0.0122963921  2.4249705941
78
aligned d3map frame 16
N   -0.2728599665 -2.0298601871 -0.0936820585
N   -1.9878696513  0.2526184634 -0.0215785793
C    2.0678888044 -2.7244525024 -0.2649571803
C    0.7064326588 -2.9739828622 -0.2193189278
C    0.1141184512 -4.2826433588 -0.2652992319
H    0.6620272994 -5.1982952369 -0.3775163773
C   -1.2236875316 -4.1133991651 -0.1424391245
H   -1.9914619448 -4.8625817739 -0.1396048579
C   -1.4582600423 -2.6989613523 -0.0273319436
C   -2.7106287525 -2.1105845157  0.0851242790
C   -2.9487723674 -0.7136598493  0.0662858064
C   -4.2347228063 -0.1201828056  0.0798913995
H   -5.1668846803 -0.6448396428  0.1674720770
C   -4.0455504160  1.2344229564 -0.0349645650
H   -4.7956933576  1.9986687117 -0.0707672844
C   -2.6496506554  1.4483630656 -0.0980389846
C   -3.8820782596 -3.0049174548  0.1919383070
C   -4.1079094157 -3.7478740852  1.3522382571
C   -5.2055260767 -4.5819370085  1.4729549662
C   -6.1019367015 -4.6920184396  0.4194540816
H   -6.9612106905 -5.3419761359  0.5072192078
C   -5.8986081647 -3.9734163891 -0.7476059070
C   -4.7952569632 -3.1429448625 -0.8533853366
N    0.3007351200  2.0269558651 -0.1242998387
N    2.0081943878 -0.2603685938 -0.0394520519
C   -2.0461063403  2.7193950099 -0.2182176706
C   -0.6844293075  2.9699905976 -0.2106402092
C   -0.0982449813  4.2824562174 -0.1868973574
H   -0.6508260239  5.1993596055 -0.2536431240
C    1.2372993729  4.1157770159 -0.0400498920
H    1.9924378074  4.8724117320  0.0453054760
C    1.4820643654  2.6979671887 -0.0162827909
C    2.7320728050  2.1034047620  0.0960565386
C    2.9655571451  0.7071101705  0.0158615725
C    4.2529728981  0.1291791450 -0.1116556471
H    5.1811940887  0.6661520878 -0.1136856883
C    4.0654136315 -1.2248089422 -0.2461390560
H    4.8139771860 -1.9831373003 -0.3695987211
C    2.6690175711 -1.4501780681 -0.1950486208
C    3.9146555252  2.9614054642  0.3021238540
C    4.5900378557  2.9314584915  1.5254653361
C    5.7014767566  3.7239131490  1.7575518726
C    6.1604263884  4.5627547892  0.7559691570
H    7.0257443570  5.1823367590  0.9313941647
C    5.5184829386  4.6087479335 -0.4693198519
C    4.4072728548  3.8108330070 -0.6887469713
Fe   0.0125671918  0.0010084317  0.2913542290
C   -2.9648817327  3.8778989662 -0.3229845757
C   -3.5557278450  4.4362303971  0.8084136156
C   -3.2809730275  4.4249304194 -1.5647253362
C   -4.4426275702  5.4970694353  0.7065062391
C   -4.1670455424  5.4835442621 -1.6825575279
H   -4.8858012552  5.9076894518  1.5992964225
C   -4.7476749402  6.0120683930 -0.5420628175
H   -4.4002924103  5.8809723734 -2.6571982961
H   -5.4452844654  6.8317553200 -0.6262401644
C    2.9854322579 -3.8869852212 -0.3187428270
C    3.3628372728 -4.5350984153  0.8561039482
C    3.5097586149 -4.3532932670 -1.5209749683
C    4.2407795209 -5.6068584592  0.8372219699
C    4.3875349595 -5.4253768988 -1.5572371724
H    4.5183015902 -6.0866175697  1.7623668349
C    4.7512981191 -6.0444294023 -0.3733126180
H    4.7792596568 -5.7654453074 -2.5026895782
H    5.4379728109 -6.8767886379 -0.3939397259
H   -5.3533847020 -5.1374194888  2.3841929840
H   -6.5838087890 -4.0600180927 -1.5750816830
H    6.1954583514  3.6803503263  2.7148772965
H    5.8750273361  5.2529724291 -1.2571754984
Cl   2.7110422282 -3.9669679967  2.3526376228
Cl   3.0400776863 -3.5681551538 -2.9874387836
Cl  -3.1573857702  3.7783193784  2.3554373579
Cl  -2.5535077496  3.7451317414 -2.9749575644
Cl   3.9966408253  1.8978032230  2.7762443311
Cl   3.6329301871  3.8366998129 -2.2329887542
Cl  -2.9915052140 -3.6006374044  2.6685089251
Cl  -4.5152075608 -2.2930246851 -2.3283747108
Cl   0.0147749623  0.0387581148  2.4265449862
78
aligned d3map frame 17
N   -0.2632751769 -2.0326716259 -0.0798680869
N   -1.9856493181  0.2621802531 -0.0314418878
C    2.0787945069 -2.7374948928 -0.2170211096
C    0.7074576277 -2.9750091117 -0.2633150282
C    0.0980505585 -4.2564149393 -0.4673444212
H    0.6277082735 -5.1651384141 -0.6772934132
C   -1.2452391446 -4.0767884723 -0.3528886187
H   -2.0216233773 -4.8114971264 -0.4468767394
C   -1.4569280568 -2.6852600706 -0.0975770966
C   -2.7121572237 -2.0893104385  0.0839062806
C   -2.9451173390 -0.7077568659  0.1144180932
C   -4.2299138449 -0.1041700565  0.2127343436
H   -5.1540907541 -0.6265815801  0.3692831567
C   -4.0447319599  1.2437419479  0.0712707608
H   -4.7890831221  2.0160544143  0.0818352454
C   -2.6465469060  1.4546293311 -0.0771221758
C   -3.8655217592 -2.9956693472  0.2604998605
C   -3.9725251618 -3.7677974748  1.4206483645
C   -5.0517469380 -4.6106466501  1.6302723766
C   -6.0460933493 -4.6972877579  0.6703227874
H   -6.8923428640 -5.3467188004  0.8311513190
C   -5.9595370301 -3.9583938388 -0.4971489860
C   -4.8741418890 -3.1192789420 -0.6953022169
N    0.2879677957  2.0290774859 -0.1095349446
N    2.0057931883 -0.2737144571 -0.0486194720
C   -2.0547393014  2.7266979860 -0.2240069773
C   -0.6864714211  2.9756347210 -0.2351384600
C   -0.0879116999  4.2723009407 -0.3556627313
H   -0.6305670882  5.1892607110 -0.4796402633
C    1.2580087785  4.0932623140 -0.2753937479
H    2.0335871672  4.8329182159 -0.3135682080
C    1.4800201186  2.6891841398 -0.1201499526
C    2.7335603886  2.0820229946 -0.0118158341
C    2.9632827177  0.7035664935  0.0444352816
C    4.2534367356  0.1078902793  0.1438087949
H    5.1798619268  0.6405578199  0.2426573490
C    4.0695117247 -1.2449779783  0.0835935710
H    4.8200082716 -2.0117742117  0.1345743322
C    2.6691730733 -1.4640046812 -0.0583774091
C    3.9298303607  2.9581175254  0.0309027345
C    4.3734995746  3.4957013103  1.2383683902
C    5.5180434877  4.2749614194  1.3017276118
C    6.2301421916  4.5321446622  0.1432591192
H    7.1285264560  5.1261936805  0.1890075376
C    5.8042458678  4.0228130834 -1.0719894375
C    4.6618433915  3.2389271256 -1.1190789541
Fe   0.0125671918  0.0010084317  0.2913542290
C   -2.9782922487  3.8756871124 -0.3617735182
C   -3.2550520185  4.7229377891  0.7107772315
C   -3.6226497577  4.1271166882 -1.5715172071
C   -4.1519869695  5.7726429865  0.5883971539
C   -4.5159571798  5.1764006556 -1.7123827188
H   -4.3540466123  6.4014668067  1.4397409812
C   -4.7798824611  5.9919997774 -0.6253627840
H   -4.9987232308  5.3441204424 -2.6613628522
H   -5.4834972892  6.8017690823 -0.7249933563
C    2.9888034326 -3.8918617701 -0.3501150676
C    3.0516958208 -4.8913542422  0.6238061749
C    3.8201672629 -4.0220699899 -1.4645591671
C    3.9102453117 -5.9688082438  0.4965696428
C    4.6829935864 -5.0947438783 -1.6039042696
H    3.9368063786 -6.7198507385  1.2696832244
C    4.7223521996 -6.0663249169 -0.6186812142
H    5.3059450710 -5.1637033750 -2.4811378748
H    5.3926634321 -6.9044395010 -0.7219776736
H   -5.1099415653 -5.1859123132  2.5402573300
H   -6.7251959641 -4.0303816400 -1.2533776898
H    5.8433758362  4.6673011398  2.2516092076
H    6.3537823048  4.2202767668 -1.9781237554
Cl   2.0620789161 -4.7547374303  2.0346116121
Cl   3.7387631871 -2.8311193664 -2.7109749628
Cl  -2.4696115024  4.4277117062  2.2215929875
Cl  -3.2757356857  3.1031460515 -2.9219290422
Cl   3.4730230672  3.1456683522  2.6683977870
Cl   4.1322976546  2.5792379344 -2.6232403466
Cl  -2.7351496867 -3.6419038963  2.6225231228
Cl  -4.7470389928 -2.2276222088 -2.1701664858
Cl   0.0280863243  0.0014238014  2.4261502379
78
aligned d3map frame 18
N   -0.2721212541 -2.0358612090 -0.0613243078
N   -1.9770426139  0.2609379481 -0.0816067877
C    2.0563482256 -2.7322337150 -0.3082906536
C    0.7056356253 -2.9825693649 -0.0998137437
C    0.1249157127 -4.2898775871  0.0597872227
H    0.6806032016 -5.2082167033  0.0784049244
C   -1.2076581585 -4.1137807702  0.2097812341
H   -1.9590371225 -4.8607779372  0.3785105703
C   -1.4607135170 -2.7002280237  0.0800156991
C   -2.7063782511 -2.1102885455 -0.0043650131
C   -2.9157177500 -0.7155473662 -0.2156463053
C   -4.1553391702 -0.1562242333 -0.6039919294
H   -5.0539840517 -0.7049363553 -0.8087952638
C   -3.9694854187  1.2027176246 -0.6719476134
H   -4.6882147600  1.9499046536 -0.9488727095
C   -2.6189800587  1.4483120657 -0.3224345049
C   -3.9195509087 -2.9453929415  0.0661540148
C   -4.8427620962 -2.7661660839  1.1017118224
C   -6.0106921614 -3.5072750077  1.1718328122
C   -6.2729606622 -4.4542721731  0.1951522409
H   -7.1800065731 -5.0368025983  0.2422511587
C   -5.3796288130 -4.6586362753 -0.8428070391
C   -4.2200479071 -3.9030859972 -0.9026635763
N    0.2844936470  2.0344189777 -0.0920435757
N    1.9989934424 -0.2685503356 -0.0967243751
C   -2.0530345377  2.7352051550 -0.1905981567
C   -0.6912748037  2.9812399066 -0.0419515061
C   -0.1039846653  4.2764612247  0.1823722098
H   -0.6557740370  5.1905802171  0.2872597219
C    1.2349389659  4.0968188837  0.2444404134
H    1.9968248695  4.8339042400  0.4090246113
C    1.4791453812  2.6890284644  0.0593032254
C    2.7252851915  2.0982818873  0.0094473118
C    2.9522941977  0.7024675731 -0.1518469297
C    4.2189546338  0.1348723286 -0.4274675395
H    5.1374015089  0.6791125357 -0.5324125474
C    4.0272665156 -1.2197722162 -0.5404522334
H    4.7647363758 -1.9718514521 -0.7426904603
C    2.6458886249 -1.4553057951 -0.3288103717
C    3.9219970406  2.9620340828  0.0701478632
C    4.7838933894  2.9212490682  1.1682499102
C    5.9189355655  3.7140430404  1.2240888187
C    6.2124598054  4.5619625879  0.1698089185
H    7.0978049710  5.1776498435  0.2080329718
C    5.3784394834  4.6236197910 -0.9335344018
C    4.2441345074  3.8295099218 -0.9751478754
Fe   0.0125671918  0.0010084317  0.2913542290
C   -2.9958454010  3.8686257113 -0.1890443106
C   -3.9721073345  3.9786183126  0.8078621525
C   -2.9805850651  4.8508180693 -1.1815036228
C   -4.8971522891  5.0087141007  0.8067524692
C   -3.8979270321  5.8899223419 -1.1905558874
H   -5.6386755356  5.0585209766  1.5875756987
C   -4.8585233172  5.9614975798 -0.1970916171
H   -3.8588945953  6.6267028363 -1.9764579030
H   -5.5816127050  6.7626643851 -0.2051724251
C    2.9279500137 -3.8893641790 -0.6271308931
C    3.4917414692 -4.7077984803  0.3487832942
C    3.1892285461 -4.1939306641 -1.9631535075
C    4.2846178463 -5.7940131335  0.0064674741
C    3.9785986631 -5.2738624148 -2.3224817859
H    4.7077657730 -6.4124590892  0.7827041097
C    4.5225246333 -6.0716769961 -1.3293299372
H    4.1577949956 -5.4836772966 -3.3652373906
H    5.1365596804 -6.9180893307 -1.5974072479
H   -6.6993389672 -3.3439937663  1.9848229472
H   -5.5800585150 -5.3896810077 -1.6104093955
H    6.5615560142  3.6623029082  2.0891659885
H    5.6031373604  5.2767036342 -1.7617146418
Cl   3.1890459566 -4.3455258940  2.0129895493
Cl   2.4905172858 -3.1909642521 -3.1878538183
Cl  -4.0042077042  2.8192063670  2.0892103771
Cl  -1.8191115140  4.7434713915 -2.4570691360
Cl   4.3982215199  1.8720560660  2.4853368304
Cl   3.2188854852  3.8868779699 -2.3657620238
Cl  -4.4966179262 -1.6083271231  2.3325689514
Cl  -3.1373992397 -4.1405106125 -2.2394588978
Cl   0.0251158536  0.0373881203  2.4248281604
78
aligned d3map frame 19
N   -0.2735515780 -2.0311625346 -0.0967207699
N   -1.9866492159  0.2590839728 -0.0217678253
C    2.0714781646 -2.7264828380 -0.1719016300
C    0.7046907552 -2.9747780717 -0.1734181827
C    0.1157589737 -4.2836701167 -0.2628259618
H    0.6692086266 -5.1991095138 -0.3436462463
C   -1.2268651267 -4.1143520585 -0.2259990730
H   -1.9960615560 -4.8604578932 -0.2735898132
C   -1.4678745122 -2.6991474886 -0.1150645378
C   -2.7168224122 -2.1082101918 -0.0765561747
C   -2.9467759186 -0.7080033920 -0.0350880554
C   -4.2351552150 -0.1200662435 -0.0465689172
H   -5.1658589579 -0.6484087251 -0.0332911562
C   -4.0488668988  1.2377009894 -0.0767154466
H   -4.7998810267  2.0013052408 -0.1185825740
C   -2.6485246603  1.4578072856 -0.0654861125
C   -3.9210961797 -2.9665104584 -0.1287181207
C   -4.3380510583 -3.7080791150  0.9755119971
C   -5.5070281515 -4.4560083627  0.9416662281
C   -6.2732662022 -4.4784612076 -0.2130560966
H   -7.1901506427 -5.0383506864 -0.2358583943
C   -5.8745666131 -3.7670932775 -1.3331024909
C   -4.7074435531 -3.0223452470 -1.2822396406
N    0.2964787476  2.0270650540 -0.1286626645
N    2.0097471842 -0.2577745274 -0.0390125230
C   -2.0495254600  2.7304835743 -0.1386193488
C   -0.6821487690  2.9742908865 -0.1627839370
C   -0.0960362791  4.2871589199 -0.1579105372
H   -0.6522083867  5.2045090399 -0.1825717998
C    1.2450958983  4.1172849945 -0.0947927033
H    2.0095766715  4.8676759675 -0.0586291339
C    1.4874415927  2.6984507985 -0.0827970905
C    2.7374525667  2.1101168128 -0.0064964778
C    2.9698533611  0.7103268421 -0.0302279440
C    4.2563041295  0.1259480914 -0.1040817877
H    5.1833244710  0.6646627172 -0.1251959599
C    4.0708285996 -1.2330563502 -0.1530703849
H    4.8232083667 -1.9949509965 -0.2076750343
C    2.6714558431 -1.4542832604 -0.1189975703
C    3.9217301712  2.9827537525  0.1206685138
C    4.6293956688  3.0310047601  1.3248619995
C    5.7318880791  3.8542819134  1.4825206630
C    6.1453647952  4.6464879542  0.4253690991
H    6.9993337958  5.2943451953  0.5456957020
C    5.4724448717  4.6145430513 -0.7836219222
C    4.3728766195  3.7848707311 -0.9272466384
Fe   0.0125671918  0.0010084317  0.2913542290
C   -2.9668785140  3.8866430114 -0.2341203251
C   -3.6993500774  4.3284271995  0.8676526077
C   -3.1531468812  4.5422074154 -1.4498747631
C   -4.5964921855  5.3769681768  0.7565569193
C   -4.0503866563  5.5894961521 -1.5765623340
H   -5.1530032948  5.7023816256  1.6193911966
C   -4.7715231969  5.9980686630 -0.4685075820
H   -4.1837110314  6.0671378281 -2.5337962017
H   -5.4799686821  6.8049449892 -0.5594881207
C    3.0053239112 -3.8739731024 -0.2324118806
C    3.3600430302 -4.5667344196  0.9229818402
C    3.6101070307 -4.2490439202 -1.4300895535
C    4.2993445266 -5.5854472774  0.8940780906
C    4.5530274685 -5.2647871020 -1.4767967822
H    4.5638717447 -6.0952190860  1.8059885488
C    4.8961964852 -5.9236117999 -0.3088005528
H    5.0119228906 -5.5244193458 -2.4174493892
H    5.6404128436 -6.7055903946 -0.3346939026
H   -5.8116799224 -5.0055232339  1.8171563534
H   -6.4648962315 -3.7792480791 -2.2345772663
H    6.2529602204  3.8739612098  2.4256511049
H    5.7925540068  5.2242224266 -1.6131537363
Cl   2.6169369629 -4.1071109688  2.4162540654
Cl   3.1745537471 -3.4071679474 -2.8734287545
Cl  -3.4629989343  3.5466013810  2.3893393126
Cl  -2.2618438001  4.0056238923 -2.8262027817
Cl   4.0886729257  2.0600822484  2.6449942709
Cl   3.5477522161  3.7190974473 -2.4449289025
Cl  -3.3921200317 -3.6556352806  2.4197685989
Cl  -4.1952299514 -2.1398329210 -2.6764826636
Cl   0.0434598041  0.0008172983  2.4245062142
78
aligned d3map frame 20
N   -0.2608114538 -2.0357110562 -0.0805588035
N   -1.9848317190  0.2762748620 -0.0272524832
C    2.0784025471 -2.7426507225 -0.1136513759
C    0.7089361376 -2.9872969220 -0.1094706642
C    0.1127348213 -4.2917505884 -0.2086588356
H    0.6596429710 -5.2131837052 -0.2514601145
C   -1.2272047425 -4.1097439528 -0.2460107051
H   -1.9992021388 -4.8504235631 -0.3252355920
C   -1.4609529830 -2.6904635038 -0.1563688257
C   -2.7039542261 -2.0915104371 -0.1784834474
C   -2.9405760887 -0.6903619365 -0.1016272422
C   -4.2312218828 -0.1083342369 -0.0870667895
H   -5.1592374433 -0.6448846846 -0.1146537052
C   -4.0511041777  1.2489161678 -0.0193976718
H   -4.8051781037  2.0075535611  0.0078888062
C   -2.6506335010  1.4740646474  0.0057593622
C   -3.9027745165 -2.9437319830 -0.3311109076
C   -4.3814000706 -3.7410439207  0.7074132821
C   -5.5286602017 -4.5056233404  0.5585081454
C   -6.2136621841 -4.4835590580 -0.6436924536
H   -7.1098518778 -5.0722321727 -0.7617566096
C   -5.7581169471 -3.7082665638 -1.6969830861
C   -4.6114797919 -2.9500214953 -1.5331832209
N    0.2819932548  2.0316479682 -0.1133905755
N    2.0077752861 -0.2691530320 -0.0437737463
C   -2.0571588822  2.7469908523 -0.0257351339
C   -0.6858659445  2.9868467423 -0.0898833861
C   -0.0884937868  4.2939201700 -0.1115220721
H   -0.6326442297  5.2181264186 -0.0918561213
C    1.2516782251  4.1126494564 -0.1414400441
H    2.0238948863  4.8569505146 -0.1546077610
C    1.4828566503  2.6905674861 -0.1408399731
C    2.7285838489  2.1000423784 -0.1322124189
C    2.9640622728  0.6972972017 -0.1064128752
C    4.2512886826  0.1159774701 -0.1837555436
H    5.1765520674  0.6529071287 -0.2534705115
C    4.0703945214 -1.2437486214 -0.1628227877
H    4.8233955173 -2.0059251916 -0.1946761307
C    2.6709950867 -1.4682279288 -0.0894566076
C    3.9230947730  2.9702553667 -0.1531755613
C    4.7123867522  3.1252093528  0.9867101508
C    5.8440203763  3.9238230071  0.9775020668
C    6.2013104683  4.5826004565 -0.1865151901
H    7.0831767915  5.2030383760 -0.2014831064
C    5.4366492712  4.4508567599 -1.3327784738
C    4.3071256624  3.6495016614 -1.3082541290
Fe   0.0125671918  0.0010084317  0.2913542290
C   -2.9597186023  3.9189236719 -0.0391652460
C   -3.6399995500  4.3233055923  1.1090278616
C   -3.1617516578  4.6529841007 -1.2075909692
C   -4.4909298333  5.4166252842  1.0945797955
C   -4.0116188731  5.7455554677 -1.2384761880
H   -5.0010623762  5.7071457098  1.9982851641
C   -4.6740461214  6.1213411887 -0.0822850828
H   -4.1532443927  6.2877342977 -2.1584569173
H   -5.3384333168  6.9707677360 -0.0986699827
C    3.0142085415 -3.8833980539 -0.2477068848
C    3.4133933470 -4.6426266526  0.8496809229
C    3.5848824525 -4.1794634169 -1.4852184487
C    4.3682425999 -5.6412536352  0.7279554429
C    4.5374199896 -5.1758507426 -1.6255043924
H    4.6722473020 -6.1997307651  1.5986944002
C    4.9309873891 -5.8981307529 -0.5109067068
H    4.9693492047 -5.3685604739 -2.5945956132
H    5.6864931171 -6.6630586307 -0.6108251608
H   -5.8773400983 -5.1070064238  1.3828604771
H   -6.2820061095 -3.6885038259 -2.6391973328
H    6.4328422173  4.0254888367  1.8745919628
H    5.7100352831  4.9599944643 -2.2430197103
Cl   2.7258539919 -4.2795415662  2.3975196519
Cl   3.0992238223 -3.2493439862 -2.8620421991
Cl  -3.3902014299  3.4416944097  2.5730931502
Cl  -2.3405398865  4.1669582486 -2.6484920410
Cl   4.2390119460  2.3082244966  2.4338381117
Cl   3.3579508728  3.4624296641 -2.7394998471
Cl  -3.5335014582 -3.7503171579  2.2142663129
Cl  -4.0224529767 -1.9947922260 -2.8475467237
Cl   0.0248562858  0.0153686875  2.4258196354
78
aligned d3map frame 21
N   -0.2764052518 -2.0282893784 -0.0774292500
N   -1.9853418752  0.2608387423 -0.0392303115
C    2.0804903979 -2.7165216440 -0.1545623826
C    0.6980122414 -2.9746349250 -0.2036941800
C    0.1094595161 -4.2644055377 -0.2766580185
H    0.6397182130 -5.1882632154 -0.3926153194
C   -1.2474334544 -4.0863496784 -0.1699510707
H   -2.0089613405 -4.8408668194 -0.1757549644
C   -1.4620708915 -2.6930106595 -0.0406328133
C   -2.7260237924 -2.0730817479  0.1276096896
C   -2.9436027056 -0.7096339409  0.1098563387
C   -4.2449304468 -0.0993589813  0.1505830335
H   -5.1698671512 -0.6317923865  0.2621909471
C   -4.0620615298  1.2304221340  0.0000723598
H   -4.8076088376  2.0000822614 -0.0233593789
C   -2.6459899964  1.4513752204 -0.1177350342
C   -3.9035884548 -2.9503934743  0.3121911775
C   -4.4468912266 -3.1440540444  1.5807741545
C   -5.5611318389 -3.9458960562  1.7716698061
C   -6.1517111483 -4.5602980302  0.6820917414
H   -7.0225399608 -5.1803541485  0.8248005889
C   -5.6345531241 -4.3841118260 -0.5901528953
C   -4.5169637030 -3.5858410971 -0.7648594705
N    0.2912501538  2.0265675045 -0.1099225968
N    2.0089757747 -0.2576879113 -0.0549548474
C   -2.0665225190  2.7093773064 -0.2597450289
C   -0.6820891316  2.9640014470 -0.3043623307
C   -0.0944377390  4.2413783721 -0.4787671635
H   -0.6275758332  5.1522233718 -0.6701522842
C    1.2626851297  4.0682410751 -0.3570811200
H    2.0257041864  4.8183056590 -0.4313449490
C    1.4766554720  2.6896945821 -0.1183867812
C    2.7492879171  2.0806681225  0.0647189612
C    2.9712233588  0.7153841337  0.0670495608
C    4.2687203388  0.0969304328  0.1580774504
H    5.1947889254  0.6251421109  0.2806803371
C    4.0804149083 -1.2384382433  0.0478864667
H    4.8186299279 -2.0169568495  0.0495810839
C    2.6621413049 -1.4553695230 -0.0650157580
C    3.8874725029  2.9994953471  0.2651387209
C    3.9660755006  3.7674131013  1.4300624877
C    5.0234879074  4.6330321725  1.6563785504
C    6.0202715489  4.7597775936  0.7047833684
H    6.8448490645  5.4334370431  0.8762237692
C    5.9643992007  4.0239268077 -0.4675751604
C    4.9068121325  3.1548771548 -0.6768371717
Fe   0.0125671918  0.0010084317  0.2913542290
C   -2.9778694082  3.8726133588 -0.3014122756
C   -3.1105611580  4.7059408281  0.8096853978
C   -3.7526797811  4.1548745109 -1.4243518436
C   -3.9900412646  5.7748338589  0.8070391136
C   -4.6363075744  5.2225505043 -1.4431370268
H   -4.0782727034  6.3946878807  1.6813953089
C   -4.7498088430  6.0265203188 -0.3223791736
H   -5.2228669714  5.4150801477 -2.3273092978
H   -5.4378624475  6.8585744078 -0.3276119123
C    2.9679198160 -3.9003947687 -0.0809497336
C    3.4566580363 -4.3288309860  1.1540060700
C    3.3074946382 -4.6406299548 -1.2105105001
C    4.2503713299 -5.4592696986  1.2597164677
C    4.1063694834 -5.7709395561 -1.1206356472
H    4.6046459689 -5.7733950986  2.2281781912
C    4.5705337867 -6.1758836292  0.1185833594
H    4.3549101204 -6.3223652568 -2.0129615564
H    5.1865466206 -7.0586082034  0.1996815867
H   -5.9567826462 -4.0772297528  2.7659292938
H   -6.0939371595 -4.8568175086 -1.4412133224
H    5.0563050019  5.1968731981  2.5754664092
H    6.7305833383  4.1205744712 -1.2197378681
Cl   3.0362468040 -3.4270944566  2.5658820290
Cl   2.7136549515 -4.1250196120 -2.7466705980
Cl  -2.1784383395  4.3627016642  2.2218153548
Cl  -3.5949523995  3.1478232064 -2.8173731350
Cl   2.7304746144  3.6015120405  2.6246694054
Cl   4.8282347387  2.2620220647 -2.1518143203
Cl  -3.6998677679 -2.3625953918  2.9281035290
Cl  -3.8708155858 -3.3425660389 -2.3481931840
Cl   0.0361299044  0.0054671797  2.4249134134
78
aligned d3map frame 22
N   -0.2572582675 -2.0362832968 -0.0821519467
N   -1.9816884497  0.2727075975 -0.0368929640
C    2.0627477808 -2.7353813561  0.1774010746
C    0.7141589715 -2.9916213613  0.0966598148
C    0.0970917154 -4.2928312588  0.1875942679
H    0.6274844254 -5.2156789702  0.3253709959
C   -1.2327351756 -4.1081994799  0.0361362935
H   -2.0077856151 -4.8508446661  0.0292172843
C   -1.4489986698 -2.6865648278 -0.0856708236
C   -2.7033300721 -2.0837369029 -0.1599494597
C   -2.9418528553 -0.6978595411 -0.1520818295
C   -4.2263959917 -0.1010932154 -0.2131685792
H   -5.1567001833 -0.6275208804 -0.2985573246
C   -4.0338338781  1.2528586170 -0.1408060516
H   -4.7763386830  2.0234734160 -0.1657396344
C   -2.6401013737  1.4607480334 -0.0299054809
C   -3.8899155913 -2.9635805614 -0.2309692683
C   -4.3404618684 -3.6668719156  0.8858823073
C   -5.4627563715 -4.4736964620  0.8220693063
C   -6.1559136182 -4.5829894584 -0.3713313938
H   -7.0346022888 -5.2050136086 -0.4233224649
C   -5.7315947547 -3.8997007634 -1.4961418599
C   -4.6044451109 -3.0994585385 -1.4191131538
N    0.2917437728  2.0276365542 -0.1146189914
N    2.0035954243 -0.2649407149 -0.0558366123
C   -2.0376308814  2.7444052583  0.0656577822
C   -0.6841133600  2.9835102961  0.0178818746
C   -0.0749826386  4.2891480666  0.0650790487
H   -0.6125041115  5.2109094157  0.1721732785
C    1.2574059759  4.1053968211 -0.0575350509
H    2.0304836154  4.8489620606 -0.0509790735
C    1.4750413692  2.6852570702 -0.1746498050
C    2.7281409928  2.0856118817 -0.3158641748
C    2.9506262697  0.6960932941 -0.2989442540
C    4.2156679659  0.0810464915 -0.4958599628
H    5.1279497117  0.5888875121 -0.7395977805
C    4.0323231831 -1.2687548056 -0.3215848455
H    4.7654865297 -2.0488706569 -0.3936821625
C    2.6579244136 -1.4560375030 -0.0484824755
C    3.9056553999  2.9586098003 -0.4713304712
C    4.9174894388  2.9972552316  0.4935914650
C    6.0366338415  3.7966088676  0.3372819448
C    6.1630109717  4.5847361104 -0.7940461379
H    7.0344959968  5.2075333522 -0.9175839278
C    5.1746682894  4.5785602510 -1.7622129663
C    4.0621030073  3.7703044045 -1.5970880779
Fe   0.0125671918  0.0010084317  0.2913542290
C   -2.9483180901  3.9041135360  0.2023509902
C   -3.4093909059  4.2945031695  1.4564752257
C   -3.3612017993  4.6386517394 -0.9047782265
C   -4.2465845829  5.3860597733  1.6082293810
C   -4.2031309478  5.7286515680 -0.7695462876
H   -4.5804489747  5.6697130937  2.5919254638
C   -4.6390578310  6.0985038294  0.4895058976
H   -4.5089364458  6.2776446705 -1.6440704619
H   -5.2906997891  6.9505672940  0.5999214648
C    2.9994714028 -3.7935630695  0.6058009561
C    3.5561797872 -3.6910182423  1.8837613992
C    3.3866903072 -4.8698038062 -0.1875612223
C    4.4506071759 -4.6319233885  2.3587136649
C    4.2864018585 -5.8155150503  0.2731597900
H    4.8559937606 -4.5313306504  3.3519137937
C    4.8114813275 -5.6916681862  1.5475039888
H    4.5729868169 -6.6349797020 -0.3661420803
H    5.5069743080 -6.4285357422  1.9073953363
H   -5.7926525436 -5.0044258291  1.6985865748
H   -6.2654190475 -3.9828533023 -2.4285678113
H    6.7968842971  3.7984981468  1.1015827658
H    5.2616582278  5.1890264577 -2.6468411167
Cl   3.0869632434 -2.3635730570  2.8859666544
Cl   2.7497847308 -5.0000663074 -1.7883066498
Cl  -2.9008059439  3.3870382256  2.8348248769
Cl  -2.8047364128  4.1652946750 -2.4664766657
Cl   4.7467513360  2.0496023415  1.9275746132
Cl   2.8518781702  3.7378180473 -2.8299888111
Cl  -3.4803551709 -3.4983951078  2.3754551112
Cl  -4.0514986681 -2.2565357046 -2.8188253307
Cl   0.0112165236 -0.0162143217  2.4246459091
78
aligned d3map frame 23
N   -0.2670686675 -2.0230684949 -0.1249121324
N   -1.9782089099  0.2662064167 -0.0569793487
C    2.0590135150 -2.7023045049 -0.4610506385
C    0.6968644956 -2.9594010698 -0.2824550119
C    0.1271004000 -4.2738992285 -0.1328934663
H    0.6719014869 -5.1940628715 -0.2158559127
C   -1.1830438496 -4.1055314662  0.1612174588
H   -1.9181176567 -4.8612315508  0.3576803110
C   -1.4382228943 -2.6889228940  0.1399829041
C   -2.6691090930 -2.0879419461  0.2923544106
C   -2.9229588271 -0.7056923478  0.0566446744
C   -4.2021075426 -0.1817784361 -0.2403138985
H   -5.1187689222 -0.7384335868 -0.2266860947
C   -4.0192928187  1.1376289225 -0.5747292935
H   -4.7670853260  1.8374490345 -0.8911619382
C   -2.6338069963  1.4120070122 -0.4268181764
C   -3.8167429566 -2.9414428442  0.6649506150
C   -4.3095057259 -2.8925226599  1.9694236205
C   -5.3330724462 -3.7298308577  2.3828589875
C   -5.8855134108 -4.6229434862  1.4817274602
H   -6.6756702314 -5.2862755118  1.7995503823
C   -5.4337591223 -4.6771837876  0.1742608578
C   -4.4058600002 -3.8391295774 -0.2237286519
N    0.2887880283  2.0175785032 -0.1573712766
N    2.0004957529 -0.2603173122 -0.0737416973
C   -2.0335120782  2.6747461344 -0.5868225145
C   -0.6789437713  2.9413092827 -0.3474073731
C   -0.1233975143  4.2627986550 -0.2097659081
H   -0.6808535796  5.1754226473 -0.2949883621
C    1.1897009739  4.1115735341  0.0827231176
H    1.9152431027  4.8761912819  0.2807860886
C    1.4603323510  2.6977446207  0.0676798778
C    2.7047801600  2.1098660971  0.1444899242
C    2.9476851038  0.7174148055 -0.0413604967
C    4.2202302789  0.1737662326 -0.3325455668
H    5.1379114206  0.7264721003 -0.3838708030
C    4.0344863398 -1.1675074719 -0.5572497128
H    4.7747887419 -1.8942266302 -0.8287126416
C    2.6512892192 -1.4276572603 -0.3729226010
C    3.8968877903  2.9650222290  0.3087001903
C    4.6631624757  2.8892098314  1.4732258817
C    5.7994896349  3.6636031587  1.6423301754
C    6.1890494499  4.5290046726  0.6349347742
H    7.0755291551  5.1311087274  0.7590050146
C    5.4529883833  4.6229022929 -0.5337980822
C    4.3187035737  3.8437078970 -0.6898864051
Fe   0.0125671918  0.0010084317  0.2913542290
C   -2.8466260666  3.8134218113 -1.0525419612
C   -3.8880382597  4.3722956190 -0.3108859228
C   -2.5508599752  4.4022792417 -2.2877119570
C   -4.6125897662  5.4561652497 -0.7819487392
C   -3.2606184257  5.4894609565 -2.7658326992
H   -5.4100205532  5.8622359629 -0.1812651548
C   -4.2949046506  6.0120901329 -2.0089816082
H   -3.0006174773  5.9172283811 -3.7209211007
H   -4.8516266808  6.8603667144 -2.3752118571
C    2.9372104857 -3.8611222222 -0.7076562490
C    3.8925709708 -4.2733489931  0.2235212562
C    2.8245688397 -4.6052131852 -1.8851269618
C    4.7082384664 -5.3684289681 -0.0121544763
C    3.6284340246 -5.7041971439 -2.1311242845
H    5.4346392948 -5.6574386062  0.7298542503
C    4.5727699186 -6.0804684264 -1.1906156914
H    3.5133469259 -6.2545428111 -3.0508666630
H    5.2028333726 -6.9355616730 -1.3775153431
H   -5.6807018790 -3.6836483454  3.4021119670
H   -5.8665528854 -5.3642586382 -0.5347697305
H    6.3681864987  3.5826959756  2.5544336561
H    5.7559043290  5.2883303752 -1.3258753585
Cl   4.0280281793 -3.4231179731  1.7216003352
Cl   1.6647851743 -4.1212947515 -3.0723020979
Cl  -4.2454713228  3.7349838443  1.2564010057
Cl  -1.2784916946  3.7426272185 -3.2527799846
Cl   4.1575978299  1.8144178584  2.7267807158
Cl   3.4304086478  3.9295760439 -2.1703417669
Cl  -3.5870180666 -1.7845466122  3.0799199131
Cl  -3.8399248492 -3.8844250660 -1.8574511493
Cl   0.0187887907  0.0006147276  2.4243274970
78
aligned d3map frame 24
N   -0.2578373469 -2.0341657810 -0.0818869226
N   -1.9676901518  0.2787776112 -0.0960194893
C    2.0498700919 -2.7114468026  0.2686388110
C    0.6965700564 -2.9621802062  0.2635324608
C    0.0499396777 -4.2161701223  0.5657948473
H    0.5525471233 -5.1048223098  0.8966293172
C   -1.2720144157 -4.0414852922  0.3417842608
H   -2.0616559878 -4.7571836067  0.4582298193
C   -1.4574778395 -2.6657068044 -0.0450683491
C   -2.6939127497 -2.0672290376 -0.2971010305
C   -2.8940516154 -0.6790573495 -0.4164674121
C   -4.1186153074 -0.0530785483 -0.7705286236
H   -5.0021894187 -0.5615570538 -1.1039975053
C   -3.9346943888  1.2968765548 -0.6074543322
H   -4.6427624457  2.0851065386 -0.7708119481
C   -2.6004018100  1.4761886614 -0.1717605753
C   -3.8865388362 -2.9278317618 -0.3761355578
C   -4.9445820959 -2.7894710854  0.5297734378
C   -6.0849863463 -3.5688923875  0.4336295506
C   -6.1847265736 -4.5215638680 -0.5658795738
H   -7.0739180850 -5.1275429192 -0.6456194027
C   -5.1455988523 -4.7033255122 -1.4604673041
C   -4.0155151145 -3.9094343863 -1.3611536998
N    0.2846129794  2.0276477187 -0.1164078475
N    1.9915617237 -0.2617479814 -0.1135878017
C   -2.0210105534  2.7436019076  0.1544995797
C   -0.6632992179  2.9720929676  0.1965388257
C   -0.0093466146  4.2348652474  0.4418598963
H   -0.5049724817  5.1306719415  0.7645349213
C    1.3060479185  4.0518460098  0.1874202608
H    2.1019717217  4.7685459617  0.2503227813
C    1.4787580457  2.6639649551 -0.1629019408
C    2.6988036247  2.0632691025 -0.4936747130
C    2.9034026727  0.6737426939 -0.5362893373
C    4.1099121843  0.0207394328 -0.9051015941
H    4.9770030542  0.5005216576 -1.3159560621
C    3.9355252367 -1.3151676650 -0.6397441636
H    4.6364093845 -2.1145174500 -0.7817505306
C    2.6198016250 -1.4605393158 -0.1427640279
C    3.8289144440  2.9506408124 -0.8170602832
C    5.0193704060  2.9537699014 -0.0818209589
C    6.0798222589  3.7769709270 -0.4253439327
C    5.9647775200  4.6285625955 -1.5125682344
H    6.7898317587  5.2660298289 -1.7847363900
C    4.7917512393  4.6676994958 -2.2489502828
C    3.7426372790  3.8345203850 -1.9000403616
Fe   0.0125671918  0.0010084317  0.2913542290
C   -2.9694810879  3.8368933465  0.4297822666
C   -3.8574668267  3.7315579545  1.5079306396
C   -3.0450425516  4.9876557689 -0.3593034898
C   -4.7694972898  4.7328701728  1.7956233088
C   -3.9452516641  6.0013611631 -0.0776165263
H   -5.4369622008  4.6195165860  2.6372224316
C   -4.8062833270  5.8698010729  1.0014545989
H   -3.9722865910  6.8786440176 -0.6992749058
H   -5.5131704813  6.6535121332  1.2247411071
C    3.0108492316 -3.7121202750  0.7597357603
C    3.7758804175 -3.4016667967  1.8923967928
C    3.2206266226 -4.9576396489  0.1646065890
C    4.6908811836 -4.2977560433  2.4165165911
C    4.1274216233 -5.8684656155  0.6852990778
H    5.2577093481 -4.0300238938  3.2932472397
C    4.8557695146 -5.5356631768  1.8140651656
H    4.2615365154 -6.8231053211  0.2002477653
H    5.5647771356 -6.2377571391  2.2211651407
H   -6.8822558419 -3.4317256237  1.1422046588
H   -5.2050050894 -5.4477497862 -2.2371052055
H    6.9836903633  3.7486885465  0.1632441743
H    4.6883906094  5.3307442940 -3.0933313832
Cl   3.5388649524 -1.8774795737  2.6725665606
Cl   2.3727891654 -5.3552491807 -1.2909779873
Cl  -3.7904632940  2.3300054834  2.5201393774
Cl  -2.0172959982  5.1446378163 -1.7346703892
Cl   5.1589230815  1.9455346647  1.3170997630
Cl   2.2991005560  3.8692221108 -2.8547996445
Cl  -4.8126254290 -1.6541146203  1.8246571909
Cl  -2.7455501485 -4.1129619789 -2.5165394852
Cl   0.0015772054 -0.0044398366  2.4255099260
78
aligned d3map frame 25
N   -0.2639086863 -2.0356543920 -0.0806787421
N   -1.9822410141  0.2755337216 -0.0408254857
C    2.0761088248 -2.7434659164 -0.1438909158
C    0.7176056465 -2.9889054983 -0.1281874409
C    0.1206947315 -4.2889032422 -0.2767486671
H    0.6677959351 -5.2094100676 -0.3319746558
C   -1.2181894077 -4.1024483214 -0.3415688039
H   -1.9808061732 -4.8459607482 -0.4583861922
C   -1.4496495059 -2.6876369159 -0.2190218838
C   -2.6991911237 -2.0814964459 -0.2972391674
C   -2.9334894287 -0.6948358759 -0.1937740743
C   -4.2240822455 -0.1081248110 -0.2255356086
H   -5.1462184896 -0.6448882213 -0.3258154911
C   -4.0459845694  1.2474918226 -0.1001000519
H   -4.8018106356  2.0065578989 -0.0871847383
C   -2.6528300695  1.4636362666  0.0026978397
C   -3.8671581051 -2.9416385654 -0.5842924579
C   -4.4076197371 -3.8031924279  0.3692176530
C   -5.4961230993 -4.6111129926  0.0811915599
C   -6.0623459194 -4.5652976193 -1.1808159740
H   -6.9068936161 -5.1937333499 -1.4124102849
C   -5.5497368616 -3.7203133011 -2.1517455246
C   -4.4621297576 -2.9213287325 -1.8475849504
N    0.2800073015  2.0330469966 -0.1137467209
N    2.0063017731 -0.2683908033 -0.0565878913
C   -2.0535168775  2.7496623778  0.0419920234
C   -0.6944109017  2.9893713384 -0.0386649359
C   -0.0908505829  4.2969620648 -0.0495355560
H   -0.6321741986  5.2201226530  0.0119373461
C    1.2462501632  4.1110894254 -0.1470739854
H    2.0223557528  4.8529585582 -0.1732323551
C    1.4698746665  2.6911444732 -0.1732643167
C    2.7258151553  2.0950967286 -0.1931676512
C    2.9632990822  0.7073679473 -0.1280019968
C    4.2523228602  0.1218331742 -0.1905681798
H    5.1812650122  0.6530412173 -0.2547691717
C    4.0688790579 -1.2377148264 -0.1666338081
H    4.8218795456 -2.0005260245 -0.1900487172
C    2.6731782335 -1.4581243247 -0.1012914842
C    3.9090259277  2.9704609914 -0.3335161004
C    4.7664499294  3.2209214499  0.7372453667
C    5.8930091103  4.0141243618  0.5900017679
C    6.1778111045  4.5678761914 -0.6462449087
H    7.0578304994  5.1791577773 -0.7699144443
C    5.3431943858  4.3418891166 -1.7268229542
C    4.2167006774  3.5535406797 -1.5618552694
Fe   0.0125671918  0.0010084317  0.2913542290
C   -2.9598739074  3.9158965904  0.0935391099
C   -3.6117963632  4.2701019287  1.2743533312
C   -3.1824251804  4.7045833871 -1.0340921845
C   -4.4406895922  5.3787650156  1.3348874731
C   -4.0161224469  5.8098942977 -0.9904549126
H   -4.9185157883  5.6331030211  2.2663548631
C   -4.6376761809  6.1453981785  0.1996590460
H   -4.1704612236  6.3961476909 -1.8818398215
H   -5.2815700314  7.0097172353  0.2409771536
C    2.9962481387 -3.8824193171 -0.3668394806
C    3.3386409458 -4.7784783278  0.6429928650
C    3.5590377435 -4.0736988123 -1.6303450685
C    4.2262940759 -5.8179791222  0.4100355027
C    4.4505037984 -5.1033935258 -1.8766034012
H    4.4804147423 -6.4967700111  1.2085678792
C    4.7830159080 -5.9701377926 -0.8488349913
H    4.8739153346 -5.2222539242 -2.8612934819
H    5.4807195261 -6.7731792150 -1.0338089043
H   -5.8931088920 -5.2635559966  0.8417895316
H   -5.9856787933 -3.6825649045 -3.1368238191
H    6.5352898139  4.1891218802  1.4374901282
H    5.5613283726  4.7631506296 -2.6937805116
Cl   2.6498288959 -4.5612032304  2.2117329982
Cl   3.1094114964 -2.9962352128 -2.9068219527
Cl  -3.3461678259  3.3066297975  2.6833400926
Cl  -2.4085500458  4.2757609865 -2.5170028055
Cl   4.3927829240  2.5259646096  2.2743860183
Cl   3.1744879532  3.2569520628 -2.9080132945
Cl  -3.7089686916 -3.8389789409  1.9519836059
Cl  -3.7976173760 -1.8821963155 -3.0590637345
Cl   0.0310963733  0.0351224957  2.4278860670
78
aligned d3map frame 26
N   -0.2680871180 -2.0319765870 -0.0960671571
N   -1.9835445857  0.2679851447 -0.0300591159
C    2.0504042455 -2.7292723032  0.1972259607
C    0.7025119095 -2.9860445614  0.0754201439
C    0.0934584014 -4.2911986241  0.0916323447
H    0.6245316149 -5.2146848096  0.2138960842
C   -1.2310858842 -4.1089674689 -0.1071200499
H   -1.9975071736 -4.8547858507 -0.1839877599
C   -1.4542946207 -2.6871073102 -0.1710762179
C   -2.7101542817 -2.0847403248 -0.2443120982
C   -2.9421367318 -0.6980995917 -0.1571661186
C   -4.2311304291 -0.1037606686 -0.1368394529
H   -5.1629610715 -0.6297437937 -0.2044506137
C   -4.0411016896  1.2487673188  0.0027284277
H   -4.7874755179  2.0172543944  0.0560478900
C   -2.6441646157  1.4577859268  0.0584730088
C   -3.8971148623 -2.9565329794 -0.3754525596
C   -4.3570937761 -3.7284939752  0.6918358603
C   -5.4782156632 -4.5337164511  0.5710559670
C   -6.1601301727 -4.5751292785 -0.6329022208
H   -7.0356635290 -5.1971178379 -0.7337372986
C   -5.7292966668 -3.8205737295 -1.7098622908
C   -4.6072864490 -3.0195960598 -1.5742901771
N    0.2928045902  2.0260062408 -0.1293420210
N    2.0058197534 -0.2572221532 -0.0472294128
C   -2.0317541577  2.7346787458  0.1446749358
C   -0.6807813808  2.9788692309  0.0338480894
C   -0.0743556661  4.2845289918  0.0538565153
H   -0.6117612290  5.2051491534  0.1728338402
C    1.2553425751  4.1025503225 -0.1060442749
H    2.0275798407  4.8471563465 -0.1280651860
C    1.4756297763  2.6832400513 -0.2155965358
C    2.7308064807  2.0846585162 -0.3453309549
C    2.9591286890  0.6949977403 -0.2887569233
C    4.2244377372  0.0747597658 -0.4481039809
H    5.1421137062  0.5786360143 -0.6778836515
C    4.0323701420 -1.2722503475 -0.2540362330
H    4.7630548591 -2.0576396828 -0.3019233972
C    2.6542814486 -1.4527530911 -0.0089819549
C    3.8960940215  2.9695808606 -0.5309793273
C    4.9059320444  3.0739691463  0.4284809345
C    5.9974826885  3.9061654130  0.2417740950
C    6.0941734977  4.6621844411 -0.9141649518
H    6.9385432272  5.3150512376 -1.0628698216
C    5.1073044279  4.5873934268 -1.8814602258
C    4.0251083804  3.7464021585 -1.6858827594
Fe   0.0125671918  0.0010084317  0.2913542290
C   -2.9270293766  3.8956605263  0.3607338110
C   -3.2557820085  4.2919677112  1.6540938589
C   -3.4506638927  4.6236659092 -0.7049634969
C   -4.0668287672  5.3925809414  1.8840710560
C   -4.2665109652  5.7224996096 -0.4903691862
H   -4.2974269084  5.6851807996  2.8949600319
C   -4.5650951109  6.1043442956  0.8071711936
H   -4.6565121919  6.2712463219 -1.3320371156
H   -5.1893463203  6.9679346376  0.9768515901
C    2.9627810179 -3.7994139645  0.6483964768
C    3.4575885831 -3.7178972848  1.9548526400
C    3.3675651187 -4.8759429443 -0.1354104866
C    4.3138932878 -4.6788993848  2.4635208148
C    4.2284365874 -5.8440608552  0.3602774522
H    4.6696613433 -4.5909231663  3.4771370367
C    4.6964045830 -5.7405358042  1.6591616739
H    4.5276467129 -6.6666487761 -0.2693802928
H    5.3645977491 -6.4914463174  2.0516304155
H   -5.8103970785 -5.1154043985  1.4154373797
H   -6.2522639896 -3.8468815920 -2.6520211410
H    6.7577216786  3.9637373704  1.0030834149
H    5.1718517231  5.1727177812 -2.7847420199
Cl   2.9437623477 -2.3961029319  2.9486993407
Cl   2.8085427613 -4.9853785122 -1.7707498299
Cl  -2.6170203645  3.3835769640  2.9791752055
Cl  -3.0593495798  4.1330878864 -2.3117590282
Cl   4.7679534785  2.1752442120  1.8978671135
Cl   2.8151173378  3.6318912604 -2.9132572777
Cl  -3.5163629837 -3.6474502784  2.2011385056
Cl  -4.0577132531 -2.0848182139 -2.9170842278
Cl   0.0173079096  0.0201720222  2.4259850496
78
aligned d3map frame 27
N   -0.2574233826 -2.0158289560 -0.1575722423
N   -1.9773972286  0.2725519982 -0.0608874902
C    2.1040482694 -2.7091442890  0.0283791442
C    0.7289656446 -2.9334155723 -0.2931224185
C    0.2018521515 -4.1457879302 -0.8030161076
H    0.7697215386 -5.0278866042 -1.0267009616
C   -1.1472062026 -3.9533407098 -0.9606976383
H   -1.8663356039 -4.6517638804 -1.3417916473
C   -1.4253991285 -2.6284452833 -0.5280684496
C   -2.6976923995 -2.0431253679 -0.4190069919
C   -2.9182188382 -0.7073247929 -0.0654446759
C   -4.1981344708 -0.1535946853  0.2881967491
H   -5.0986583153 -0.7261557699  0.3995426834
C   -4.0192338045  1.1753276619  0.4706157322
H   -4.7459330373  1.9063726549  0.7671230961
C   -2.6342089691  1.4556645131  0.1830279688
C   -3.8751018153 -2.8636383891 -0.7558152875
C   -4.2130954045 -4.0204392025 -0.0490438115
C   -5.2950741453 -4.8036123806 -0.4173353383
C   -6.0690380531 -4.4346075815 -1.5037511684
H   -6.9080071314 -5.0456873274 -1.7980159706
C   -5.7734835578 -3.2842245661 -2.2143127736
C   -4.6878758604 -2.5124445962 -1.8387492380
N    0.2763331901  2.0113409709 -0.1886566583
N    1.9991626454 -0.2744145437 -0.0771023238
C   -2.0813114709  2.7090103314  0.0198864888
C   -0.7104209802  2.9281633581 -0.3238277962
C   -0.1876191367  4.1355933010 -0.8507537051
H   -0.7575681338  5.0150326074 -1.0804463638
C    1.1596615644  3.9412799076 -1.0177822023
H    1.8775320036  4.6359231797 -1.4082389993
C    1.4413000351  2.6197120311 -0.5764293815
C    2.7140312170  2.0348232493 -0.4789982838
C    2.9403326932  0.7037586247 -0.1136296456
C    4.2275797409  0.1538182599  0.2209127543
H    5.1310030751  0.7264104450  0.3064442156
C    4.0511597301 -1.1718259013  0.4257570575
H    4.7784851290 -1.9041700405  0.7182040468
C    2.6596849716 -1.4549910436  0.1698209100
C    3.8833298830  2.8557887234 -0.8454569176
C    4.2452329523  4.0026669430 -0.1365908911
C    5.3103246539  4.7933425903 -0.5362231526
C    6.0402227548  4.4419969758 -1.6581628904
H    6.8640700584  5.0632760578 -1.9797630798
C    5.7213452117  3.2993968490 -2.3711885588
C    4.6543896392  2.5184658371 -1.9611852123
Fe   0.0125671918  0.0010084317  0.2913542290
C   -2.9405459614  3.8997297548  0.1166058303
C   -2.6774182778  4.8944819489  1.0640404841
C   -4.0260166144  4.1028969352 -0.7408505983
C   -3.4666249028  6.0274282231  1.1670206405
C   -4.8275874859  5.2280312120 -0.6426508883
H   -3.2344296110  6.7725404891  1.9106846815
C   -4.5457453337  6.1868654002  0.3148085188
H   -5.6579393103  5.3489473634 -1.3195373834
H   -5.1672046250  7.0654780704  0.3925359112
C    2.9671783757 -3.8996004145  0.1087579647
C    2.7320308278 -4.8886957474  1.0686377625
C    4.0223268524 -4.1085310074 -0.7841353322
C    3.5194542907 -6.0250357571  1.1495253217
C    4.8187680251 -5.2392161340 -0.7109669513
H    3.3111879323 -6.7665419136  1.9040788155
C    4.5655677375 -6.1936425610  0.2588932558
H    5.6229234572 -5.3694533652 -1.4175323023
H    5.1842782824 -7.0777076212  0.3155221644
H   -5.5250221895 -5.6926763393  0.1473623079
H   -6.3717078461 -2.9855842004 -3.0599344618
H    5.5606655594  5.6769807428  0.0301269509
H    6.2858701976  3.0144325487 -3.2440893526
Cl   1.4438329118 -4.6648734833  2.1968430895
Cl   4.3163921594 -2.9637052247 -2.0472953958
Cl  -1.3528789256  4.6817500587  2.1512794075
Cl  -4.3536041124  2.9566567537 -1.9958869158
Cl   3.3599435075  4.4240724820  1.2861050998
Cl   4.2470624392  1.1051750204 -2.8764182858
Cl  -3.2830166342 -4.4605933536  1.3379809811
Cl  -4.3098500683 -1.0990756233 -2.7619180416
Cl   0.0217704588  0.0169664207  2.4245934775
78
aligned d3map frame 28
N   -0.2842607425 -2.0334739177 -0.0618481880
N   -1.9741329470  0.2562371048 -0.0931101062
C    2.0448178347 -2.7270984971 -0.3028534143
C    0.6964121415 -2.9737658032 -0.0566667841
C    0.1321427087 -4.2684487170  0.2123211386
H    0.7009579790 -5.1744403506  0.2921703691
C   -1.1991880325 -4.0910320863  0.3793486377
H   -1.9393162346 -4.8245174637  0.6318701548
C   -1.4673935173 -2.6935138806  0.1459572448
C   -2.7117403894 -2.1090152333  0.0331303866
C   -2.9050391576 -0.7201176063 -0.2551815496
C   -4.1316640034 -0.1622266585 -0.6840876133
H   -5.0174245814 -0.7154473972 -0.9298536786
C   -3.9540204550  1.1993033823 -0.7203445757
H   -4.6677871703  1.9495875766 -0.9997214021
C   -2.6143499459  1.4436891611 -0.3317070118
C   -3.9428830623 -2.8982901509  0.1879917293
C   -4.8797261247 -2.5447670243  1.1699841178
C   -6.0883774994 -3.2075722730  1.2942188269
C   -6.3807520876 -4.2596025995  0.4430497601
H   -7.3234056256 -4.7760728804  0.5316684381
C   -5.4707265943 -4.6470537622 -0.5263595183
C   -4.2721118802 -3.9647737763 -0.6533284848
N    0.2807677374  2.0340443374 -0.0926757880
N    1.9972311329 -0.2636212150 -0.1055033740
C   -2.0576540808  2.7250413906 -0.1548679482
C   -0.6982498219  2.9762706948 -0.0099790270
C   -0.1110819635  4.2732321656  0.2009011634
H   -0.6646795791  5.1838545920  0.3236560945
C    1.2295290469  4.1004381799  0.2166620810
H    1.9927297157  4.8409038833  0.3569984388
C    1.4747201634  2.6921969279  0.0192620582
C    2.7202694124  2.1071743738 -0.0771647223
C    2.9414334338  0.7068915124 -0.2312004251
C    4.1922980379  0.1380087880 -0.5717677349
H    5.0997128232  0.6838212365 -0.7397752795
C    4.0005846957 -1.2176128682 -0.6523811519
H    4.7247014022 -1.9717504630 -0.8914688458
C    2.6334195425 -1.4543884636 -0.3560779167
C    3.9105962029  2.9783487485 -0.1006305134
C    4.8615180594  2.9377488743  0.9210324643
C    5.9887300100  3.7423913769  0.8931002960
C    6.1844314889  4.6046716541 -0.1717548753
H    7.0621351778  5.2312375500 -0.1990686807
C    5.2624695782  4.6666736970 -1.2021920212
C    4.1384498107  3.8594497901 -1.1600843317
Fe   0.0125671918  0.0010084317  0.2913542290
C   -3.0084896667  3.8503059574 -0.0666934847
C   -3.8730638401  3.9436108827  1.0272293930
C   -3.0912296537  4.8377236625 -1.0473952873
C   -4.7770324962  4.9854694567  1.1427741187
C   -3.9969682822  5.8805575725 -0.9482132935
H   -5.4238054357  5.0365279537  2.0039248660
C   -4.8356288435  5.9492227293  0.1507523331
H   -4.0426674440  6.6253774570 -1.7261867398
H   -5.5416422797  6.7616210351  0.2358272830
C    2.9009065990 -3.8877793276 -0.6428860237
C    3.7521779423 -4.4996574070  0.2719337090
C    2.8717079874 -4.3861567104 -1.9454101610
C    4.5468694594 -5.5756467651 -0.0955026242
C    3.6652291066 -5.4527373153 -2.3289756682
H    5.1948352270 -6.0354164564  0.6329377940
C    4.5006556633 -6.0447822847 -1.3971322934
H    3.6269839103 -5.8074931459 -3.3461779258
H    5.1206701694 -6.8775748616 -1.6874009200
H   -6.7893349954 -2.8957407708  2.0517641975
H   -5.6906266458 -5.4625171554 -1.1960862738
H    6.7004346127  3.6894513625  1.7009673912
H    5.4094251674  5.3295018718 -2.0396069042
Cl   3.8014619485 -3.8969885500  1.8883706450
Cl   1.8255838264 -3.6351987534 -3.0941331249
Cl  -3.7863898556  2.7437722918  2.2665642653
Cl  -2.0571222034  4.7306278796 -2.4278141462
Cl   4.5992955067  1.8744465028  2.2555886752
Cl   3.0097339399  3.9173693771 -2.4686398994
Cl  -4.5030649809 -1.2734076929  2.2682502620
Cl  -3.1985135689 -4.4078403764 -1.9377956318
Cl   0.0026323788  0.0257733173  2.4250429892
78
aligned d3map frame 29
N   -0.2615432404 -2.0299866311 -0.0956924715
N   -1.9688774433  0.2735017496 -0.0899559230
C    2.0366108429 -2.7000614908  0.3305080764
C    0.6857202101 -2.9544061989  0.2789279032
C    0.0378949845 -4.2205630635  0.5258160461
H    0.5379492377 -5.1115037947  0.8573016137
C   -1.2728125289 -4.0536972651  0.2361896323
H   -2.0591599310 -4.7816425540  0.2935476374
C   -1.4560942004 -2.6709138556 -0.1249775440
C   -2.6887408882 -2.0674150736 -0.3895125098
C   -2.8934651854 -0.6751380029 -0.4415864960
C   -4.1248826697 -0.0387063584 -0.7539029190
H   -5.0122239543 -0.5318466253 -1.1002338246
C   -3.9455614069  1.3045529139 -0.5322189186
H   -4.6622980803  2.0933081905 -0.6565227082
C   -2.6060295512  1.4715407872 -0.1116543685
C   -3.8713662889 -2.9331184568 -0.5481276522
C   -4.9490166606 -2.8713083847  0.3401466205
C   -6.0757216921 -3.6588146764  0.1696449327
C   -6.1395297180 -4.5410695497 -0.8952664601
H   -7.0153759582 -5.1549542202 -1.0348539743
C   -5.0804697012 -4.6451531663 -1.7806407876
C   -3.9624055864 -3.8466180084 -1.6030566430
N    0.2855788206  2.0245782285 -0.1294331120
N    1.9925564110 -0.2615431576 -0.1071326172
C   -2.0130176975  2.7308887273  0.2248293958
C   -0.6561651257  2.9657421127  0.2078837133
C    0.0027073954  4.2309474631  0.4311362103
H   -0.4837280777  5.1267820845  0.7620684614
C    1.3103159687  4.0507095115  0.1388129573
H    2.1054363272  4.7698909354  0.1791435273
C    1.4786855411  2.6597313335 -0.2040874448
C    2.6992469271  2.0560887669 -0.5231679235
C    2.9120393699  0.6651694616 -0.5247213451
C    4.1361411873  0.0100549209 -0.8287904493
H    5.0143859228  0.4842321298 -1.2210342751
C    3.9599195457 -1.3181595400 -0.5231937560
H    4.6717725098 -2.1158504551 -0.6144987723
C    2.6271242591 -1.4585623869 -0.0763977139
C    3.8278652140  2.9432332827 -0.8608720406
C    5.0046004586  2.9881088349 -0.1079960277
C    6.0555642481  3.8203035693 -0.4592565996
C    5.9427395302  4.6370013745 -1.5698440475
H    6.7613111516  5.2832977563 -1.8458797667
C    4.7858099970  4.6272523870 -2.3298459405
C    3.7442327961  3.7890836016 -1.9721847068
Fe   0.0125671918  0.0010084317  0.2913542290
C   -2.9452376936  3.8147608702  0.5804640861
C   -3.7675349922  3.6792942519  1.7033026828
C   -3.0607913706  4.9910400320 -0.1669473008
C   -4.6465709000  4.6796363553  2.0838938324
C   -3.9292036001  6.0034110769  0.2065367609
H   -5.2652111264  4.5379550901  2.9553890659
C   -4.7160361348  5.8457830136  1.3355084329
H   -3.9927242526  6.9015646362 -0.3879591792
H   -5.3941287921  6.6313737107  1.6299925658
C    2.9712676960 -3.6953718080  0.8867997051
C    3.6227015967 -3.3893037778  2.0870240166
C    3.2482080107 -4.9275325434  0.2955389079
C    4.4888765915 -4.2879724069  2.6897342733
C    4.1160100276 -5.8342371229  0.8875440599
H    4.9630766436 -4.0257504049  3.6217021070
C    4.7269353691 -5.5122105763  2.0871382724
H    4.3097276959 -6.7801603332  0.4064689662
H    5.3931329031 -6.2220406039  2.5568808524
H   -6.8893657988 -3.5806673252  0.8720555405
H   -5.1198012006 -5.3333283968 -2.6134784142
H    6.9486866814  3.8319639133  0.1449267251
H    4.6899268373  5.2571912273 -3.2019040237
Cl   3.2946432951 -1.8730778054  2.8508585680
Cl   2.5259692943 -5.3139004246 -1.2274224817
Cl  -3.6732233956  2.2296858366  2.6458115841
Cl  -2.1443734956  5.1674561628 -1.6235776560
Cl   5.1357396644  2.0229206695  1.3275339010
Cl   2.3095334763  3.7773965605 -2.9429742221
Cl  -4.8600082408 -1.8214972950  1.7095475897
Cl  -2.6615067472 -3.9574112096 -2.7327818925
Cl   0.0122322247  0.0007325742  2.4247702096
78
aligned d3map frame 30
N   -0.2725487878 -2.0261990554 -0.1074269001
N   -1.9872840754  0.2506265037 -0.0179387460
C    2.0647921167 -2.7264416258 -0.2795809238
C    0.7015639239 -2.9725439656 -0.2614321329
C    0.1029031373 -4.2782897656 -0.2877144422
H    0.6426683467 -5.1960951012 -0.4221807986
C   -1.2284890804 -4.1043950125 -0.1064984900
H   -1.9958755846 -4.8530939528 -0.0709735106
C   -1.4521377856 -2.6891417882  0.0232473905
C   -2.6978897341 -2.0996933909  0.2198367938
C   -2.9442159928 -0.7055587059  0.1708130535
C   -4.2254531096 -0.1031354665  0.2233315773
H   -5.1497730697 -0.6160884905  0.3979670783
C   -4.0400415563  1.2392858451  0.0041919591
H   -4.7888850246  2.0066881031 -0.0375239436
C   -2.6453376193  1.4422115034 -0.1389003902
C   -3.8416957278 -2.9943689803  0.4758212546
C   -3.9126172380 -3.7241063975  1.6653033215
C   -4.9903302397 -4.5480787660  1.9455995537
C   -6.0248534792 -4.6540826839  1.0306881495
H   -6.8708130730 -5.2872526566  1.2497504783
C   -5.9751566975 -3.9616940099 -0.1670629706
C   -4.8859750075 -3.1500269693 -0.4369498602
N    0.2974399522  2.0236343593 -0.1368313089
N    2.0065134920 -0.2647790744 -0.0351921274
C   -2.0443045517  2.7064400684 -0.3320908983
C   -0.6825687708  2.9620794115 -0.3023976704
C   -0.0895632155  4.2703438326 -0.3442856728
H   -0.6317085309  5.1838183508 -0.4917248468
C    1.2400643599  4.1086927468 -0.1355222098
H    1.9965495912  4.8664177726 -0.0750160664
C    1.4777876248  2.6953451950 -0.0264387104
C    2.7211893932  2.0962813613  0.1429189244
C    2.9606177105  0.7012082318  0.0639030412
C    4.2507905791  0.1219468748 -0.0283626531
H    5.1810781613  0.6519480014  0.0101305154
C    4.0648192662 -1.2296655273 -0.1911690080
H    4.8150316422 -1.9876156885 -0.3099351138
C    2.6681320768 -1.4542612495 -0.1848252575
C    3.9053279262  2.9368356343  0.4078304662
C    4.4986541308  2.9019538812  1.6727220289
C    5.6285885778  3.6481189448  1.9606602618
C    6.1875628495  4.4428545597  0.9743261306
H    7.0723318706  5.0208001409  1.1907741218
C    5.6258506168  4.4959551822 -0.2897688330
C    4.4945488398  3.7452766563 -0.5629607129
Fe   0.0125671918  0.0010084317  0.2913542290
C   -2.9730562728  3.8436588425 -0.5331979982
C   -3.3426983420  4.6884864812  0.5119173148
C   -3.5375631437  4.0732129447 -1.7867226637
C   -4.2465154700  5.7215480983  0.3170686703
C   -4.4343379661  5.1071471621 -2.0009156296
H   -4.5211271105  6.3619999353  1.1435852513
C   -4.7885075365  5.9256693744 -0.9409672064
H   -4.8467317507  5.2632395740 -2.9851308561
H   -5.4880815135  6.7408509864 -1.0936812156
C    2.9685407023 -3.9010321334 -0.2503111053
C    3.3746239957 -4.4135687689  0.9823783120
C    3.4196089764 -4.5358263327 -1.4032963126
C    4.2022031361 -5.5211175205  1.0659813890
C    4.2512292127 -5.6435370986 -1.3377620103
H    4.4987181147 -5.8974931693  2.0317754728
C    4.6371847198 -6.1301497704 -0.1001306102
H    4.5868774080 -6.1178170994 -2.2461494916
H    5.2827211795 -6.9931659170 -0.0424439684
H   -5.0115454079 -5.0942493662  2.8753397704
H   -6.7679525511 -4.0521558533 -0.8921119376
H    6.0640562891  3.6030415068  2.9454728147
H    6.0632751856  5.1068488783 -1.0624584146
Cl   2.8080984866 -3.6367142247  2.4195116432
Cl   2.9239094251 -3.9158423288 -2.9401361615
Cl  -2.6666577294  4.4166876326  2.0796851617
Cl  -3.0869145570  3.0362547058 -3.0932931765
Cl   3.7829158902  1.9098889891  2.8940708047
Cl   3.8179949903  3.7694992627 -2.1539890042
Cl  -2.6282247922 -3.5787721525  2.8180693549
Cl  -4.7885562481 -2.3438853503 -1.9660574357
Cl   0.0232092503  0.0065147483  2.4251415363
78
aligned d3map frame 31
N   -0.2780519111 -2.0244087216 -0.1045278137
N   -1.9814877716  0.2663616431 -0.0497478809
C    2.0750008056 -2.7016874929 -0.3235103575
C    0.6916982674 -2.9620880709 -0.3123267565
C    0.0991251304 -4.2492732741 -0.4168473830
H    0.6327948308 -5.1624824492 -0.5924935497
C   -1.2510893170 -4.0784986391 -0.2381131347
H   -2.0209733408 -4.8250008960 -0.2423765412
C   -1.4595339806 -2.6904962462 -0.0469078522
C   -2.7186112363 -2.0663409772  0.1628880185
C   -2.9337650454 -0.7021620643  0.1492830645
C   -4.2349742254 -0.0888181773  0.2033236378
H   -5.1553207392 -0.6169381470  0.3617042212
C   -4.0574319752  1.2371536300 -0.0146504668
H   -4.8067165658  2.0070799233 -0.0554951989
C   -2.6432205803  1.4522432514 -0.1701980626
C   -3.9093936318 -2.9232493275  0.3638715478
C   -4.4127599582 -3.1289948876  1.6486410618
C   -5.5789626096 -3.8473896764  1.8591052405
C   -6.2583569208 -4.3727065843  0.7729765155
H   -7.1767011490 -4.9181971040  0.9308237196
C   -5.7729586048 -4.2001352294 -0.5123696464
C   -4.6032207772 -3.4797172760 -0.7068264163
N    0.2823380291  2.0207257220 -0.1374683437
N    2.0061728922 -0.2573335233 -0.0636031707
C   -2.0628686720  2.7009614546 -0.3913404387
C   -0.6790207347  2.9520846356 -0.4108129336
C   -0.0724764359  4.2187101201 -0.6138458551
H   -0.5896919313  5.1209423753 -0.8762077015
C    1.2741124525  4.0467808583 -0.4061851766
H    2.0479760101  4.7861438643 -0.4673679897
C    1.4652274698  2.6768934529 -0.1036818232
C    2.7303529114  2.0707667948  0.1614294405
C    2.9640423566  0.7090490140  0.1301515753
C    4.2630118191  0.0895220385  0.1938094197
H    5.1855407176  0.6084040857  0.3649757531
C    4.0800271556 -1.2343464418 -0.0255077182
H    4.8230616467 -2.0086585025 -0.0716407593
C    2.6624155442 -1.4501777200 -0.1570388872
C    3.8147068835  3.0138771593  0.5014435284
C    3.7450033258  3.6917183455  1.7232470754
C    4.6958762948  4.6306992938  2.0856956267
C    5.7372636417  4.9174584771  1.2166022165
H    6.4801475468  5.6583872050  1.4897977334
C    5.8397002564  4.2570395385  0.0044007208
C    4.8799740985  3.3128399194 -0.3453256658
Fe   0.0125671918  0.0010084317  0.2913542290
C   -2.9719035326  3.8597549484 -0.5154551305
C   -3.0658141648  4.8085801968  0.5034864309
C   -3.7893683727  4.0274356661 -1.6334388668
C   -3.9530903336  5.8683365367  0.4214565723
C   -4.6765022070  5.0853366704 -1.7319283836
H   -4.0082545575  6.5766485407  1.2309012444
C   -4.7591287090  5.9995317859 -0.6958115381
H   -5.2930796737  5.1845425801 -2.6089315041
H   -5.4587489680  6.8193542276 -0.7602695413
C    2.9572265569 -3.8886061650 -0.4410370799
C    3.3887373560 -4.5702162336  0.6942995943
C    3.3326119533 -4.3848698169 -1.6871876995
C    4.1652347011 -5.7138942504  0.5958702709
C    4.1040932675 -5.5292222405 -1.8013542908
H    4.4811535348 -6.2225046644  1.4919889196
C    4.5146824179 -6.1899043017 -0.6558994630
H    4.3752758703 -5.8979763478 -2.7774085178
H    5.1093971402 -7.0863023482 -0.7416595527
H   -5.9531294321 -3.9780641465  2.8621983569
H   -6.2960907902 -4.6056351032 -1.3629620137
H    4.6139676668  5.1327683081  3.0358788929
H    6.6474843765  4.4767694389 -0.6781216711
Cl   2.9246796555 -3.9636991991  2.2423676550
Cl   2.8094556041 -3.5463878348 -3.1009894014
Cl  -2.0856045090  4.6216265153  1.9130518236
Cl  -3.6701866241  2.8853027197 -2.9259327333
Cl   2.4391453829  3.3232614591  2.7983176111
Cl   5.0022252633  2.5069990085 -1.8745153769
Cl  -3.5536996352 -2.4508337679  2.9834378828
Cl  -3.9967553288 -3.2297177308 -2.3061328481
Cl   0.0516759480  0.0299652253  2.4252097844
78
aligned d3map frame 32
N   -0.2718218171 -2.0226001882 -0.1250156731
N   -1.9788809419  0.2652555474 -0.0550235831
C    2.0553979004 -2.6975612196 -0.4712356832
C    0.6952122269 -2.9578391587 -0.2752835441
C    0.1303305413 -4.2728602162 -0.1151551853
H    0.6805816570 -5.1915013864 -0.1843452232
C   -1.1810014532 -4.1070308584  0.1772149025
H   -1.9180097665 -4.8601688331  0.3773606616
C   -1.4411824820 -2.6904379276  0.1434541467
C   -2.6724003784 -2.0899082759  0.2891363798
C   -2.9240906438 -0.7074566249  0.0533015698
C   -4.2036623261 -0.1819073631 -0.2380364455
H   -5.1202228723 -0.7387431964 -0.2276236249
C   -4.0210378910  1.1395078412 -0.5664399810
H   -4.7707874642  1.8401609028 -0.8762153876
C   -2.6357270042  1.4120201517 -0.4215098055
C   -3.8321206670 -2.9263999944  0.6639657444
C   -4.3088140025 -2.8779612912  1.9742603447
C   -5.3697957917 -3.6712291045  2.3848764379
C   -5.9766543476 -4.5186785368  1.4743838817
H   -6.7941233803 -5.1455805150  1.7865343674
C   -5.5383848861 -4.5719411154  0.1610290320
C   -4.4706731709 -3.7796503379 -0.2330937371
N    0.2871162898  2.0171898568 -0.1575426498
N    2.0017156402 -0.2582468857 -0.0706892843
C   -2.0329721005  2.6692570851 -0.6058807019
C   -0.6772215689  2.9382588541 -0.3782239130
C   -0.1141669118  4.2603986246 -0.2964971615
H   -0.6677514883  5.1708204671 -0.4172087995
C    1.2006474826  4.1135256704 -0.0084071677
H    1.9338885256  4.8794782501  0.1510559059
C    1.4628182458  2.6986725238  0.0315611150
C    2.7078626782  2.1133279149  0.1165628121
C    2.9511684030  0.7187804673 -0.0361344584
C    4.2254855348  0.1702688434 -0.3111667014
H    5.1455368695  0.7196313099 -0.3525749366
C    4.0378926102 -1.1706542789 -0.5395530857
H    4.7792229820 -1.8988187462 -0.7990761922
C    2.6516784329 -1.4271667639 -0.3679326100
C    3.8950705161  2.9875526461  0.2235295890
C    4.6500408464  3.0259948679  1.3963328184
C    5.7678877335  3.8386013804  1.5086058483
C    6.1512741974  4.6227880714  0.4328803146
H    7.0261472794  5.2416308870  0.5113853823
C    5.4263423562  4.6015737778 -0.7462588259
C    4.3084784296  3.7878522247 -0.8426610786
Fe   0.0125671918  0.0010084317  0.2913542290
C   -2.8384416542  3.7818446336 -1.1435171712
C   -3.8941401556  4.3877779887 -0.4601168053
C   -2.5287348417  4.2810113950 -2.4129123321
C   -4.6185256745  5.4279046125 -1.0204231374
C   -3.2361482947  5.3254560963 -2.9808519784
H   -5.4289607047  5.8693153126 -0.4630783844
C   -4.2858062821  5.8940862067 -2.2811347900
H   -2.9639761674  5.6817670024 -3.9614465754
H   -4.8442371855  6.7060601123 -2.7190189208
C    2.9236245993 -3.8485034993 -0.7884926882
C    3.9071318438 -4.3065560483  0.0921024729
C    2.7770538828 -4.5244422989 -2.0012805621
C    4.7230417466 -5.3775005008 -0.2331145306
C    3.5853930772 -5.5978228354 -2.3369542995
H    5.4755811550 -5.7061016255  0.4650067087
C    4.5609394482 -6.0171980625 -1.4501667717
H    3.4485500246 -6.0910317872 -3.2853234465
H    5.1965267548 -6.8496724184 -1.7075577783
H   -5.7079245237 -3.6225007437  3.4074668546
H   -6.0143542810 -5.2198757605 -0.5562631024
H    6.3283303647  3.8520761835  2.4292223366
H    5.7246533778  5.1950156878 -1.5902152315
Cl   4.0810815562 -3.5391569163  1.6265162760
Cl   1.5776040158 -3.9864143570 -3.1213566242
Cl  -4.2753565835  3.8563573431  1.1402724480
Cl  -1.2406660011  3.5588785201 -3.3120900640
Cl   4.1488772746  2.0454176991  2.7320189352
Cl   3.4257062809  3.7290272618 -2.3282006965
Cl  -3.5274958758 -1.8179471716  3.0922418833
Cl  -3.9291786426 -3.8142370516 -1.8771025071
Cl   0.0223305351 -0.0131220720  2.4244040376
78
aligned d3map frame 33
N   -0.2613299959 -2.0311298312 -0.0906094172
N   -1.9790948831  0.2709429424 -0.0507164606
C    2.0657617334 -2.7216966872 -0.3561789876
C    0.7063308416 -2.9762253308 -0.1960252859
C    0.1182813398 -4.2872747996 -0.0683582221
H    0.6591915974 -5.2102078416 -0.1445742938
C   -1.1966505574 -4.1070859484  0.1887233350
H   -1.9540425756 -4.8479753488  0.3564728384
C   -1.4399221651 -2.6865155379  0.1544236929
C   -2.6709393324 -2.0861957209  0.2761301628
C   -2.9271567874 -0.7034903081  0.0226142096
C   -4.2051406899 -0.1663022954 -0.2375572670
H   -5.1247286830 -0.7174863684 -0.2494025620
C   -4.0240998140  1.1735358542 -0.4938123685
H   -4.7738398023  1.8932846862 -0.7583907295
C   -2.6405885735  1.4361566218 -0.3395357587
C   -3.8158904810 -2.8896665167  0.7620110176
C   -4.0036924044 -2.9867395196  2.1415422763
C   -5.0674463163 -3.6962848998  2.6733112209
C   -5.9638379881 -4.3157809407  1.8190737362
H   -6.7999017271 -4.8620944706  2.2275491169
C   -5.7986362680 -4.2402699424  0.4465972694
C   -4.7253578259 -3.5321110082 -0.0714582090
N    0.2870637361  2.0263226857 -0.1231337370
N    2.0013875826 -0.2657765438 -0.0680979260
C   -2.0473771204  2.7150499901 -0.4019784194
C   -0.6882610663  2.9625561500 -0.2069353617
C   -0.1228130279  4.2728140864  0.0043810033
H   -0.6836723466  5.1872388515  0.0112144799
C    1.1985549942  4.1019670929  0.2273922273
H    1.9329853470  4.8500328004  0.4523637299
C    1.4653904995  2.6893764976  0.1130806183
C    2.7087765032  2.0995394068  0.1738231687
C    2.9552441833  0.7062220328 -0.0126430580
C    4.2351043530  0.1485230084 -0.2201367769
H    5.1579270393  0.6948558999 -0.2352459132
C    4.0526654659 -1.2019823179 -0.4037642452
H    4.8022683701 -1.9476008830 -0.5825698541
C    2.6591207730 -1.4429398705 -0.3024773614
C    3.8792318185  2.9713222322  0.3962724530
C    4.6067594061  2.8950295586  1.5851316291
C    5.6690389241  3.7472826167  1.8374291838
C    6.0294944730  4.6860752525  0.8871102565
H    6.8502718620  5.3592978810  1.0835577090
C    5.3454030518  4.7681100064 -0.3137569874
C    4.2819660704  3.9151894096 -0.5503288228
Fe   0.0125671918  0.0010084317  0.2913542290
C   -2.9082460378  3.8864835078 -0.6484990008
C   -3.8986886804  4.2938770151  0.2479597052
C   -2.7242791491  4.6630384029 -1.7975867753
C   -4.6819517466  5.4102750737  0.0023511821
C   -3.4933093813  5.7856463424 -2.0496716863
H   -5.4371920646  5.6944210251  0.7172605201
C   -4.4759903167  6.1532342060 -1.1466635421
H   -3.3187794499  6.3612426452 -2.9443267248
H   -5.0799497415  7.0265182669 -1.3358521889
C    2.9668169979 -3.8826512761 -0.5335294201
C    3.3035394307 -4.7072274835  0.5391536071
C    3.4993413750 -4.1928881486 -1.7839527565
C    4.1322600436 -5.8052653077  0.3733437860
C    4.3293816699 -5.2867868664 -1.9657308156
H    4.3736335156 -6.4243528613  1.2221665967
C    4.6399081432 -6.0903801598 -0.8822761045
H    4.7212068610 -5.5030182651 -2.9465949377
H    5.2834309614 -6.9455696720 -1.0180708656
H   -5.1883327289 -3.7557203351  3.7430474344
H   -6.4948757008 -4.7232869440 -0.2205306749
H    6.1992365999  3.6754705724  2.7731938659
H    5.6293408304  5.4890496243 -1.0650280926
Cl   2.6765409906 -4.3292802423  2.1046358827
Cl   3.0919974604 -3.1897806987 -3.1289951315
Cl  -4.1136754109  3.4197421405  1.7231426792
Cl  -1.5172225220  4.1978045111 -2.9442359076
Cl   4.1376436413  1.7358612056  2.7757751526
Cl   3.4476179015  3.9982601368 -2.0625660686
Cl  -2.8728879194 -2.1904985498  3.1801541917
Cl  -4.4931207367 -3.4359574674 -1.7811501119
Cl   0.0244029823  0.0057073981  2.4248533814
78
aligned d3map frame 34
N   -0.2646441450 -2.0301735532 -0.0927333135
N   -1.9804453547  0.2652548959 -0.0575236471
C    2.0557236390 -2.6974075126 -0.4705454646
C    0.6962469186 -2.9619268421 -0.3157930718
C    0.1033293275 -4.2723596267 -0.3562954184
H    0.6458316066 -5.1820566101 -0.5231573990
C   -1.2223970514 -4.1128024604 -0.1264289410
H   -1.9811428642 -4.8689552883 -0.0666110273
C   -1.4562323971 -2.7002687421  0.0000133747
C   -2.7001399816 -2.1031723193  0.0709577234
C   -2.9376003970 -0.7070935289 -0.0209905745
C   -4.2175763921 -0.1412753278 -0.2276002031
H   -5.1435097461 -0.6822087551 -0.2468714724
C   -4.0272908601  1.2053798225 -0.4156732874
H   -4.7737733688  1.9480040342 -0.6215675789
C   -2.6336232592  1.4437847820 -0.2947771184
C   -3.8952021469 -2.9787036235  0.0585994603
C   -4.6220228851 -3.2380733189  1.2182318284
C   -5.7425174161 -4.0538331439  1.1979128659
C   -6.1504678302 -4.6187912245  0.0013066328
H   -7.0249100145 -5.2517564303 -0.0186517439
C   -5.4509027853 -4.3774597698 -1.1679833444
C   -4.3324835170 -3.5604829982 -1.1307234038
N    0.2964534755  2.0242908366 -0.1255793528
N    2.0024834980 -0.2584015537 -0.0760943639
C   -2.0342731415  2.7139095924 -0.4146068814
C   -0.6673560855  2.9651352987 -0.2868974071
C   -0.0774286863  4.2766242887 -0.2387413947
H   -0.6220490752  5.1987585131 -0.3205603794
C    1.2492311559  4.1068230507 -0.0286065364
H    2.0094368440  4.8583431013  0.0629662782
C    1.4837303068  2.6884611893  0.0313487422
C    2.7261947039  2.0949404063  0.1463534701
C    2.9669830464  0.7009085760  0.0423199427
C    4.2525047437  0.1168905982 -0.0542377400
H    5.1852323733  0.6392248070  0.0282872000
C    4.0606874317 -1.2221418085 -0.2874743636
H    4.8034838554 -1.9841643176 -0.4232970765
C    2.6580177782 -1.4381098173 -0.2945457154
C    3.9028377571  2.9800279501  0.2939929088
C    4.2170188121  3.5455642249  1.5283577872
C    5.3135066266  4.3800839414  1.6771897087
C    6.1086705540  4.6609307072  0.5802039755
H    6.9621857044  5.3106848604  0.6932496941
C    5.8199687369  4.1155414787 -0.6589156800
C    4.7223383554  3.2817712244 -0.7916366325
Fe   0.0125671918  0.0010084317  0.2913542290
C   -2.9064009337  3.8724369461 -0.6884683829
C   -3.7977054422  4.3708569922  0.2627497306
C   -2.8486833426  4.5230906228 -1.9222637592
C   -4.5947077796  5.4715450585 -0.0016165628
C   -3.6391698964  5.6231459358 -2.2008745056
H   -5.2650246295  5.8389610867  0.7588518308
C   -4.5115719880  6.0934756025 -1.2352828983
H   -3.5657092445  6.1028762974 -3.1631766509
H   -5.1208271745  6.9669552579 -1.4392220546
C    2.9273383767 -3.8068960123 -0.9213533124
C    3.4031326924 -4.7981341488 -0.0679429801
C    3.2809619075 -3.8810898104 -2.2690565816
C    4.1901723255 -5.8365150683 -0.5420091399
C    4.0622353061 -4.9129192601 -2.7580912848
H    4.5422641384 -6.5919714738  0.1411189143
C    4.5116641519 -5.8909918062 -1.8866192074
H    4.3103273220 -4.9481013759 -3.8062372136
H    5.1141285732 -6.7025218880 -2.2620718951
H   -6.2830056424 -4.2393220896  2.1135388234
H   -5.7665994984 -4.8112707342 -2.1027345717
H    5.5369763083  4.8014706244  2.6435308488
H    6.4327836443  4.3329066243 -1.5183717851
Cl   3.0021768482 -4.7113098659  1.6100711560
Cl   2.7045738634 -2.6578615617 -3.3424189960
Cl  -3.8591292082  3.6240921630  1.8183220669
Cl  -1.7680269982  3.9273771074 -3.1300401395
Cl   3.2131225711  3.1808660097  2.8846928417
Cl   4.3365700721  2.6081170993 -2.3346256969
Cl  -4.0922447416 -2.5280360146  2.7009586255
Cl  -3.4557590587 -3.2368802784 -2.5848500439
Cl   0.0321327121  0.0466270366  2.4247971831
78
aligned d3map frame 35
N   -0.2618622932 -2.0243795766 -0.1204262310
N   -1.9703829600  0.2694700546 -0.0765790255
C    2.0214659530 -2.6956585375  0.3754360609
C    0.6736156525 -2.9558086496  0.2579506597
C    0.0239714687 -4.2313204155  0.4330987654
H    0.5094146065 -5.1250596517  0.7640591265
C   -1.2743001749 -4.0622810876  0.0920917023
H   -2.0578836458 -4.7937324048  0.0854386918
C   -1.4517849551 -2.6656025816 -0.2176017632
C   -2.6813317455 -2.0546494661 -0.4785250188
C   -2.9002617068 -0.6637259009 -0.4518561430
C   -4.1407583968 -0.0178616718 -0.6954980563
H   -5.0373834325 -0.4955742698 -1.0397229456
C   -3.9588908981  1.3144693180 -0.4046971230
H   -4.6805503967  2.1058282524 -0.4707108830
C   -2.6071273801  1.4656019510 -0.0235837942
C   -3.8469599742 -2.9299372320 -0.7119281557
C   -4.9102691723 -2.9960217728  0.1912112739
C   -6.0027499556 -3.8167182983 -0.0397054544
C   -6.0477646517 -4.5924543327 -1.1852216727
H   -6.8961157940 -5.2341101486 -1.3676781675
C   -5.0070163689 -4.5534869008 -2.0973661947
C   -3.9198951927 -3.7295875193 -1.8546504298
N    0.2873331822  2.0184091435 -0.1532060496
N    1.9932975515 -0.2621377258 -0.0940534743
C   -1.9944954921  2.7157569788  0.3198810737
C   -0.6421982008  2.9597329860  0.2212654124
C    0.0177229371  4.2324849493  0.3810486719
H   -0.4555998190  5.1345225055  0.7168796280
C    1.3079997202  4.0534832757  0.0145179900
H    2.0971722241  4.7806271746 -0.0080822331
C    1.4726495045  2.6546907453 -0.2909145057
C    2.6965840474  2.0434094027 -0.5925230542
C    2.9187499662  0.6558855805 -0.5203617590
C    4.1536352943 -0.0030690733 -0.7610478056
H    5.0419449041  0.4604639784 -1.1431941836
C    3.9756801422 -1.3206606992 -0.4116702151
H    4.6947733938 -2.1155903136 -0.4494952721
C    2.6284095684 -1.4543918495 -0.0083375768
C    3.8204275369  2.9267988379 -0.9533415478
C    4.9756681751  3.0355374555 -0.1752291965
C    6.0142270646  3.8787407232 -0.5387164070
C    5.9084199771  4.6450724029 -1.6870771942
H    6.7172148599  5.3029586165 -1.9667053888
C    4.7727761459  4.5701375410 -2.4748938185
C    3.7467125565  3.7160550070 -2.1067708042
Fe   0.0125671918  0.0010084317  0.2913542290
C   -2.9079359826  3.7780971724  0.7745308885
C   -3.6165155861  3.5991317472  1.9673491663
C   -3.1240800190  4.9593310967  0.0644830022
C   -4.4808755839  4.5680138600  2.4470475601
C   -3.9838552885  5.9378687280  0.5356316650
H   -5.0063739105  4.3990420656  3.3722811091
C   -4.6545172211  5.7402674678  1.7300804111
H   -4.1275576500  6.8411816180 -0.0353347939
H   -5.3204851587  6.5015797394  2.0998694947
C    2.9267075443 -3.7056138617  0.9508425020
C    3.4999758493 -3.4408113335  2.1995381516
C    3.2444778201 -4.9141301059  0.3342710514
C    4.3300261952 -4.3582740942  2.8228646467
C    4.0758160387 -5.8403788942  0.9471171212
H    4.7471309505 -4.1288244223  3.7914935610
C    4.6082311691 -5.5615460237  2.1946770691
H    4.3001195917 -6.7684411706  0.4446998247
H    5.2470917042 -6.2844850126  2.6808040889
H   -6.8051118688 -3.8444030391  0.6801802135
H   -5.0337862423 -5.1507468074 -2.9941401381
H    6.8931776354  3.9322413599  0.0824704141
H    4.6785660592  5.1641668324 -3.3709015128
Cl   3.1253944671 -1.9448033178  2.9833799035
Cl   2.6155320797 -5.2464871104 -1.2416483068
Cl  -3.3799425746  2.1387362063  2.8655758577
Cl  -2.3445581478  5.1844938559 -1.4641615424
Cl   5.0977721273  2.1395632563  1.3002217055
Cl   2.3497007820  3.5973473346 -3.1152330536
Cl  -4.8403432064 -2.0640123847  1.6445032338
Cl  -2.6296717184 -3.6676157104 -2.9997678697
Cl   0.0161906110  0.0207425091  2.4244666785
78
aligned d3map frame 36
N   -0.2578318974 -2.0264179721 -0.1156213810
N   -1.9818616896  0.2650377699 -0.0383133618
C    2.0663371144 -2.7189626917 -0.4100084885
C    0.6992310452 -2.9692558144 -0.2917256058
C    0.0956229199 -4.2782758171 -0.2717098503
H    0.6171147118 -5.2000343665 -0.4382195507
C   -1.2152883400 -4.1036093154  0.0136630272
H   -1.9793893504 -4.8483159830  0.1273360649
C   -1.4413581114 -2.6839798529  0.0953746253
C   -2.6707648647 -2.0872143532  0.2760559298
C   -2.9342945888 -0.6996217305  0.0845776442
C   -4.2185948662 -0.1443974789 -0.1003786450
H   -5.1439014933 -0.6825411698 -0.0579566714
C   -4.0359348066  1.1908617546 -0.3732600350
H   -4.7887135684  1.9232813258 -0.5903939839
C   -2.6412774302  1.4346904129 -0.3083865974
C   -3.7861997302 -2.9477859499  0.7302762755
C   -3.8717590222 -3.2522735182  2.0893930078
C   -4.8824674769 -4.0621779026  2.5827506087
C   -5.8229253810 -4.5822930216  1.7102991548
H   -6.6109766448 -5.2165119032  2.0863388524
C   -5.7588424152 -4.2998641223  0.3563897705
C   -4.7435160302 -3.4869759792 -0.1238256571
N    0.2918846487  2.0202363405 -0.1463336766
N    2.0014413127 -0.2692361429 -0.0570529397
C   -2.0365166245  2.6978910339 -0.4633651644
C   -0.6747990256  2.9555527040 -0.3103139514
C   -0.1012444649  4.2724472633 -0.1948171492
H   -0.6512106100  5.1894690604 -0.2866186338
C    1.2106248394  4.1077575392  0.0918814118
H    1.9480062199  4.8643772012  0.2775674056
C    1.4672064730  2.6893738121  0.0885074957
C    2.7000121552  2.0929126829  0.2363991517
C    2.9501239328  0.6979536278  0.0651547716
C    4.2374399175  0.1380001800 -0.0806477323
H    5.1623063153  0.6781299098 -0.0431622793
C    4.0614123189 -1.2077202802 -0.2982528649
H    4.8196460753 -1.9505674598 -0.4499022725
C    2.6635172165 -1.4457378619 -0.2807450382
C    3.8674526500  2.9301162390  0.5808406035
C    4.4192666674  2.8353391719  1.8601188146
C    5.5082172418  3.6048069092  2.2341533498
C    6.0675501314  4.4810106305  1.3181128916
H    6.9154101969  5.0861242040  1.6021073460
C    5.5485546078  4.5909140700  0.0395704656
C    4.4544687317  3.8166857617 -0.3199586595
Fe   0.0125671918  0.0010084317  0.2913542290
C   -2.9086949723  3.8494877135 -0.7828896248
C   -3.7612887601  4.4289106228  0.1551295275
C   -2.8836020423  4.4060160665 -2.0630580034
C   -4.5606281736  5.5145345899 -0.1676871435
C   -3.6801403668  5.4861279001 -2.4031229009
H   -5.2056650561  5.9440964306  0.5827274665
C   -4.5186699515  6.0372634122 -1.4487220925
H   -3.6412305346  5.8838610235 -3.4040280609
H   -5.1398093133  6.8816543840 -1.7049546689
C    2.9654452972 -3.8734005108 -0.6101484130
C    3.1711604231 -4.8175511901  0.3983965883
C    3.6409147391 -4.0631178398 -1.8165985703
C    3.9956437000 -5.9122083532  0.2067719470
C    4.4816624669 -5.1458762661 -2.0184352467
H    4.1232124348 -6.6274787529  1.0028606667
C    4.6516772109 -6.0708701759 -1.0036647812
H    4.9906185202 -5.2564393072 -2.9638503062
H    5.2952342425 -6.9232572665 -1.1558525429
H   -4.9219724715 -4.2801503300  3.6376803767
H   -6.4831976920 -4.7069314483 -0.3316210922
H    5.9037083031  3.5156013395  3.2317272207
H    5.9855034434  5.2680469722 -0.6774545122
Cl   2.3802866998 -4.5965493386  1.9241666551
Cl   3.3895550621 -2.9313842595 -3.0984621721
Cl  -3.7923808082  3.7986321652  1.7659876280
Cl  -1.8384798792  3.7073475814 -3.2484457276
Cl   3.6935361372  1.7514424434  2.9909817607
Cl   3.8184554402  3.9294465507 -1.9228820446
Cl  -2.6881904437 -2.5886422567  3.1611552531
Cl  -4.6330485074 -3.1470738185 -1.8137803594
Cl   0.0215787377  0.0043900284  2.4249240424
78
aligned d3map frame 37
N   -0.2593181300 -2.0228800027 -0.1283980193
N   -1.9798338194  0.2758588507 -0.0268479977
C    2.0392962272 -2.7185364151  0.2938328766
C    0.7002243222 -2.9785400746  0.0874129303
C    0.0928614454 -4.2829356038  0.0225670007
H    0.6164030468 -5.2090098073  0.1554007704
C   -1.2147657029 -4.0952730412 -0.2722669822
H   -1.9702207012 -4.8400656514 -0.4300026375
C   -1.4385637091 -2.6717444678 -0.3024660094
C   -2.6900098286 -2.0635689002 -0.3886558738
C   -2.9350891104 -0.6861594657 -0.2123067061
C   -4.2235057845 -0.1004895770 -0.1254071045
H   -5.1555587248 -0.6218310998 -0.2250619831
C   -4.0369838846  1.2386526909  0.1188062222
H   -4.7892138789  1.9923585300  0.2460841701
C   -2.6394406392  1.4532088092  0.1555788396
C   -3.8670756108 -2.9305344052 -0.6121927135
C   -4.3725435714 -3.7568027048  0.3892341379
C   -5.4726785624 -4.5700484878  0.1694207549
C   -6.0903358847 -4.5622062958 -1.0662098224
H   -6.9480447473 -5.1900859574 -1.2368566061
C   -5.6213905331 -3.7421156490 -2.0778304887
C   -4.5202511077 -2.9364697279 -1.8432952618
N    0.2840645609  2.0175511987 -0.1618739265
N    2.0034695840 -0.2640025592 -0.0441355729
C   -2.0190889230  2.7272660983  0.2576388567
C   -0.6789241372  2.9730373455  0.0372047471
C   -0.0784565857  4.2765722787 -0.0543249179
H   -0.6081116635  5.2026469203  0.0598247039
C    1.2349472143  4.0885614660 -0.3226515303
H    1.9951912917  4.8301129667 -0.4635120706
C    1.4574378568  2.6662384577 -0.3610327906
C    2.7126259260  2.0632163177 -0.4691761616
C    2.9549215505  0.6827344240 -0.3094684494
C    4.2315287169  0.0684060908 -0.3630452664
H    5.1572032838  0.5609581094 -0.5845101192
C    4.0440076388 -1.2652385470 -0.0841906762
H    4.7867299173 -2.0382966976 -0.0381155869
C    2.6571390893 -1.4495282964  0.0987327815
C    3.8682719710  2.9543372609 -0.6873373131
C    4.8151831871  3.1884718723  0.3127427065
C    5.8658997327  4.0674091836  0.1210872505
C    5.9854446080  4.7347067162 -1.0848657693
H    6.7953654363  5.4289479937 -1.2362105237
C    5.0681032486  4.5224022773 -2.0989715162
C    4.0250743668  3.6371817278 -1.8940821055
Fe   0.0125671918  0.0010084317  0.2913542290
C   -2.8867376106  3.8834954129  0.5756682605
C   -3.0808529679  4.2537553109  1.9052369870
C   -3.5063269581  4.6399054087 -0.4140815606
C   -3.8580978723  5.3486981615  2.2398522007
C   -4.2885231696  5.7381369160 -0.0959546744
H   -3.9835623140  5.6223865538  3.2766375161
C   -4.4562016473  6.0872670418  1.2327713034
H   -4.7562100986  6.3095326159 -0.8802188048
H   -5.0569424976  6.9469782197  1.4821936779
C    2.9195167044 -3.7960681055  0.7898624470
C    3.3115892914 -3.7530799541  2.1305569972
C    3.3869164120 -4.8489727855  0.0088828081
C    4.1235970740 -4.7316400372  2.6760880278
C    4.2039497177 -5.8347873127  0.5400071855
H    4.3997892956 -4.6733647444  3.7158952634
C    4.5658409013 -5.7713641730  1.8743698928
H    4.5502619858 -6.6388364078 -0.0898615562
H    5.1994040025 -6.5334565641  2.2971876014
H   -5.8403350303 -5.1955429093  0.9659433142
H   -6.0970961102 -3.7167376805 -3.0395234656
H    6.5725671824  4.2339620789  0.9170560643
H    5.1542974007  5.0356115277 -3.0418198782
Cl   2.7315719436 -2.4513932971  3.1148772790
Cl   2.9531427615 -4.9041055490 -1.6661300958
Cl  -2.3133707316  3.3107609424  3.1344556298
Cl  -3.2752190039  4.1891736802 -2.0640552814
Cl   4.6366792496  2.3975982531  1.8356400344
Cl   2.8871793708  3.3589840507 -3.1624037689
Cl  -3.6213312631 -3.7322321556  1.9445262736
Cl  -3.9235117837 -1.9186535020 -3.1051661526
Cl   0.0036960304 -0.0211659057  2.4225488061
78
aligned d3map frame 38
N   -0.2793680939 -2.0268620176 -0.0760426942
N   -1.9742272928  0.2611019526 -0.0868705686
C    2.0571587353 -2.6897137543 -0.4406896772
C    0.6846914394 -2.9655046551 -0.3070556813
C    0.1002168467 -4.2596871363 -0.2891834959
H    0.6256944307 -5.1815294953 -0.4461409016
C   -1.2358455692 -4.0874849938 -0.0167324595
H   -1.9868980385 -4.8456200753  0.0898878478
C   -1.4501092937 -2.6915597232  0.0927591019
C   -2.7075527445 -2.0560214822  0.2831070538
C   -2.9292145846 -0.6990328188  0.1421034550
C   -4.2322414437 -0.0881977357  0.1160869875
H   -5.1557231975 -0.6152992074  0.2653181983
C   -4.0490607081  1.2243294375 -0.1590727192
H   -4.7936014786  1.9893865023 -0.2627768240
C   -2.6300209157  1.4387815098 -0.2717696343
C   -3.8754729573 -2.9086223587  0.5994432782
C   -4.3693942447 -2.9533668213  1.9036255704
C   -5.4867442105 -3.7081111792  2.2239748236
C   -6.1226651778 -4.4383218110  1.2344066558
H   -6.9984041460 -5.0215748523  1.4770957703
C   -5.6478051266 -4.4223453334 -0.0659287591
C   -4.5306644948 -3.6607451201 -0.3735644972
N    0.2885327545  2.0229090349 -0.1089263629
N    1.9997340676 -0.2537205769 -0.1018579862
C   -2.0471858435  2.6915912943 -0.4658705634
C   -0.6649870455  2.9555575869 -0.4032714382
C   -0.0513476727  4.2258314028 -0.5553964483
H   -0.5515520383  5.1358491227 -0.8237287292
C    1.2884398687  4.0510850850 -0.2992524860
H    2.0579144358  4.7981038323 -0.3150930915
C    1.4724181775  2.6766185555 -0.0232671334
C    2.7321326896  2.0574072690  0.2345880674
C    2.9633729630  0.6995170975  0.1234033053
C    4.2594728399  0.0721312279  0.1345247783
H    5.1856082590  0.5791214272  0.3222296931
C    4.0671130355 -1.2336439612 -0.1673185750
H    4.8050559711 -2.0035008927 -0.2769549472
C    2.6470558638 -1.4386936077 -0.2792658247
C    3.8171920621  2.9737212253  0.6346441250
C    3.7429872592  3.5776150404  1.8943731461
C    4.7166454223  4.4660162165  2.3297583146
C    5.7839478546  4.7632768267  1.5001367863
H    6.5447065043  5.4527558300  1.8320522596
C    5.8809355254  4.1844234101  0.2444660783
C    4.8987245751  3.3027426771 -0.1795878635
Fe   0.0125671918  0.0010084317  0.2913542290
C   -2.9403687100  3.8490301433 -0.6728210453
C   -3.0753890760  4.8402116568  0.3024573811
C   -3.6671274068  4.0011521556 -1.8538851880
C   -3.8852732808  5.9466128068  0.0993884522
C   -4.4870835855  5.0984659246 -2.0658959673
H   -3.9640429195  6.6929395550  0.8730475313
C   -4.5872703174  6.0719009691 -1.0869370485
H   -5.0329824659  5.1835906937 -2.9911983165
H   -5.2215007671  6.9273817570 -1.2474768975
C    2.9397740461 -3.8431978349 -0.7419436999
C    3.5498834278 -4.5891378922  0.2636166009
C    3.1601900020 -4.2206764029 -2.0648986994
C    4.3564262482 -5.6761706717 -0.0378090515
C    3.9616876427 -5.3042418896 -2.3823981905
H    4.8179227479 -6.2377708034  0.7586060288
C    4.5561643994 -6.0276896345 -1.3624198342
H    4.1156400073 -5.5746250680 -3.4150010607
H    5.1815079340 -6.8739229003 -1.6028742177
H   -5.8469577947 -3.7193078554  3.2390570077
H   -6.1400235072 -4.9858438826 -0.8425721651
H    4.6297481415  4.9135419927  3.3083865338
H    6.7062355153  4.4216858237 -0.4097443940
Cl   3.2843079016 -4.1304714649  1.9066694417
Cl   2.4059835467 -3.2993263133 -3.3189326540
Cl  -2.2415766655  4.6545483168  1.8018762239
Cl  -3.5204110718  2.7976778934 -3.0851840104
Cl   2.4237752902  3.1570853620  2.9337067916
Cl   5.0054176187  2.6143105901 -1.7644753373
Cl  -3.5617729569 -2.0331950060  3.1241806600
Cl  -3.9466859438 -3.6025836915 -1.9976328254
Cl   0.0219664696  0.0188755021  2.4245892700
78
aligned d3map frame 39
N   -0.2705868108 -2.0325366764 -0.0786262098
N   -1.9795841067  0.2581989417 -0.0664837504
C    2.0484390276 -2.7080901874 -0.4377446360
C    0.6989090944 -2.9721356687 -0.2131816008
C    0.1242665634 -4.2868551925 -0.1132236886
H    0.6768790770 -5.2042528294 -0.1686563026
C   -1.2016653290 -4.1207230531  0.1013595476
H   -1.9454580799 -4.8770209232  0.2605496081
C   -1.4576869589 -2.7038924524  0.0619691309
C   -2.7055030584 -2.1158654524  0.0322808539
C   -2.9296750286 -0.7170795018 -0.1316444604
C   -4.1879971734 -0.1570805479 -0.4467283802
H   -5.1003978939 -0.7036471128 -0.5830820106
C   -3.9977793666  1.1974837449 -0.5633673464
H   -4.7276743168  1.9427786057 -0.8105577682
C   -2.6239196731  1.4424693429 -0.3103123683
C   -3.9037512616 -2.9768920462  0.0499254845
C   -4.8184773376 -2.9080655698  1.1040435737
C   -5.9632660503 -3.6870393568  1.1224527739
C   -6.2109565785 -4.5595055557  0.0766168702
H   -7.1013812813 -5.1680864554  0.0838953753
C   -5.3253832549 -4.6509148349 -0.9831246516
C   -4.1874790078 -3.8608966834 -0.9932847769
N    0.2943860677  2.0289540394 -0.1098386715
N    2.0012059648 -0.2621819922 -0.0837084297
C   -2.0384168598  2.7258413106 -0.3228382010
C   -0.6727312431  2.9762520919 -0.1956220905
C   -0.0825258800  4.2870254356 -0.0969576423
H   -0.6295810358  5.2089026132 -0.1289033351
C    1.2496312431  4.1096823787  0.0550124965
H    2.0133762041  4.8556196070  0.1610699008
C    1.4879212728  2.6893571998  0.0386712339
C    2.7278783763  2.0941758853  0.1032038477
C    2.9650652390  0.6991979375 -0.0285666765
C    4.2450326978  0.1260196080 -0.2124914676
H    5.1733183796  0.6631527835 -0.2013306906
C    4.0476525181 -1.2165431584 -0.4206538027
H    4.7864207133 -1.9738016711 -0.5971446470
C    2.6498017696 -1.4418725974 -0.3318735092
C    3.9190081358  2.9643201919  0.2454059059
C    4.4287475992  3.2635007516  1.5066366865
C    5.5449265042  4.0724722959  1.6553546709
C    6.1647255802  4.5906501406  0.5320664243
H    7.0349457898  5.2183930854  0.6421394515
C    5.6781712304  4.3104115159 -0.7336029502
C    4.5610695576  3.5022644245 -0.8671202489
Fe   0.0125671918  0.0010084317  0.2913542290
C   -2.9506011908  3.8740460454 -0.4784065353
C   -3.9025322276  4.1821740151  0.4979024818
C   -2.9161572997  4.6802303323 -1.6176809896
C   -4.7914599260  5.2312769508  0.3376475706
C   -3.7945093165  5.7377413669 -1.7879615774
H   -5.5159420579  5.4352261269  1.1089899761
C   -4.7356654196  6.0048381692 -0.8093224850
H   -3.7381006933  6.3330187337 -2.6837228460
H   -5.4298547634  6.8187210026 -0.9394208993
C    2.8866812879 -3.8225485790 -0.9358741596
C    3.4545499128 -4.7925860324 -0.1156880347
C    3.0953840065 -3.9281518236 -2.3117691856
C    4.1954887902 -5.8388578292 -0.6450397199
C    3.8322749130 -4.9661224051 -2.8552320911
H    4.6199924831 -6.5778946162  0.0151135063
C    4.3774636660 -5.9215325066 -2.0142596324
H    3.9665066764 -5.0200152240 -3.9237882067
H    4.9472173597 -6.7359233290 -2.4331462649
H   -6.6493889431 -3.6058848322  1.9502263468
H   -5.5144027236 -5.3221403308 -1.8051178129
H    5.9160336313  4.2879007876  2.6443301936
H    6.1547925830  4.7109179783 -1.6137699600
Cl   3.2247372786 -4.6700244602  1.5929114431
Cl   2.3911847160 -2.7370580078 -3.3475672650
Cl  -3.9467877279  3.2429952674  1.9495535424
Cl  -1.7737796315  4.3223585028 -2.8662122900
Cl   3.6342370913  2.6064975488  2.8915110905
Cl   3.9371247113  3.1383611340 -2.4357101617
Cl  -4.4913694158 -1.8351665686  2.4180921337
Cl  -3.1261867516 -3.9410007157 -2.3539651593
Cl   0.0323834162  0.0350934502  2.4244600848
78
aligned d3map frame 40
N   -0.2638438387 -2.0321712248 -0.0916429735
N   -1.9906395810  0.2646478485  0.0054914121
C    2.0683180330 -2.7388006674  0.1033865398
C    0.7078755951 -2.9858302045 -0.0453396450
C    0.1113779207 -4.2924165021 -0.0621886349
H    0.6562116794 -5.2162420165 -0.0535047413
C   -1.2306349509 -4.1112432183 -0.0870408646
H   -2.0036277230 -4.8552213128 -0.1052435239
C   -1.4600009407 -2.6916848771 -0.0728561651
C   -2.7059208991 -2.0993695995  0.0515663439
C   -2.9456774419 -0.7065214802  0.0939142264
C   -4.2284754426 -0.1205111432  0.2011888617
H   -5.1514316974 -0.6582711175  0.2924101293
C   -4.0476359562  1.2403784334  0.1655131861
H   -4.7994077060  2.0034474706  0.2336306845
C   -2.6551925674  1.4620634424  0.0288686607
C   -3.8626132509 -3.0074197756  0.2384047376
C   -4.2776703826 -3.3433956549  1.5253606227
C   -5.3078384335 -4.2457635469  1.7358566480
C   -5.9447428696 -4.8151230676  0.6469377320
H   -6.7438971121 -5.5227888094  0.8024159788
C   -5.5653213077 -4.4860845315 -0.6437216427
C   -4.5255611775 -3.5912991866 -0.8380072327
N    0.2911569474  2.0272208713 -0.1223868601
N    2.0111548438 -0.2684695591 -0.0120938218
C   -2.0552662915  2.7330821683 -0.0819947990
C   -0.6873245459  2.9749302685 -0.1688361181
C   -0.0941695821  4.2764699644 -0.2932554010
H   -0.6435035188  5.1953316700 -0.3701488293
C    1.2493320538  4.0987625432 -0.2854874317
H    2.0163660649  4.8448750661 -0.3549326141
C    1.4858963137  2.6879255233 -0.1612413194
C    2.7375955910  2.0966457353 -0.0718200156
C    2.9713830918  0.7006821428  0.0071693457
C    4.2530846298  0.1139350571  0.1334011504
H    5.1814229884  0.6434620725  0.1892776949
C    4.0628587474 -1.2450544041  0.1877309158
H    4.8048133568 -2.0141745842  0.2735745166
C    2.6680454616 -1.4631526899  0.0953468398
C    3.9236545024  2.9703474854  0.0437551475
C    4.1589932642  3.6733473414  1.2287027319
C    5.3064566868  4.4327899551  1.3997332758
C    6.2340347232  4.5116520408  0.3753416513
H    7.1331068300  5.0949863956  0.5073440664
C    6.0189345843  3.8404318199 -0.8164757335
C    4.8729699710  3.0775776401 -0.9718861570
Fe   0.0125671918  0.0010084317  0.2913542290
C   -2.9626069522  3.9005554737 -0.0683828375
C   -3.0492818453  4.7279483515  1.0520103235
C   -3.7742907640  4.2003560385 -1.1607109770
C   -3.9145445933  5.8079636598  1.0856284070
C   -4.6435861955  5.2784046117 -1.1435182786
H   -3.9636932147  6.4260854456  1.9672084213
C   -4.7108706869  6.0755706366 -0.0148103142
H   -5.2575276881  5.4827947831 -2.0051927495
H   -5.3893566444  6.9135398663  0.0079033713
C    2.9319367281 -3.8874707804  0.4563443902
C    3.2564865326 -4.0834717080  1.7994750688
C    3.4109039272 -4.8044916529 -0.4746403201
C    4.0232032865 -5.1633157956  2.2052288733
C    4.1840471987 -5.8861732369 -0.0836616680
H    4.2458282468 -5.2942712863  3.2516639514
C    4.4828860798 -6.0612591677  1.2569446744
H    4.5411718293 -6.5836746226 -0.8248424259
H    5.0765044198 -6.9082384101  1.5645083325
H   -5.5943827296 -4.5052392663  2.7435228355
H   -6.0631451719 -4.9202959525 -1.4966505088
H    5.4712367962  4.9482359938  2.3387544633
H    6.7380462088  3.8941836563 -1.6181462173
Cl   2.6510844739 -2.9587468231  2.9664179446
Cl   3.0195765794 -4.5715862662 -2.1423018798
Cl  -2.0682996247  4.3652374185  2.4281667560
Cl  -3.6704034533  3.2104498559 -2.5720112925
Cl   3.0248245531  3.5150447027  2.5341394818
Cl   4.6042684653  2.2347912095 -2.4574583811
Cl  -3.4615861231 -2.6219542266  2.8690853821
Cl  -4.0168064217 -3.1815888183 -2.4375317478
Cl   0.0235930156  0.0268587090  2.4236558580
78
aligned d3map frame 41
N   -0.2555355613 -2.0335576850 -0.0839660632
N   -1.9808516124  0.2752356670 -0.0574177772
C    2.0776852412 -2.7528212995 -0.0137705695
C    0.7182393978 -2.9927329993 -0.0443371704
C    0.1156690922 -4.2964103409 -0.1640441436
H    0.6585766593 -5.2216410097 -0.1516235896
C   -1.2152395466 -4.1035503058 -0.3036568858
H   -1.9880197824 -4.8391245608 -0.4220445703
C   -1.4394995874 -2.6815097843 -0.2519366416
C   -2.6824196195 -2.0770246313 -0.3745799182
C   -2.9283847217 -0.6946622946 -0.2604491174
C   -4.2133021957 -0.1067827566 -0.3531144536
H   -5.1311105928 -0.6399609789 -0.5094044166
C   -4.0399952393  1.2480064201 -0.2045069241
H   -4.7895739753  2.0143948497 -0.2255380636
C   -2.6509086123  1.4626023294 -0.0344597568
C   -3.8258737805 -2.9433106396 -0.7500157345
C   -4.6542453804 -3.5502087519  0.1892784938
C   -5.7027901548 -4.3681114778 -0.2011365192
C   -5.9326255559 -4.5851601159 -1.5487907406
H   -6.7473218338 -5.2221197784 -1.8573491103
C   -5.1264196142 -3.9937308690 -2.5056527761
C   -4.0830426519 -3.1801654311 -2.0992788020
N    0.2766156800  2.0311494947 -0.1151139766
N    2.0017555968 -0.2793774451 -0.0737421334
C   -2.0544336426  2.7504293856  0.0131028493
C   -0.6945699174  2.9879680383 -0.0632761071
C   -0.0900109952  4.2938412876 -0.1578005250
H   -0.6282298315  5.2197649510 -0.1297095052
C    1.2402768395  4.1019027157 -0.3069646934
H    2.0102600279  4.8400457537 -0.4238120506
C    1.4652226097  2.6821019472 -0.2628154422
C    2.7089614330  2.0769120197 -0.3532698052
C    2.9508970018  0.6935218105 -0.2326018080
C    4.2411402702  0.1114973419 -0.2849899979
H    5.1597965898  0.6498142101 -0.3918972800
C    4.0680467883 -1.2446298445 -0.1613266350
H    4.8223995185 -2.0065183988 -0.1512969611
C    2.6745347615 -1.4659391357 -0.0526470648
C    3.8718087648  2.9347182219 -0.6817374514
C    4.5962056542  3.6243032749  0.2869998752
C    5.6776684992  4.4215698246 -0.0566512055
C    6.0430527707  4.5368570221 -1.3871455311
H    6.8825565699  5.1574559421 -1.6603276282
C    5.3397908709  3.8648144553 -2.3726870867
C    4.2638334212  3.0708718960 -2.0126262727
Fe   0.0125671918  0.0010084317  0.2913542290
C   -2.9647807198  3.9144843900  0.0362026686
C   -3.6482083080  4.2666104817  1.1990954970
C   -3.1653058866  4.6991812798 -1.1001970918
C   -4.4867445853  5.3690547858  1.2372192235
C   -4.0019380904  5.8014766134 -1.0781340053
H   -4.9952487678  5.6229179836  2.1536314855
C   -4.6566281995  6.1334130369  0.0960964626
H   -4.1365868995  6.3880508353 -1.9724955820
H   -5.3055183791  6.9951670729  0.1193177977
C    2.9845969478 -3.9194319593 -0.0843018576
C    3.2654952576 -4.6947277376  1.0387074048
C    3.5663669733 -4.2915023260 -1.2957803820
C    4.1024832027 -5.7967631819  0.9602021749
C    4.3996423741 -5.3935170151 -1.3908126327
H    4.3059179920 -6.3735091009  1.8470198471
C    4.6650027980 -6.1407928687 -0.2566439932
H    4.8277741331 -5.6593925582 -2.3442516178
H    5.3128628712 -7.0005452237 -0.3219982070
H   -6.3275166490 -4.8301303395  0.5466785150
H   -5.2971525910 -4.1554441107 -3.5576353422
H    6.2227018955  4.9424762156  0.7145985640
H    5.6148654884  3.9510674500 -3.4119576381
Cl   2.5511154793 -4.2535847743  2.5481613767
Cl   3.2107135031 -3.3599921970 -2.7052778815
Cl  -3.4122724784  3.3107702956  2.6190567735
Cl  -2.3599397757  4.2630172295 -2.5670341060
Cl   4.1212571528  3.4658580905  1.9408477823
Cl   3.3635793223  2.2280125812 -3.2246857265
Cl  -4.3451989487 -3.2728797480  1.8641380513
Cl  -3.0604032917 -2.4383255433 -3.2764897276
Cl   0.0193735593  0.0403152953  2.4249458960
78
aligned d3map frame 42
N   -0.2602957820 -2.0351466264 -0.0798461845
N   -1.9816955320  0.2758167241 -0.0504506792
C    2.0773290485 -2.7468574146 -0.1259844401
C    0.7162461600 -2.9891594827 -0.1219329129
C    0.1181557641 -4.2878960000 -0.2869370522
H    0.6626119434 -5.2093879234 -0.3455504534
C   -1.2181661085 -4.0967662378 -0.3709427035
H   -1.9868890602 -4.8336125074 -0.5011983267
C   -1.4455574691 -2.6824985471 -0.2467896299
C   -2.6896707193 -2.0757767726 -0.3635079869
C   -2.9310646719 -0.6930177048 -0.2474429205
C   -4.2139692541 -0.1051059806 -0.3509697711
H   -5.1334098731 -0.6379677819 -0.4973191604
C   -4.0375857848  1.2507657244 -0.2162813789
H   -4.7825708052  2.0201753989 -0.2560762457
C   -2.6511266184  1.4634297514 -0.0416094759
C   -3.8276581301 -2.9338679931 -0.7659094798
C   -4.5216698231 -3.7366002085  0.1360865948
C   -5.5503012949 -4.5671712340 -0.2827358781
C   -5.8947906496 -4.5996042271 -1.6239415878
H   -6.6945866651 -5.2474697925 -1.9581276803
C   -5.2278716105 -3.8069654870 -2.5421889399
C   -4.2049398404 -2.9815668524 -2.1073513931
N    0.2790806857  2.0322081591 -0.1122626335
N    2.0045759317 -0.2722618266 -0.0665740191
C   -2.0542873343  2.7507549728  0.0255691239
C   -0.6942526969  2.9898263183 -0.0338240238
C   -0.0890052040  4.2954794518 -0.0463659290
H   -0.6242147365  5.2231582951  0.0194418565
C    1.2471395062  4.1086975281 -0.1617841546
H    2.0205470664  4.8537235205 -0.1987688712
C    1.4699443125  2.6902702872 -0.1901825168
C    2.7205692126  2.0883148291 -0.2522884913
C    2.9605109634  0.7030013071 -0.1700879653
C    4.2497618731  0.1171120588 -0.2330504003
H    5.1751033662  0.6515285189 -0.3161452246
C    4.0679734392 -1.2421351467 -0.1735067740
H    4.8195909143 -2.0071801570 -0.1858333316
C    2.6728757873 -1.4613623214 -0.0936671397
C    3.8952221938  2.9579842267 -0.4898208648
C    4.8044384273  3.2746071076  0.5175595648
C    5.9183810690  4.0581618749  0.2611032699
C    6.1346863175  4.5367512286 -1.0197403093
H    7.0048162236  5.1398449666 -1.2261521922
C    5.2450747844  4.2455961501 -2.0392885933
C    4.1346781734  3.4641421606 -1.7663282669
Fe   0.0125671918  0.0010084317  0.2913542290
C   -2.9610722068  3.9158837681  0.0846218013
C   -3.6501504650  4.2298952977  1.2550336312
C   -3.1472989524  4.7467083659 -1.0213031595
C   -4.4743622580  5.3412040620  1.3330766154
C   -3.9705904390  5.8584114820 -0.9598471598
H   -4.9834315932  5.5621637463  2.2568828281
C   -4.6259019063  6.1541170871  0.2229761097
H   -4.0939149443  6.4815059764 -1.8309547064
H   -5.2610955810  7.0240515317  0.2817789166
C    2.9697113743 -3.9060117998 -0.3451891102
C    3.2583816382 -4.8212070884  0.6645215280
C    3.5093101908 -4.1395655681 -1.6103097798
C    4.0607982362 -5.9262943974  0.4261794515
C    4.3059041151 -5.2420410608 -1.8655384004
H    4.2686471660 -6.6180356676  1.2268043821
C    4.5793185681 -6.1326026137 -0.8401853228
H    4.6928756763 -5.3994026056 -2.8602181136
H    5.1975803398 -6.9946387942 -1.0335950824
H   -6.0676910868 -5.1778998919  0.4384634585
H   -5.4897130228 -3.8276763559 -3.5881394166
H    6.6043622524  4.2839974332  1.0612185696
H    5.4055598751  4.6115853968 -3.0403514573
Cl   2.5941135283 -4.5566109364  2.2385815766
Cl   3.1365810685 -3.0358454990 -2.8873234585
Cl  -3.4387015388  3.2128008061  2.6369256713
Cl  -2.3441352977  4.3598383501 -2.5010821014
Cl   4.5153858310  2.6747483834  2.1116191387
Cl   3.0260911281  3.0774260708 -3.0345286654
Cl  -4.0780774743 -3.6749916491  1.8050726070
Cl  -3.3471655661 -2.0030352991 -3.2426448379
Cl   0.0426404570  0.0468968124  2.4244842563
78
aligned d3map frame 43
N   -0.2706901941 -2.0183494839 -0.1387221286
N   -1.9760997078  0.2631935201 -0.0634813566
C    2.0427838685 -2.6749977768 -0.5908837967
C    0.6865120273 -2.9453394969 -0.3634217791
C    0.1230562171 -4.2628550655 -0.2398121674
H    0.6667382218 -5.1786069516 -0.3697305862
C   -1.1770502279 -4.1050086757  0.1119630923
H   -1.9030141253 -4.8687213839  0.3121387594
C   -1.4337221819 -2.6914342716  0.1392067935
C   -2.6625702239 -2.0873726156  0.3138232181
C   -2.9188703996 -0.7074991964  0.0768665845
C   -4.2030410337 -0.1828678988 -0.2032975856
H   -5.1203469701 -0.7378237492 -0.1679088924
C   -4.0233091288  1.1292443432 -0.5628707964
H   -4.7727141170  1.8297722535 -0.8749399194
C   -2.6330886965  1.4033542124 -0.4441094673
C   -3.8202812932 -2.9257612760  0.6913658489
C   -4.2927799545 -2.8825544754  2.0036738536
C   -5.3659651708 -3.6618129630  2.4054932591
C   -5.9859487937 -4.4895128611  1.4852823950
H   -6.8229369385 -5.0991628938  1.7920041111
C   -5.5446823993 -4.5435747592  0.1726861380
C   -4.4659857427 -3.7649324337 -0.2140706402
N    0.2870138235  2.0137604560 -0.1708002786
N    1.9989076696 -0.2597608365 -0.0794145127
C   -2.0298431564  2.6582902906 -0.6472396434
C   -0.6756413211  2.9324784837 -0.4058386250
C   -0.1203825279  4.2541182416 -0.2950289550
H   -0.6703896020  5.1643505446 -0.4222378990
C    1.1863302637  4.1075964351  0.0377869567
H    1.9051785468  4.8796917122  0.2334007860
C    1.4530556466  2.6951971466  0.0688923910
C    2.6955281388  2.1030830158  0.2000990221
C    2.9461909308  0.7138464789  0.0186654293
C    4.2263551229  0.1695464339 -0.2401766776
H    5.1463352552  0.7203824841 -0.2253439669
C    4.0405726955 -1.1570099992 -0.5385639554
H    4.7880051430 -1.8766561243 -0.8116597459
C    2.6500030129 -1.4168889085 -0.4152508718
C    3.8692178360  2.9750535815  0.4133513473
C    4.5599391103  2.9456444223  1.6262061688
C    5.6445690165  3.7777205134  1.8572408273
C    6.0598055041  4.6508674749  0.8646878591
H    6.9032610510  5.2977411526  1.0410474959
C    5.4094747471  4.6839266168 -0.3574266759
C    4.3248795913  3.8484702224 -0.5771082813
Fe   0.0125671918  0.0010084317  0.2913542290
C   -2.8488246461  3.7659260967 -1.1796880226
C   -3.8926848270  4.3648479302 -0.4693309460
C   -2.5751835666  4.2570198749 -2.4623870402
C   -4.6488004484  5.3891576475 -1.0220531955
C   -3.3190793103  5.2809527794 -3.0252708143
H   -5.4500395228  5.8317007609 -0.4497627547
C   -4.3589761248  5.8416168913 -2.3004163280
H   -3.0819474892  5.6318591059 -4.0189685113
H   -4.9486518194  6.6360815614 -2.7328293021
C    2.8737802319 -3.8076882033 -1.0460867058
C    3.8674766235 -4.3852068904 -0.2553697731
C    2.6562851290 -4.3543193202 -2.3138244778
C    4.6283001916 -5.4495313659 -0.7151099243
C    3.4082015167 -5.4180023254 -2.7834632008
H    5.3869983523 -5.8733116520 -0.0767373615
C    4.3962819823 -5.9604638687 -1.9793516455
H    3.2154667207 -5.8112153020 -3.7687696804
H    4.9832017040 -6.7891973213 -2.3443941975
H   -5.7051648827 -3.6176232229  3.4280290248
H   -6.0316044194 -5.1818363243 -0.5474250429
H    6.1538298595  3.7390408704  2.8085489641
H    5.7363084797  5.3446375265 -1.1435042408
Cl   4.1244736409 -3.7892097895  1.3438562590
Cl   1.4304798532 -3.6714604582 -3.3187697388
Cl  -4.2139056196  3.8475785184  1.1457187803
Cl  -1.2893453584  3.5496135582 -3.3796553996
Cl   4.0258339021  1.8589029526  2.8587708952
Cl   3.5461665650  3.8568593162 -2.1178718593
Cl  -3.4936566317 -1.8437482200  3.1290771298
Cl  -3.9145791623 -3.8068791580 -1.8523941748
Cl   0.0196496486 -0.0024981011  2.4252732171
78
aligned d3map frame 44
N   -0.2467673995 -2.0284810709 -0.0846245176
N   -1.9747367498  0.2730175160 -0.0786066873
C    2.0840648769 -2.6924311312  0.3078188324
C    0.7183691479 -2.9767644868  0.0280123809
C    0.1718841829 -4.2545618340 -0.2295266218
H    0.7117244893 -5.1807791796 -0.2202641921
C   -1.1604474317 -4.0613560070 -0.5099593491
H   -1.8822410043 -4.8052064210 -0.7818652225
C   -1.4102176456 -2.6715244290 -0.3741465301
C   -2.6848327175 -2.0584219526 -0.3907892323
C   -2.9211556193 -0.7000139225 -0.2016822104
C   -4.2283958739 -0.1235134766 -0.0182599021
H   -5.1496212484 -0.6712391691 -0.0660792675
C   -4.0516058724  1.1916527578  0.2468505855
H   -4.8003600906  1.9299601113  0.4595368280
C   -2.6368699510  1.4509505593  0.1734165571
C   -3.8353021734 -2.9822358485 -0.4814228143
C   -4.1184669846 -3.8579579320  0.5691752211
C   -5.1419163439 -4.7870892835  0.4800487855
C   -5.9080806668 -4.8481583737 -0.6709766036
H   -6.6961673444 -5.5800605148 -0.7501787025
C   -5.6679877296 -3.9777366162 -1.7203624538
C   -4.6404242805 -3.0540848966 -1.6175267277
N    0.2843040161  2.0210011897 -0.1149124074
N    1.9948469797 -0.2788648063 -0.0980118618
C   -2.0521740097  2.6987295803  0.2666506017
C   -0.6742528283  2.9709202706  0.0171731975
C   -0.1195463689  4.2515184444 -0.2124932466
H   -0.6563112083  5.1792531757 -0.1798253649
C    1.2120072391  4.0590453229 -0.4976977935
H    1.9471549764  4.8032093683 -0.7352488600
C    1.4494562224  2.6644201648 -0.4125624405
C    2.7050844278  2.0326251503 -0.5300048792
C    2.9385509320  0.6756689425 -0.3300522288
C    4.2498856604  0.0898675252 -0.2204343473
H    5.1709662892  0.6197284815 -0.3737462423
C    4.0806621771 -1.2030600767  0.1340005076
H    4.8312517823 -1.9475500730  0.3161657008
C    2.6622603052 -1.4457954118  0.1717554797
C    3.8852266745  2.8922705672 -0.7735754620
C    4.4494859279  3.6444685150  0.2556212875
C    5.5770160786  4.4224216246  0.0430271184
C    6.1486508703  4.4615200406 -1.2169578976
H    7.0268652157  5.0658775332 -1.3863345260
C    5.6051893170  3.7317217921 -2.2608127338
C    4.4840930909  2.9518104951 -2.0301654396
Fe   0.0125671918  0.0010084317  0.2913542290
C   -2.8763460018  3.8760483940  0.6081387438
C   -2.7183307876  4.4788837597  1.8573479583
C   -3.7799465442  4.4521740165 -0.2828488552
C   -3.4324311325  5.6136358553  2.2084248917
C   -4.5001044082  5.5879728722  0.0543318371
H   -3.2903889301  6.0523814938  3.1827368234
C   -4.3201725863  6.1647850431  1.2999037393
H   -5.1877844963  6.0137411741 -0.6581740772
H   -4.8791830253  7.0535581599  1.5672241515
C    2.9321114487 -3.8089510123  0.7799826430
C    3.1227859065 -3.9594766356  2.1534856110
C    3.5525045202 -4.7165325555 -0.0718892139
C    3.9045677537 -4.9823875205  2.6628084363
C    4.3378802541 -5.7458559582  0.4223104896
H    4.0354667829 -5.0747001652  3.7282717782
C    4.5081026489 -5.8719204485  1.7904238983
H    4.8099158407 -6.4340648114 -0.2596076906
H    5.1203063572 -6.6697858912  2.1812558555
H   -5.3281167305 -5.4539055323  1.3061800657
H   -6.2632631297 -4.0173826866 -2.6183387987
H    6.0020555415  4.9838157036  0.8600000393
H    6.0450845857  3.7599332218 -3.2445443447
Cl   2.3587189236 -2.8260186540  3.2172131183
Cl   3.3451548308 -4.5268622578 -1.7766897092
Cl  -1.6200274332  3.7589242325  2.9841835380
Cl  -3.9734363057  3.7507628209 -1.8493104046
Cl   3.7330577452  3.5670688337  1.8239015063
Cl   3.7939806828  2.0287459817 -3.3168212092
Cl  -3.1780748262 -3.7597888564  2.0147095835
Cl  -4.3207981444 -1.9801956749 -2.9322553014
Cl   0.0203413731  0.0087215560  2.4258507366
78
aligned d3map frame 45
N   -0.2597727976 -2.0195656637 -0.1451850956
N   -1.9731427916  0.2704099430 -0.0576807950
C    2.0123842740 -2.7118305155  0.3723655355
C    0.6699744559 -2.9689574888  0.2027906472
C    0.0200690714 -4.2523494328  0.2951885261
H    0.5034938886 -5.1685307975  0.5715487417
C   -1.2719823735 -4.0657613969 -0.0605760484
H   -2.0584511409 -4.7925177788 -0.1203811933
C   -1.4451654933 -2.6541694260 -0.2958391342
C   -2.6792110646 -2.0398454701 -0.5325615251
C   -2.9126037368 -0.6569259404 -0.4253400188
C   -4.1656547834 -0.0108798484 -0.5968811405
H   -5.0738299805 -0.4870266545 -0.9115346980
C   -3.9771265291  1.3126285284 -0.2802596740
H   -4.7020607210  2.1032808997 -0.2932687608
C   -2.6088078080  1.4612792398  0.0442710403
C   -3.8198335045 -2.9177989673 -0.8589593681
C   -4.8926988953 -3.1014884877  0.0156741380
C   -5.9520409303 -3.9327102905 -0.3082460218
C   -5.9523777930 -4.6014819304 -1.5195168472
H   -6.7773178560 -5.2489369983 -1.7756497959
C   -4.9036577146 -4.4399578266 -2.4077941849
C   -3.8515178146 -3.6048532598 -2.0725727619
N    0.2773615682  2.0151335108 -0.1761449269
N    1.9950076639 -0.2730110948 -0.0736413185
C   -1.9889826745  2.7144917243  0.3574864081
C   -0.6455615819  2.9671426469  0.1804644191
C    0.0091258840  4.2486200264  0.2658709507
H   -0.4659932324  5.1651815315  0.5542082177
C    1.2956403734  4.0576390215 -0.1074997666
H    2.0792310894  4.7874932290 -0.1762247170
C    1.4622906243  2.6465760155 -0.3456803247
C    2.6914624961  2.0282907466 -0.6025033927
C    2.9262941478  0.6462325843 -0.4785100694
C    4.1749595004 -0.0039856312 -0.6644102451
H    5.0755695495  0.4609818957 -1.0150767996
C    3.9937032934 -1.3211852570 -0.3123476019
H    4.7232445027 -2.1057501149 -0.3153167035
C    2.6327917622 -1.4634277285  0.0396979743
C    3.8115096574  2.9123919911 -0.9754450782
C    4.9315671394  3.0984028633 -0.1619421939
C    5.9535838971  3.9604280560 -0.5275961936
C    5.8679258092  4.6612474531 -1.7200100240
H    6.6597137076  5.3371929677 -2.0044911388
C    4.7706473145  4.5025474062 -2.5482254102
C    3.7575671913  3.6361857976 -2.1729039523
Fe   0.0125671918  0.0010084317  0.2913542290
C   -2.8746576749  3.7485041881  0.9226208048
C   -3.4095301741  3.5317304789  2.1969610950
C   -3.2145908922  4.9319265243  0.2690937368
C   -4.2267275830  4.4671898350  2.8043388830
C   -4.0315593789  5.8766421485  0.8677001121
H   -4.6149241646  4.2717369466  3.7907362891
C   -4.5299606413  5.6414935531  2.1368337479
H   -4.2757533942  6.7824676960  0.3374694737
H   -5.1634134836  6.3766700604  2.6064727030
C    2.8936212009 -3.7529178055  0.9362096114
C    3.3901849304 -3.5673322413  2.2306580010
C    3.2528632131 -4.9173011751  0.2617199761
C    4.1901680007 -4.5194456751  2.8401185402
C    4.0589557625 -5.8741573282  0.8559078279
H    4.5442433893 -4.3543668221  3.8443822989
C    4.5164881603 -5.6738991221  2.1495167474
H    4.3247282965 -6.7634612591  0.3078503459
H    5.1322344214 -6.4234747439  2.6185398703
H   -6.7648300372 -4.0564588324  0.3884245212
H   -4.8979899253 -4.9505234390 -3.3582853897
H    6.8003597357  4.0841767575  0.1278362461
H    4.6936147230  5.0464370393 -3.4777136078
Cl   2.9573649979 -2.1222440369  3.0787015201
Cl   2.7185710466 -5.1495228791 -1.3633951315
Cl  -2.9958937516  2.0763624867  3.0333126439
Cl  -2.6371074167  5.2028126036 -1.3379559615
Cl   5.0167887073  2.2763097960  1.3588337478
Cl   2.3955770387  3.4263097650 -3.2162313215
Cl  -4.8726273484 -2.3060774309  1.5483614803
Cl  -2.5496676071 -3.3904093025 -3.1866533920
Cl   0.0364112613  0.0295226875  2.4255882408
78
aligned d3map frame 46
N   -0.2530664175 -2.0159936244 -0.1568849698
N   -1.9735673549  0.2787307214 -0.0750436230
C    2.1029695209 -2.7037714129  0.1134183036
C    0.7313349588 -2.9437117960 -0.2116326659
C    0.2157711329 -4.1745373806 -0.6885052746
H    0.7839155436 -5.0711461003 -0.8429038292
C   -1.1205899490 -3.9756940632 -0.9272223123
H   -1.8272746562 -4.6832666947 -1.3132372290
C   -1.4072415838 -2.6311378910 -0.5654608621
C   -2.6735316844 -2.0252204100 -0.5561091191
C   -2.9107939222 -0.6955301025 -0.1811738876
C   -4.2097293781 -0.1535724890  0.1145534141
H   -5.1166694708 -0.7273209771  0.1357419460
C   -4.0408338202  1.1619970157  0.3853188569
H   -4.7838899720  1.8784712859  0.6762353460
C   -2.6424408257  1.4522021797  0.1879056920
C   -3.8297428576 -2.7919781410 -1.0565886835
C   -4.3086492194 -3.9520986962 -0.4460884883
C   -5.3626447956 -4.6725066356 -0.9866698157
C   -5.9673935178 -4.2324700163 -2.1506842748
H   -6.7837416270 -4.7937113850 -2.5804641553
C   -5.5330829997 -3.0722366554 -2.7687076124
C   -4.4769343897 -2.3656989285 -2.2221467281
N    0.2730160984  2.0110086348 -0.1889002299
N    1.9958403389 -0.2750877772 -0.0913685616
C   -2.0819191873  2.7078437124  0.0864166859
C   -0.7151601641  2.9320986257 -0.2736896853
C   -0.2128120913  4.1398137409 -0.8174810034
H   -0.7895252556  5.0223192598 -1.0083114009
C    1.1223895489  3.9369053988 -1.0589590307
H    1.8192948574  4.6262132555 -1.4931696396
C    1.4199168337  2.6135151510 -0.6324128037
C    2.6940070334  2.0236931039 -0.5904087167
C    2.9337266379  0.7009207019 -0.1958783211
C    4.2300194019  0.1626011559  0.1158452323
H    5.1349164818  0.7389929356  0.1463942238
C    4.0613493797 -1.1525668845  0.3869306572
H    4.8020413748 -1.8689306820  0.6839830499
C    2.6627957981 -1.4448299341  0.1858897485
C    3.8464515812  2.8185284233 -1.0512774567
C    4.2470540213  4.0041658015 -0.4305691820
C    5.2901958235  4.7664368841 -0.9298414259
C    5.9658160968  4.3453673363 -2.0624474889
H    6.7724931615  4.9403307049 -2.4603688869
C    5.6115673358  3.1620979707 -2.6859543969
C    4.5630920581  2.4120644428 -2.1820044078
Fe   0.0125671918  0.0010084317  0.2913542290
C   -2.9176914232  3.9079228819  0.2574047853
C   -2.6238800433  4.8239114711  1.2731395544
C   -3.9935455371  4.2034595028 -0.5836744391
C   -3.3822613024  5.9666549409  1.4608596281
C   -4.7640077636  5.3391431266 -0.4004834343
H   -3.1269870129  6.6488098317  2.2558167605
C   -4.4574119793  6.2164365576  0.6257418896
H   -5.5899380832  5.5341552313 -1.0657024495
H   -5.0551934248  7.1022835253  0.7700199766
C    2.9620639048 -3.8889518261  0.2814032448
C    2.7250043089 -4.7903277256  1.3220953678
C    4.0228830585 -4.1703151128 -0.5843176011
C    3.5225863214 -5.9075250277  1.5110502713
C    4.8320355236 -5.2789061190 -0.4015118501
H    3.3104899358 -6.5776246374  2.3285298615
C    4.5808250094 -6.1425644213  0.6517474772
H    5.6453415761 -5.4620592528 -1.0840139903
H    5.2113470187 -7.0059590126  0.7966425677
H   -5.7032999053 -5.5689011766 -0.4941329402
H   -6.0004728142 -2.7166392954 -3.6729404135
H    5.5683580180  5.6814228877 -0.4312957738
H    6.1346749359  2.8212786905 -3.5653061730
Cl   1.4225916521 -4.4807126938  2.4134463956
Cl   4.3051172396 -3.1445310565 -1.9485506941
Cl  -1.2976573267  4.4973143521  2.3300838672
Cl  -4.3412565930  3.1633697183 -1.9219684361
Cl   3.4474949487  4.5090678637  1.0154822362
Cl   4.1075134546  0.9603707447 -2.9998001915
Cl  -3.5975884269 -4.4774932065  1.0384094959
Cl  -3.9239176892 -0.9380025893 -3.0270062983
Cl   0.0262753030  0.0051481171  2.4243498353
78
aligned d3map frame 47
N   -0.2755809278 -2.0207577223 -0.1127301595
N   -1.9778542266  0.2534907894 -0.0797304968
C    2.0464551980 -2.6566687065 -0.5954228459
C    0.6759130145 -2.9383684085 -0.4643639750
C    0.0709164445 -4.2108431190 -0.6289263534
H    0.5797369423 -5.1123021797 -0.9089407697
C   -1.2648959501 -4.0515178937 -0.3470156438
H   -2.0333020153 -4.7995212970 -0.3679150121
C   -1.4547114931 -2.6825594804 -0.0424620275
C   -2.7225514585 -2.0644088996  0.1860272553
C   -2.9415895896 -0.7027418515  0.1282812914
C   -4.2382733751 -0.0721496164  0.1462185659
H   -5.1632874421 -0.5815706179  0.3339571848
C   -4.0458273371  1.2365205689 -0.1374323321
H   -4.7805511758  2.0122841402 -0.2342889904
C   -2.6272293005  1.4381492399 -0.2623255507
C   -3.8697696818 -2.9738299365  0.3758857351
C   -3.9906473365 -3.7153137693  1.5525422569
C   -5.0557305994 -4.5772328728  1.7578092362
C   -6.0185568185 -4.7148545984  0.7729571024
H   -6.8515413768 -5.3834159286  0.9277840363
C   -5.9178283994 -4.0064123316 -0.4122216559
C   -4.8482577628 -3.1475639456 -0.6037005612
N    0.3027641236  2.0156914641 -0.1452300552
N    2.0001325067 -0.2493783237 -0.0977307588
C   -2.0346631938  2.6717615387 -0.5153091721
C   -0.6554447842  2.9352375385 -0.4706218163
C   -0.0508331023  4.2027407629 -0.6675513920
H   -0.5628059177  5.1037291648 -0.9444403632
C    1.2934869100  4.0386238176 -0.4319925457
H    2.0650100842  4.7811447715 -0.4922809022
C    1.4839326688  2.6750221050 -0.1065329044
C    2.7525844895  2.0639804723  0.1486168769
C    2.9686484043  0.7026354588  0.1153103014
C    4.2622274109  0.0647780523  0.1305015168
H    5.1887739584  0.5637869922  0.3372337689
C    4.0639320299 -1.2350149444 -0.1880311824
H    4.7946253013 -2.0136115254 -0.2949989780
C    2.6431878558 -1.4277116186 -0.3157580695
C    3.8762201601  2.9977695674  0.3515141164
C    3.9088153873  3.7982658815  1.4968334697
C    4.9149013530  4.7264003189  1.7038633908
C    5.9130585782  4.8694777642  0.7556109775
H    6.6973136449  5.5942087122  0.9069036192
C    5.9072007300  4.0941960846 -0.3910632788
C    4.8926526629  3.1716864472 -0.5880346397
Fe   0.0125671918  0.0010084317  0.2913542290
C   -2.9120000856  3.8217319246 -0.8409780227
C   -3.4093277976  4.6621905299  0.1517353044
C   -3.2249900782  4.1142585753 -2.1661755340
C   -4.1945004653  5.7597505454 -0.1638811401
C   -4.0027633328  5.2104597547 -2.4980250997
H   -4.5681069970  6.3940169438  0.6232378911
C   -4.4830061947  6.0295296796 -1.4902761108
H   -4.2225734549  5.4178512542 -3.5329368724
H   -5.0854658921  6.8866525725 -1.7405282621
C    2.9119228574 -3.7225870207 -1.1506757039
C    3.3884514783 -4.7994130211 -0.4096419515
C    3.2535052233 -3.6585261933 -2.5022410875
C    4.1783580659 -5.7791793784 -0.9916133047
C    4.0379880377 -4.6296931277 -3.0993202568
H    4.5363171097 -6.6020805625 -0.3943422439
C    4.4974630661 -5.6888957035 -2.3355605370
H    4.2781988671 -4.5519341139 -4.1474502671
H    5.1087858253 -6.4505331437 -2.7935389544
H   -5.1247782310 -5.1306350322  2.6804973947
H   -6.6570138356 -4.1195472815 -1.1888935427
H    4.9078711493  5.3290878562  2.5976992470
H    6.6755626087  4.2078278950 -1.1387004358
Cl   2.9869075654 -4.8934003774  1.2690195474
Cl   2.6597756699 -2.3333224671 -3.4425789432
Cl  -3.0210938582  4.3104907080  1.7959074940
Cl  -2.6127548506  3.0799531499 -3.4048964873
Cl   2.6637078598  3.6012175128  2.6775279267
Cl   4.8575255259  2.2547967427 -2.0528745774
Cl  -2.7874670858 -3.5224061136  2.7764884864
Cl  -4.7002474849 -2.2992467416 -2.1021315182
Cl   0.0164453943  0.0203710462  2.4248413631
78
aligned d3map frame 48
N   -0.2554539777 -2.0192367115 -0.1363064939
N   -1.9749689579  0.2808101935 -0.0461660059
C    2.0404324522 -2.7143743500  0.3063956499
C    0.6983391164 -2.9740205977  0.0632683305
C    0.1084841538 -4.2745418747 -0.1018966569
H    0.6306691560 -5.2035946313 -0.0096017632
C   -1.1889192329 -4.0793339821 -0.4423332625
H   -1.9229028064 -4.8234244285 -0.6845958164
C   -1.4271666587 -2.6593170974 -0.4048518387
C   -2.6683974296 -2.0436233369 -0.5231475475
C   -2.9216571265 -0.6684159710 -0.2887905884
C   -4.2130446527 -0.0906292991 -0.1860187873
H   -5.1422015914 -0.6094635019 -0.3247545622
C   -4.0338215704  1.2307316358  0.1466879522
H   -4.7873313003  1.9772384079  0.3086049357
C   -2.6356021260  1.4511182011  0.1965172861
C   -3.8376089127 -2.8840000137 -0.8535973487
C   -4.3642078578 -3.8139051621  0.0448953103
C   -5.4552444914 -4.6004275930 -0.2852845184
C   -6.0445316457 -4.4606656089 -1.5308719734
H   -6.8944314249 -5.0695960532 -1.7933123388
C   -5.5520839905 -3.5421817433 -2.4423825731
C   -4.4580604492 -2.7671061242 -2.0971574187
N    0.2725851770  2.0153324517 -0.1691839998
N    1.9979821945 -0.2725224621 -0.0618877478
C   -2.0143300243  2.7157962213  0.3264646136
C   -0.6763208863  2.9695570776  0.0592156420
C   -0.0890070021  4.2714719119 -0.1007492016
H   -0.6137482194  5.1998012429  0.0093602085
C    1.2075695085  4.0787688064 -0.4449425704
H    1.9480119079  4.8183176085 -0.6640294215
C    1.4377486491  2.6567762308 -0.4439753214
C    2.6862626948  2.0501407695 -0.5448041005
C    2.9417637021  0.6732880683 -0.3342275739
C    4.2273038301  0.0768993519 -0.3265344642
H    5.1522597398  0.5788765728 -0.5336001025
C    4.0514628671 -1.2483911424 -0.0040853102
H    4.8020503596 -2.0081760783  0.0963643062
C    2.6580440120 -1.4510043247  0.1377526882
C    3.8482243586  2.9397255151 -0.7514523313
C    4.7058737200  3.2505668777  0.3039316978
C    5.7723932024  4.1197187402  0.1360611702
C    5.9986074742  4.6904031047 -1.1050116896
H    6.8246468823  5.3716568950 -1.2395649810
C    5.1650755117  4.4015322120 -2.1721533287
C    4.1004932572  3.5344712220 -1.9877813743
Fe   0.0125671918  0.0010084317  0.2913542290
C   -2.8551764805  3.8681245943  0.7215713743
C   -2.8816951519  4.2582512849  2.0596471610
C   -3.6016962912  4.6043557710 -0.1936453096
C   -3.6289636419  5.3496321159  2.4744905014
C   -4.3527703892  5.6977951578  0.2059735833
H   -3.6274919910  5.6298533825  3.5151686678
C   -4.3603744651  6.0647418678  1.5417631235
H   -4.9202879227  6.2578952578 -0.5210360312
H   -4.9428353692  6.9154253101  1.8580780691
C    2.9018479831 -3.8306808933  0.7545563327
C    3.1942763428 -3.9380509922  2.1154230983
C    3.4284460446 -4.7882934586 -0.1059129252
C    3.9701155386 -4.9766495683  2.6040747167
C    4.2098975564 -5.8306969859  0.3682546769
H    4.1719308037 -5.0399344474  3.6610031003
C    4.4719208238 -5.9211255815  1.7248386530
H    4.6067008698 -6.5590520439 -0.3200576610
H    5.0739625125 -6.7340303918  2.1014904579
H   -5.8381991608 -5.3100640524  0.4296897061
H   -6.0048473120 -3.4270630377 -3.4139099766
H    6.4097609639  4.3450297380  0.9754420031
H    5.3302831479  4.8452267030 -3.1407893484
Cl   2.5438349937 -2.7507132874  3.1903585071
Cl   3.1033196071 -4.6530230395 -1.7980764776
Cl  -1.9580989868  3.3474341427  3.2008442394
Cl  -3.5662771916  4.1343944681 -1.8549710405
Cl   4.3932682719  2.5650353980  1.8582464591
Cl   3.0497741733  3.1722020328 -3.3112111668
Cl  -3.6490427403 -3.9645339189  1.6137957631
Cl  -3.8229020705 -1.6313431549 -3.2377229687
Cl   0.0232175580 -0.0053358041  2.4243694632
78
aligned d3map frame 49
N   -0.2488793115 -2.0309156735 -0.0936972245
N   -1.9783979065  0.2758940083 -0.0611660276
C    2.0798463357 -2.7502171676  0.0913180377
C    0.7207726323 -2.9918240871 -0.0009465840
C    0.1232921047 -4.2894017922 -0.1538736859
H    0.6608340183 -5.2182338844 -0.1216009194
C   -1.1993420165 -4.0919888894 -0.3723400827
H   -1.9609430717 -4.8304197743 -0.5338867388
C   -1.4220873221 -2.6736407511 -0.3253159357
C   -2.6678508912 -2.0639590096 -0.4669057208
C   -2.9210363652 -0.6871231195 -0.2970341401
C   -4.2094136781 -0.0984684771 -0.3592494869
H   -5.1254468436 -0.6247341555 -0.5382952950
C   -4.0407827680  1.2476930932 -0.1438157215
H   -4.7967591830  2.0085037768 -0.1238116237
C   -2.6500434942  1.4621197271  0.0134617531
C   -3.7918545672 -2.9325435665 -0.8816999571
C   -4.7564378128 -3.3964615353  0.0097891202
C   -5.7816085071 -4.2298732785 -0.4087663921
C   -5.8518809560 -4.6062516943 -1.7396991003
H   -6.6486287840 -5.2552851121 -2.0699120149
C   -4.9114926178 -4.1573535160 -2.6509188125
C   -3.8909919656 -3.3288960221 -2.2148839436
N    0.2754568064  2.0278630430 -0.1239055023
N    1.9985645059 -0.2851397806 -0.0784676611
C   -2.0516596586  2.7453984741  0.0937915000
C   -0.6952605793  2.9893801067 -0.0256153234
C   -0.0993650935  4.2868594036 -0.1852992305
H   -0.6339981650  5.2159626605 -0.1426888357
C    1.2186870617  4.0881020634 -0.4327023610
H    1.9752250101  4.8240031989 -0.6229868209
C    1.4469631292  2.6707148746 -0.3649533065
C    2.6867528627  2.0517626416 -0.5043179374
C    2.9386935685  0.6802566467 -0.3021330512
C    4.2341877570  0.1052531363 -0.2953585897
H    5.1521714919  0.6409483328 -0.4330267517
C    4.0683606475 -1.2406570052 -0.0707712030
H    4.8311740306 -1.9911820018  0.0090715282
C    2.6776691612 -1.4668034653  0.0287241155
C    3.8112065959  2.8867502608 -0.9850164980
C    4.5154438163  3.7663103011 -0.1676430086
C    5.5252020222  4.5694646739 -0.6767638512
C    5.8402536284  4.4984559837 -2.0219572880
H    6.6166418955  5.1287419578 -2.4253795982
C    5.1665815151  3.6234656680 -2.8583592855
C    4.1644241992  2.8252721677 -2.3345668862
Fe   0.0125671918  0.0010084317  0.2913542290
C   -2.9640735318  3.9101871291  0.1521803963
C   -3.4586849524  4.3721650196  1.3701217353
C   -3.3492462876  4.5830613620 -1.0050409695
C   -4.3048547733  5.4683110283  1.4333811433
C   -4.1984603779  5.6757687679 -0.9605341413
H   -4.6653399008  5.8077337779  2.3912635245
C   -4.6713029759  6.1141660599  0.2653703759
H   -4.4778641853  6.1732027265 -1.8763437300
H   -5.3281750548  6.9682202974  0.3088192741
C    2.9853400038 -3.9225598551  0.0844554796
C    3.2394809612 -4.6491014988  1.2458334663
C    3.5879760221 -4.3456967343 -1.0983749517
C    4.0684588810 -5.7596112004  1.2294994449
C    4.4143211725 -5.4567809036 -1.1310168393
H    4.2530708604 -6.3027594353  2.1428519079
C    4.6491560255 -6.1597837403  0.0379412131
H    4.8686253278 -5.7641348408 -2.0616452925
H    5.3014308575 -7.0265670218  0.0245800630
H   -6.5130964329 -4.5806570683  0.3011404607
H   -4.9639373553 -4.4414690021 -3.6899262548
H    6.0532378676  5.2444180537 -0.0220131616
H    5.4062391300  3.5613431085 -3.9074344029
Cl   2.5049184729 -4.1309464999  2.7191867631
Cl   3.2757996295 -3.4648623764 -2.5499552784
Cl  -2.9787909750  3.5565376043  2.8164926077
Cl  -2.7396691040  4.0215906512 -2.5242732086
Cl   4.1143999222  3.8418129760  1.5111657686
Cl   3.3024424190  1.7416515646 -3.3659845341
Cl  -4.6423159732 -2.9271172135  1.6670285473
Cl  -2.7096797604 -2.7562835400 -3.3390697352
Cl   0.0114069702  0.0329120701  2.4247303419
78
aligned d3map frame 50
N   -0.2536494198 -2.0196679473 -0.1335236017
N   -1.9725438445  0.2778458947 -0.0854242291
C    2.1027449406 -2.6991996718  0.1570390135
C    0.7298149652 -2.9522719473 -0.1477591627
C    0.2158851204 -4.1974590857 -0.5800141191
H    0.7842755292 -5.1001121213 -0.6965952842
C   -1.1172160484 -4.0018038213 -0.8478736710
H   -1.8197239725 -4.7229051429 -1.2064834988
C   -1.4021124236 -2.6445685260 -0.5394581821
C   -2.6644541374 -2.0277469309 -0.5873009246
C   -2.9082601887 -0.6936894231 -0.2345568849
C   -4.2180892027 -0.1460223642 -0.0042183691
H   -5.1286898117 -0.7130836670 -0.0331686039
C   -4.0552243301  1.1664418397  0.2866993271
H   -4.8088013413  1.8859715950  0.5423193408
C   -2.6478302284  1.4497612038  0.1664110582
C   -3.8078019584 -2.7784022986 -1.1459314474
C   -4.3779478781 -3.8999858751 -0.5404972508
C   -5.4348947552 -4.5783351761 -1.1323440481
C   -5.9441201714 -4.1354152564 -2.3412489120
H   -6.7650378589 -4.6625070445 -2.8025668891
C   -5.4096922978 -3.0166108386 -2.9595145677
C   -4.3536309213 -2.3524443360 -2.3628682842
N    0.2737168286  2.0166826133 -0.1656977499
N    1.9940403433 -0.2755708762 -0.1015906466
C   -2.0814532737  2.7053107734  0.1349747975
C   -0.7095935537  2.9478698034 -0.1932282803
C   -0.2037122591  4.1799018039 -0.6723620432
H   -0.7762843198  5.0769857565 -0.8068265906
C    1.1272973808  3.9789776545 -0.9469408573
H    1.8234553958  4.6876130092 -1.3496990951
C    1.4169783833  2.6317855476 -0.6001454095
C    2.6829741065  2.0223372401 -0.6324725025
C    2.9290239058  0.6926893275 -0.2735657559
C    4.2401878791  0.1483236994 -0.0346658283
H    5.1518907333  0.7118695478 -0.0801298464
C    4.0781867898 -1.1576746868  0.2794779951
H    4.8323422939 -1.8725349725  0.5457604210
C    2.6684802650 -1.4416606887  0.1697489064
C    3.8303300661  2.8050627286 -1.1288572352
C    4.3192227217  3.9431755747 -0.4850197457
C    5.3823548942  4.6668526253 -1.0021352350
C    5.9830902141  4.2533721525 -2.1778668831
H    6.8108437417  4.8123858975 -2.5877165477
C    5.5321355256  3.1206358081 -2.8347074987
C    4.4673809523  2.4083203709 -2.3106161267
Fe   0.0125671918  0.0010084317  0.2913542290
C   -2.9214964056  3.9008087848  0.3292663100
C   -2.6913793207  4.7398537759  1.4237700261
C   -3.9321832853  4.2645123817 -0.5635545986
C   -3.4491944202  5.8799927742  1.6340412332
C   -4.6965432735  5.4024439763 -0.3645903928
H   -3.2436453198  6.5021711263  2.4907803507
C   -4.4532339772  6.2049735439  0.7372263048
H   -5.4692660963  5.6496397766 -1.0713888678
H   -5.0468944927  7.0948528031  0.8906895523
C    2.9732734841 -3.8708301065  0.3776380242
C    2.8142070609 -4.6552368770  1.5226381436
C    3.9830776364 -4.2290436988 -0.5167879129
C    3.6556901296 -5.7220546264  1.7899611782
C    4.8308047614 -5.2939672181 -0.2611953894
H    3.5135718421 -6.2955565507  2.6909316666
C    4.6700104529 -6.0287969211  0.9002342072
H    5.6060771524 -5.5367927222 -0.9701754500
H    5.3364283982 -6.8505462436  1.1106291351
H   -5.8549284830 -5.4439090302 -0.6432205494
H   -5.7996865994 -2.6615668740 -3.9009534470
H    5.7306181349  5.5453210095 -0.4839888444
H    5.9931320210  2.7873402642 -3.7518141697
Cl   1.5566848436 -4.2546623650  2.6330749081
Cl   4.1595449000 -3.3415653354 -1.9893632340
Cl  -1.4443852414  4.3194528902  2.5436661874
Cl  -4.2044289923  3.3032409058 -1.9756146171
Cl   3.6004974961  4.4362183074  1.0047983917
Cl   3.8829979856  1.0223575687 -3.1701964379
Cl  -3.7760322636 -4.4188723958  0.9929748495
Cl  -3.6729755216 -0.9718164158 -3.1560517676
Cl   0.0077468118  0.0195643594  2.4248257488
78
aligned d3map frame 51
N   -0.2574506595 -2.0172925849 -0.1443395878
N   -1.9717356809  0.2834818019 -0.0611945674
C    2.0426010813 -2.7140722058  0.2812585116
C    0.6960424643 -2.9730213090  0.0411582231
C    0.1138901055 -4.2686871730 -0.1653636538
H    0.6339845210 -5.2023959162 -0.0798286338
C   -1.1779398449 -4.0676741336 -0.5287406917
H   -1.9059302801 -4.8067250086 -0.8008049374
C   -1.4208187851 -2.6506865463 -0.4610594663
C   -2.6542846070 -2.0274284788 -0.6147119124
C   -2.9112872919 -0.6559772503 -0.3473183326
C   -4.2041103865 -0.0832028447 -0.2450073336
H   -5.1299377024 -0.5968100883 -0.4145622861
C   -4.0313247698  1.2283063051  0.1300284167
H   -4.7963771274  1.9580626585  0.3120658292
C   -2.6359775116  1.4497296665  0.2047142987
C   -3.8036599045 -2.8480566671 -1.0464807718
C   -4.3760504647 -3.8234975261 -0.2296666678
C   -5.4268132218 -4.6124921391 -0.6732161919
C   -5.9321662627 -4.4221722517 -1.9470177639
H   -6.7462922832 -5.0365711991 -2.2992391277
C   -5.4029371669 -3.4444274625 -2.7734254918
C   -4.3503986442 -2.6677258451 -2.3191977904
N    0.2657950654  2.0144559652 -0.1775298703
N    1.9953360774 -0.2735556578 -0.0753147938
C   -2.0109050491  2.7069718924  0.3726551675
C   -0.6731100309  2.9648472516  0.0888993150
C   -0.0836793990  4.2678787488 -0.0525652643
H   -0.6079645621  5.1931793866  0.0890768080
C    1.2074008689  4.0803745032 -0.4224127160
H    1.9481003766  4.8288476098 -0.6309135853
C    1.4325715251  2.6583852174 -0.4542220095
C    2.6744240458  2.0480195363 -0.5831639348
C    2.9339294560  0.6704209424 -0.3657519329
C    4.2211252953  0.0772482750 -0.3629005524
H    5.1392306246  0.5858135764 -0.5811436856
C    4.0509895015 -1.2461131050 -0.0306224746
H    4.8075297892 -1.9995131515  0.0686416182
C    2.6577996515 -1.4520657068  0.1206555932
C    3.8336134986  2.9255361640 -0.8545032180
C    4.7083197951  3.2971172400  0.1660069028
C    5.7765035215  4.1448991279 -0.0715885499
C    5.9871909026  4.6309310639 -1.3508304664
H    6.8154399698  5.2941334046 -1.5434622404
C    5.1400344668  4.2769489405 -2.3866150016
C    4.0712339946  3.4336574754 -2.1303859463
Fe   0.0125671918  0.0010084317  0.2913542290
C   -2.8415936421  3.8402285883  0.8375085711
C   -2.7749700919  4.2172410654  2.1786597534
C   -3.6811878322  4.5629908316 -0.0067243618
C   -3.5314520803  5.2710001551  2.6667773630
C   -4.4411563172  5.6206304142  0.4670207379
H   -3.4657159523  5.5391433537  3.7086451069
C   -4.3629888597  5.9669862075  1.8056527338
H   -5.0809871357  6.1643674930 -0.2096185021
H   -4.9526509122  6.7885691793  2.1818177748
C    2.9108117949 -3.8500321182  0.6629596430
C    3.1928055622 -4.0606107843  2.0127819147
C    3.4520105364 -4.7334993783 -0.2661263877
C    3.9725856248 -5.1307564132  2.4250450515
C    4.2368792693 -5.8057934040  0.1311469915
H    4.1658892694 -5.2748443145  3.4756084474
C    4.4888724080 -5.9999313685  1.4788991536
H    4.6400489154 -6.4756838918 -0.6107464004
H    5.0854859708 -6.8392535369  1.7941982860
H   -5.8424188553 -5.3643328720 -0.0209591289
H   -5.7932715069 -3.2864543103 -3.7663580415
H    6.4272366014  4.4263181972  0.7392221457
H    5.3000419657  4.6516610408 -3.3839830787
Cl   2.5309208944 -2.9593108749  3.1686197391
Cl   3.1343199727 -4.4643123545 -1.9431348391
Cl  -1.7298569907  3.3317463760  3.2335249863
Cl  -3.7460413273  4.1273336361 -1.6765342999
Cl   4.4176837430  2.6984896817  1.7617404442
Cl   3.0052247871  2.9853922665 -3.4124001833
Cl  -3.7751281077 -4.0253916343  1.3770344565
Cl  -3.6697706015 -1.4650937256 -3.3544830443
Cl   0.0398621805  0.0358180700  2.4234594436
78
aligned d3map frame 52
N   -0.2503311046 -2.0265697928 -0.1088614123
N   -1.9717990205  0.2838962890 -0.0680543869
C    2.0586077010 -2.7185571437  0.2717209105
C    0.7086030585 -2.9799354671  0.0839202200
C    0.1122168365 -4.2815306032 -0.0409966600
H    0.6392570068 -5.2089522107  0.0733030198
C   -1.1920918822 -4.0911082058 -0.3605653283
H   -1.9412432317 -4.8356190885 -0.5493124074
C   -1.4211921479 -2.6711653944 -0.3650092125
C   -2.6516756257 -2.0483658669 -0.5431923220
C   -2.9079515905 -0.6726041806 -0.3241017156
C   -4.2023670035 -0.0997834483 -0.2675695390
H   -5.1221924745 -0.6273717875 -0.4234066100
C   -4.0378180608  1.2277538855  0.0532644982
H   -4.8032792639  1.9655797160  0.1904941386
C   -2.6443584221  1.4546675087  0.1416354797
C   -3.7895500710 -2.8717695968 -1.0114864109
C   -4.5315008427 -3.6977912550 -0.1699001640
C   -5.5762106434 -4.4690974689 -0.6573765376
C   -5.8935330217 -4.4152082347 -2.0040567294
H   -6.7024597695 -5.0163400113 -2.3894597502
C   -5.1829193741 -3.5931030523 -2.8628693345
C   -4.1434629345 -2.8291008597 -2.3609958411
N    0.2715282112  2.0214260657 -0.1414888796
N    1.9940693730 -0.2766604413 -0.0843746230
C   -2.0262200319  2.7185582406  0.3095767458
C   -0.6782623956  2.9717016330  0.0803409080
C   -0.0903481572  4.2744921915 -0.0673760649
H   -0.6164035206  5.2022683585  0.0492697581
C    1.2072456611  4.0854153473 -0.4163209045
H    1.9519735574  4.8276377037 -0.6284001699
C    1.4381615415  2.6661612453 -0.4191023450
C    2.6699931290  2.0475071340 -0.5943200787
C    2.9290380879  0.6730263753 -0.3719580209
C    4.2214837746  0.0919649335 -0.3531828533
H    5.1412663503  0.6106136907 -0.5413021429
C    4.0573016259 -1.2346101310 -0.0318394528
H    4.8144357962 -1.9862080969  0.0773829916
C    2.6646585818 -1.4498379376  0.1085103780
C    3.8249442640  2.8827618618 -0.9947583008
C    4.5514214130  3.6304345057 -0.0707225022
C    5.6453727240  4.3877948631 -0.4563818536
C    6.0240807598  4.4053136821 -1.7879484933
H    6.8787229815  4.9896942588 -2.0930393915
C    5.3158723753  3.6805269335 -2.7308058299
C    4.2260914857  2.9274350605 -2.3277780632
Fe   0.0125671918  0.0010084317  0.2913542290
C   -2.8678032530  3.8472746028  0.7630178305
C   -2.8030302052  4.2238299891  2.1058110311
C   -3.7264803468  4.5560632413 -0.0721197858
C   -3.5731290273  5.2646232521  2.5994858588
C   -4.5056543983  5.5979883832  0.4074701610
H   -3.5053308193  5.5310097885  3.6420688731
C   -4.4227591902  5.9461259655  1.7451994033
H   -5.1640447662  6.1261694361 -0.2643695982
H   -5.0260024170  6.7550101026  2.1263320196
C    2.9595439849 -3.8491950396  0.5939409418
C    3.3059497723 -4.0871994813  1.9234101755
C    3.4930547214 -4.6845140717 -0.3829628697
C    4.1552251484 -5.1251633502  2.2698836389
C    4.3481785098 -5.7236575418 -0.0524934789
H    4.4046092009 -5.2891249358  3.3054240429
C    4.6745003492 -5.9371893080  1.2758338353
H    4.7527797818 -6.3525369387 -0.8288166850
H    5.3408208941 -6.7443290003  1.5374465948
H   -6.1336751008 -5.1021065350  0.0137787446
H   -5.4258283163 -3.5443911143 -3.9125311282
H    6.1887911310  4.9530532408  0.2831340427
H    5.5979328524  3.6949651619 -3.7709023668
Cl   2.6402078411 -3.0556798456  3.1403591070
Cl   3.0806635026 -4.3964202124 -2.0347807514
Cl  -1.7497882722  3.3449444445  3.1566221581
Cl  -3.8029735528  4.1249723114 -1.7468477372
Cl   4.0657140505  3.5886384727  1.5879847315
Cl   3.3270398326  2.0203902585 -3.4936459918
Cl  -4.1328049583 -3.7414912443  1.5109496758
Cl  -3.2386768871 -1.8053062497 -3.4177169458
Cl   0.0174494057  0.0158706647  2.4256047721
78
aligned d3map frame 53
N   -0.2384046952 -2.0273185515 -0.1160064330
N   -1.9768170481  0.2757416515 -0.0640890323
C    2.0809100715 -2.7479148246  0.1709899185
C    0.7241080123 -2.9899491255  0.0248533431
C    0.1296513821 -4.2856759588 -0.1390846406
H    0.6611296881 -5.2154853454 -0.0725646501
C   -1.1837930449 -4.0851143047 -0.4111023926
H   -1.9384284196 -4.8250044459 -0.5947500433
C   -1.4059996118 -2.6647022435 -0.3819133091
C   -2.6531720377 -2.0565665532 -0.5238075554
C   -2.9150001330 -0.6826999998 -0.3235998612
C   -4.2033359195 -0.0904617340 -0.3852639311
H   -5.1187096562 -0.6081406578 -0.5922872052
C   -4.0377662293  1.2492179859 -0.1368547806
H   -4.7973571612  2.0050446222 -0.0951040233
C   -2.6482991646  1.4647084187  0.0281775326
C   -3.7704317033 -2.9297794726 -0.9337536826
C   -4.8204537637 -3.2614951192 -0.0776414117
C   -5.8466848527 -4.0994759618 -0.4807789619
C   -5.8324291469 -4.6280333058 -1.7592432592
H   -6.6244349394 -5.2865983861 -2.0774349024
C   -4.8010824827 -4.3253213687 -2.6331498346
C   -3.7851377351 -3.4845534879 -2.2165729352
N    0.2758750303  2.0227156406 -0.1445775810
N    1.9948451487 -0.2936704415 -0.0832316635
C   -2.0476141254  2.7425330292  0.0895981221
C   -0.6908255696  2.9853603992 -0.0528175094
C   -0.1050321899  4.2743163668 -0.2934139547
H   -0.6393677218  5.2045317925 -0.2654514086
C    1.2013976089  4.0643373425 -0.5885154990
H    1.9451505307  4.7901801439 -0.8513124742
C    1.4362949376  2.6499638528 -0.4660327984
C    2.6681491650  2.0222177632 -0.6297139473
C    2.9274482349  0.6589546887 -0.3626329402
C    4.2269037783  0.0892776615 -0.3347953458
H    5.1435230359  0.6193859992 -0.5025236959
C    4.0691894712 -1.2409548247 -0.0350573760
H    4.8327758075 -1.9862305231  0.0768615283
C    2.6757774781 -1.4699864386  0.0802134036
C    3.7755000496  2.8126529611 -1.2073458765
C    4.4695812171  3.7946370633 -0.5031723898
C    5.4611506468  4.5524727628 -1.1079460924
C    5.7765435033  4.3298840971 -2.4374384555
H    6.5402279724  4.9237782393 -2.9147105261
C    5.1179336484  3.3473490996 -3.1594511224
C    4.1296732465  2.6004451964 -2.5411315744
Fe   0.0125671918  0.0010084317  0.2913542290
C   -2.9601585049  3.9103325598  0.1191031952
C   -3.3417410386  4.4964099735  1.3236852083
C   -3.4663187443  4.4517462139 -1.0605585760
C   -4.2069755285  5.5782386232  1.3534371816
C   -4.3302201323  5.5339071680 -1.0488368682
H   -4.4908140195  6.0118596133  2.2983258684
C   -4.6994600431  6.0900930552  0.1647280398
H   -4.7075669691  5.9319518436 -1.9765675155
H   -5.3754551716  6.9305033730  0.1836157113
C    2.9803960740 -3.9220279242  0.2448223836
C    3.1966154096 -4.5971678069  1.4432250297
C    3.6206869775 -4.3976366739 -0.8982445578
C    4.0211507584 -5.7096420238  1.5047952206
C    4.4518679183 -5.5051153554 -0.8529118146
H    4.1708517762 -6.2143660526  2.4461423982
C    4.6437495447 -6.1604879612  0.3525676437
H    4.9344293150 -5.8465586497 -1.7541238523
H    5.2918008826 -7.0257929652  0.3932914578
H   -6.6388032439 -4.3416140764  0.2082491852
H   -4.7814965756 -4.7387859748 -3.6274954098
H    5.9757522804  5.3097491246 -0.5374348434
H    5.3580295556  3.1641430184 -4.1947493354
Cl   2.4279565313 -4.0074045050  2.8734571888
Cl   3.3560467957 -3.5862062095 -2.3988218615
Cl  -2.7072030377  3.8425547607  2.7931776637
Cl  -2.9923137344  3.7433896711 -2.5645432211
Cl   4.0868897942  4.0517591945  1.1638266841
Cl   3.2858431480  1.3883377986 -3.4407192404
Cl  -4.8054477934 -2.6484287132  1.5382089613
Cl  -2.5049523958 -3.0960768270 -3.3131410573
Cl   0.0210981660  0.0448183308  2.4223974883
78
aligned d3map frame 54
N   -0.2398081427 -2.0258093230 -0.1160895357
N   -1.9734151811  0.2817127335 -0.0618990623
C    2.0572263761 -2.7261159861  0.2956255819
C    0.7097434903 -2.9844583320  0.0910193680
C    0.1086106218 -4.2835592144 -0.0378321231
H    0.6252218083 -5.2152627926  0.0901083144
C   -1.1902043717 -4.0860282976 -0.3762625561
H   -1.9442480711 -4.8260014041 -0.5640475000
C   -1.4101185756 -2.6634251904 -0.3891713348
C   -2.6437515558 -2.0480469387 -0.5521238133
C   -2.9095745764 -0.6756579630 -0.3086303085
C   -4.2030079951 -0.1022939515 -0.2604985658
H   -5.1209370542 -0.6281902205 -0.4243554476
C   -4.0397225477  1.2292298579  0.0460840023
H   -4.8084365552  1.9638000185  0.1770676207
C   -2.6461917903  1.4570289967  0.1305777986
C   -3.7718732868 -2.8843766332 -1.0210754191
C   -4.7265759313 -3.4223754006 -0.1611270158
C   -5.7804429294 -4.1827209944 -0.6413188016
C   -5.8909004959 -4.4112652297 -2.0034881354
H   -6.7126700654 -4.9941075163 -2.3814915973
C   -4.9519649481 -3.8987542921 -2.8814695539
C   -3.9016089227 -3.1440925470 -2.3846388851
N    0.2769618393  2.0194658782 -0.1471424391
N    1.9938630455 -0.2838894223 -0.0810801880
C   -2.0299489391  2.7248619266  0.2461185667
C   -0.6807222049  2.9724519088  0.0177204119
C   -0.1004133147  4.2700155346 -0.2007471670
H   -0.6336036433  5.1987180628 -0.1388592216
C    1.1980851483  4.0702618028 -0.5396427128
H    1.9342185019  4.8080828469 -0.7937452868
C    1.4408089796  2.6551785256 -0.4632215229
C    2.6712678193  2.0345496016 -0.6131469304
C    2.9312878496  0.6643022438 -0.3500299540
C    4.2234655895  0.0915685363 -0.2877717988
H    5.1502031189  0.6063633204 -0.4436174554
C    4.0555186485 -1.2351647821  0.0365906391
H    4.8145982135 -1.9799129555  0.1701196951
C    2.6638097998 -1.4554017277  0.1340064486
C    3.8270606696  2.8331081666 -1.0787249695
C    4.5432300338  3.6856484142 -0.2412032027
C    5.6416731128  4.3955797863 -0.7036774218
C    6.0335075902  4.2578174722 -2.0223895167
H    6.8905036172  4.8031613302 -2.3849123723
C    5.3421825524  3.4184820060 -2.8809881152
C    4.2486347001  2.7176240242 -2.4026293625
Fe   0.0125671918  0.0010084317  0.2913542290
C   -2.8904881673  3.8810751588  0.5822478688
C   -2.8964513849  4.3642624155  1.8903364860
C   -3.7004313995  4.5229194360 -0.3506039636
C   -3.6877395702  5.4395355796  2.2613925055
C   -4.4959202115  5.5998702817  0.0034409115
H   -3.6714679393  5.7822903240  3.2819363364
C   -4.4872042609  6.0514953896  1.3123600866
H   -5.1113295602  6.0797066937 -0.7397480846
H   -5.1068613957  6.8888245092  1.5927012758
C    2.9680999935 -3.8418255796  0.6365703788
C    3.3367305671 -4.0364816239  1.9673599757
C    3.5229775172 -4.6800021506 -0.3255596832
C    4.2391104441 -5.0212928849  2.3262917160
C    4.4318202964 -5.6646100182  0.0177926587
H    4.5060180127 -5.1431226734  3.3630159905
C    4.7878915055 -5.8263829866  1.3455155236
H    4.8564239400 -6.2889675207 -0.7500921841
H    5.5045098037 -6.5815934874  1.6169431449
H   -6.5038720866 -4.5881956327  0.0478577959
H   -5.0269468662 -4.0749059807 -3.9421545227
H    6.1794256571  5.0447959494 -0.0304548810
H    5.6407512595  3.3052381546 -3.9101335911
Cl   2.6421213449 -3.0059355786  3.1690736572
Cl   3.0847467541 -4.4470750321 -1.9795765927
Cl  -1.8889148410  3.5845658616  3.0591128644
Cl  -3.6860845370  3.9668385526 -1.9883753457
Cl   4.0574694397  3.8262294642  1.4080212570
Cl   3.3664142376  1.6703343301 -3.4580421247
Cl  -4.5625525689 -3.1315586220  1.5366989620
Cl  -2.7233921182 -2.4934145943 -3.4692507595
Cl   0.0226309679  0.0147610782  2.4264092158
78
aligned d3map frame 55
N   -0.2706922228 -2.0173004302 -0.1129349159
N   -1.9729966669  0.2478339464 -0.1051713774
C    2.0430544888 -2.6887911133 -0.5555590908
C    0.6629594451 -2.9480544539 -0.4643208414
C    0.0330768064 -4.2140318536 -0.6013275702
H    0.5188544247 -5.1202731937 -0.9052396097
C   -1.2887881735 -4.0360037704 -0.2678761772
H   -2.0688595218 -4.7709130079 -0.2458853555
C   -1.4505237952 -2.6626429458  0.0322253568
C   -2.6901494960 -2.0351881680  0.3732951349
C   -2.9285237188 -0.6815172282  0.2344993456
C   -4.2145032310 -0.0359421176  0.2775272450
H   -5.1355413153 -0.5109650870  0.5535820838
C   -4.0273760060  1.2422810015 -0.1322743324
H   -4.7687245979  2.0108999646 -0.2472905430
C   -2.6152343787  1.4206420638 -0.3411481032
C   -3.7239969326 -2.9364529594  0.9172597520
C   -3.5051091589 -3.4900757592  2.1826478048
C   -4.4131862290 -4.3616959939  2.7591914305
C   -5.5616587176 -4.7027797407  2.0655145994
H   -6.2721244420 -5.3858109648  2.5048064552
C   -5.8028611824 -4.1772686367  0.8073423789
C   -4.8867157455 -3.3029743144  0.2431701810
N    0.2903567577  2.0157393573 -0.1410717354
N    1.9906035031 -0.2703199238 -0.1213694693
C   -2.0191697210  2.6474212298 -0.6558220207
C   -0.6442513815  2.9282915053 -0.5347972477
C   -0.0198590420  4.1922234806 -0.7057552860
H   -0.5008515076  5.0876815404 -1.0428420544
C    1.3006433355  4.0353265928 -0.3549000421
H    2.0712902321  4.7811408449 -0.3481577824
C    1.4713522104  2.6706752200 -0.0248700238
C    2.7114147105  2.0366885333  0.2759749321
C    2.9442915088  0.6809817582  0.1503385290
C    4.2414471545  0.0585601902  0.1571295713
H    5.1648065966  0.5672005619  0.3544713319
C    4.0561984174 -1.2447742220 -0.1660834571
H    4.8009572771 -2.0084201833 -0.2767962151
C    2.6412800603 -1.4482995843 -0.3173189845
C    3.8322735443  2.9013525989  0.7104484613
C    3.9698846542  3.1829232231  2.0698417792
C    5.0134926612  3.9634129142  2.5397551941
C    5.9334304715  4.4767892864  1.6421722122
H    6.7498399879  5.0834122153  2.0010391653
C    5.8166569140  4.2196924063  0.2866354682
C    4.7690335197  3.4343507637 -0.1679452605
Fe   0.0125671918  0.0010084317  0.2913542290
C   -2.9109592935  3.7214098498 -1.1390328874
C   -3.1966026257  4.8666360770 -0.3949254714
C   -3.5004687970  3.6056047357 -2.4003302081
C   -4.0227520395  5.8629341340 -0.8904753117
C   -4.3264989442  4.5930205401 -2.9098813226
H   -4.2260930428  6.7333770250 -0.2886436543
C   -4.5820604906  5.7203651254 -2.1495087478
H   -4.7578681354  4.4736532581 -3.8907072130
H   -5.2219567799  6.4924972325 -2.5392054317
C    2.9307405472 -3.8423405332 -0.8160686098
C    3.1258860653 -4.8338407467  0.1455597467
C    3.6027463660 -3.9750769289 -2.0316700584
C    3.9503975540 -5.9207111569 -0.0976964223
C    4.4253254753 -5.0592974290 -2.2903553113
H    4.0875442501 -6.6679966157  0.6674361802
C    4.5926253220 -6.0310811363 -1.3183916782
H    4.9229301752 -5.1355690684 -3.2422567848
H    5.2307348646 -6.8775718840 -1.5135329811
H   -4.2140146985 -4.7621019402  3.7392650913
H   -6.6905194051 -4.4457454042  0.2575145140
H    5.1007059635  4.1591347347  3.5958264316
H    6.5307170519  4.6183043031 -0.4156042015
Cl   2.3458403648 -4.6755570959  1.6771937467
Cl   3.3814861237 -2.7598461864 -3.2397015864
Cl  -2.5334945874  5.0132540713  1.1937463067
Cl  -3.1676271675  2.2025315925 -3.3519652259
Cl   2.8105289794  2.5173286033  3.1657041348
Cl   4.6124263086  3.0941297088 -1.8557282083
Cl  -2.0735512160 -3.0436442702  3.0462387850
Cl  -5.1652829073 -2.6887375394 -1.3494546992
Cl   0.0352270992 -0.0029017318  2.4251185133
78
aligned d3map frame 56
N   -0.2687752267 -2.0230708914 -0.1094304546
N   -1.9740235180  0.2618534744 -0.0656724977
C    2.0333483855 -2.6809091258 -0.5819890779
C    0.6868118654 -2.9526625708 -0.3989979148
C    0.0848805967 -4.2593704111 -0.4040145936
H    0.6043314331 -5.1739298761 -0.6170600624
C   -1.2154581207 -4.0992405262 -0.0522939059
H   -1.9702159957 -4.8501223735  0.0704746440
C   -1.4383349557 -2.6871917528  0.0955702699
C   -2.6681614902 -2.0751887136  0.3278977186
C   -2.9232964383 -0.6952153996  0.1674479169
C   -4.2122942240 -0.1178023617  0.0753923477
H   -5.1404267617 -0.6381845621  0.2111853272
C   -4.0307979769  1.2060771165 -0.2528182608
H   -4.7880624823  1.9492907914 -0.4131831966
C   -2.6341279249  1.4237629776 -0.3265270212
C   -3.8141915462 -2.9226400107  0.7229175318
C   -4.1885977747 -2.9679097922  2.0661763793
C   -5.2534969620 -3.7464547139  2.4875982498
C   -5.9662564426 -4.4845981889  1.5576386215
H   -6.7988554856 -5.0888710530  1.8817504599
C   -5.6192139514 -4.4546010784  0.2179996172
C   -4.5479141668 -3.6767285227 -0.1891361060
N    0.2907542423  2.0175883305 -0.1412354145
N    1.9968760301 -0.2598727402 -0.0826693882
C   -2.0214023912  2.6873574958 -0.5493273396
C   -0.6655562011  2.9496467420 -0.4158694011
C   -0.0531282257  4.2524271120 -0.4493076200
H   -0.5651552508  5.1641928943 -0.6852165916
C    1.2481949090  4.0884077773 -0.1032929925
H    2.0078771476  4.8405865842 -0.0083050719
C    1.4616383053  2.6796933417  0.0662013346
C    2.6878954726  2.0687098039  0.3264356549
C    2.9499667414  0.6917135406  0.1594435688
C    4.2346878349  0.1043324409  0.0886615670
H    5.1629054972  0.6184510456  0.2449352475
C    4.0478561273 -1.2152381612 -0.2556720568
H    4.7972235975 -1.9659160435 -0.4075250437
C    2.6506865173 -1.4233763305 -0.3404608946
C    3.7874527360  2.9355822443  0.8069717601
C    3.8772663447  3.1818439493  2.1773401217
C    4.8597335024  4.0079535165  2.6984111792
C    5.7703102951  4.6006484987  1.8392520848
H    6.5389090797  5.2481428488  2.2355472021
C    5.7079667489  4.3697990069  0.4748311108
C    4.7183274560  3.5416793406 -0.0310490015
Fe   0.0125671918  0.0010084317  0.2913542290
C   -2.9230615641  3.8121797713 -0.8766393195
C   -3.2305486951  4.8077100855  0.0497726732
C   -3.5045663078  3.9051652395 -2.1411629632
C   -4.0733677454  5.8591500502 -0.2728268910
C   -4.3487768540  4.9488319264 -2.4785237279
H   -4.2918731311  6.6133969333  0.4642830228
C   -4.6288103871  5.9246664133 -1.5383617361
H   -4.7744405170  4.9918885949 -3.4666747704
H   -5.2861533427  6.7406152640 -1.7942952153
C    2.9013913709 -3.7732512335 -1.0799327963
C    3.4167822350 -4.7763130454 -0.2631430639
C    3.2040162046 -3.8231690479 -2.4416888168
C    4.1987787477 -5.7984714983 -0.7826441025
C    3.9774007262 -4.8382319615 -2.9765130675
H    4.5834456790 -6.5614068418 -0.1238080720
C    4.4713411631 -5.8262031206 -2.1394390220
H    4.1854314387 -4.8562440949 -4.0343267322
H    5.0720178756 -6.6234437562 -2.5495694631
H   -5.5167484363 -3.7681345800  3.5328093873
H   -6.1737108863 -5.0236743499 -0.5108951778
H    4.9012587316  4.1837329832  3.7595257472
H    6.4165279666  4.8301139947 -0.1960758276
Cl   3.0719248640 -4.7271969207  1.4302343858
Cl   2.5650647468 -2.5899943343 -3.4731600698
Cl  -2.5597825012  4.7086316995  1.6379120427
Cl  -3.1336823256  2.6903986856 -3.3099025586
Cl   2.7188619358  2.4247587750  3.2197889243
Cl   4.6151729066  3.2519460557 -1.7321561498
Cl  -3.2805725801 -2.0374077215  3.2046585187
Cl  -4.1034733659 -3.6161312942 -1.8589145283
Cl   0.0240433197  0.0274917687  2.4245168621
78
aligned d3map frame 57
N   -0.2792126485 -2.0135794634 -0.1344371814
N   -1.9757297747  0.2476610106 -0.0897796013
C    2.0300821601 -2.6437433150 -0.6650696807
C    0.6581550612 -2.9136922903 -0.5635571218
C    0.0338395764 -4.1704315958 -0.7865198095
H    0.5270149558 -5.0584351722 -1.1315141046
C   -1.2909015117 -4.0168053440 -0.4572248195
H   -2.0697108415 -4.7533880727 -0.4992285170
C   -1.4583497647 -2.6658690991 -0.0629233180
C   -2.7092055021 -2.0541534115  0.2778804860
C   -2.9288030200 -0.6911904855  0.2235704932
C   -4.2078180952 -0.0376485952  0.3510148046
H   -5.1187453366 -0.5183279216  0.6488329116
C   -4.0240240053  1.2602601717  0.0102974284
H   -4.7532001408  2.0466974125 -0.0312559665
C   -2.6220726895  1.4350599863 -0.2507474643
C   -3.8071075211 -2.9711584630  0.6271459534
C   -3.7078980610 -3.7536668843  1.7824724961
C   -4.7148961275 -4.6270368113  2.1562923077
C   -5.8490518622 -4.7362786253  1.3700234700
H   -6.6399548274 -5.4102795453  1.6588401798
C   -5.9691160005 -3.9918998539  0.2096219514
C   -4.9512568185 -3.1269432932 -0.1569318676
N    0.2989121603  2.0096633030 -0.1652880211
N    1.9967451089 -0.2528655806 -0.1064038289
C   -2.0289923120  2.6544099007 -0.5839680138
C   -0.6500915781  2.9107750661 -0.5657801313
C   -0.0247074334  4.1538445241 -0.8526770218
H   -0.5192622503  5.0346042979 -1.2131065567
C    1.3114786739  3.9946337077 -0.5806984928
H    2.0925233496  4.7229348295 -0.6813230071
C    1.4834370075  2.6546314784 -0.1517668438
C    2.7428780197  2.0532944037  0.1757887562
C    2.9614172806  0.6896587531  0.1556707737
C    4.2457505106  0.0384612268  0.2254361566
H    5.1670367030  0.5204587654  0.4877707943
C    4.0512829995 -1.2551014944 -0.1275927498
H    4.7827459771 -2.0352854716 -0.2147042494
C    2.6381006932 -1.4342624567 -0.3169338313
C    3.8349372545  3.0038376979  0.4452683991
C    3.7389435461  3.8533679230  1.5534010950
C    4.7032070408  4.8093798551  1.8229549067
C    5.7896926554  4.9357557382  0.9749713711
H    6.5426411087  5.6824391147  1.1743267174
C    5.9113062191  4.1171932255 -0.1345478520
C    4.9374621956  3.1669978906 -0.3945672259
Fe   0.0125671918  0.0010084317  0.2913542290
C   -2.9133105734  3.7795493402 -0.9586469887
C   -3.1475063627  4.8493881653 -0.0968237218
C   -3.5109272750  3.8132587765 -2.2184379010
C   -3.9465411136  5.9163645204 -0.4751806771
C   -4.3014553104  4.8782196887 -2.6152326698
H   -4.1148466252  6.7266596365  0.2152043229
C   -4.5142534895  5.9270836038 -1.7375680299
H   -4.7372319372  4.8812970208 -3.6014422360
H   -5.1284593874  6.7597270839 -2.0410546977
C    2.8867018512 -3.6977965955 -1.2583182262
C    3.5467293381 -4.6695375349 -0.5131544034
C    3.0364548017 -3.7234669707 -2.6446457572
C    4.3359296369 -5.6308778670 -1.1259015457
C    3.8167508101 -4.6792339716 -3.2722126040
H    4.8400994007 -6.3709249876 -0.5253800871
C    4.4659460651 -5.6299239208 -2.5039609063
H    3.9090752857 -4.6704057220 -4.3463007917
H    5.0783920594 -6.3765145227 -2.9849954074
H   -4.6046317561 -5.2099150778  3.0564074794
H   -6.8405694109 -4.0816739660 -0.4191375980
H    4.5948096991  5.4472195486  2.6847671114
H    6.7464958040  4.2198702238 -0.8091598680
Cl   3.3640372202 -4.6604653651  1.2043472524
Cl   2.2221080765 -2.5225733516 -3.5823090692
Cl  -2.4275646704  4.8217425544  1.4732459136
Cl  -3.2291637585  2.4981436632 -3.3021660330
Cl   2.3858402254  3.6838333603  2.6146650079
Cl   5.0612622148  2.2124281549 -1.8331308267
Cl  -2.3033233858 -3.5938372106  2.7750247469
Cl  -5.0818463641 -2.2591039540 -1.6520620747
Cl   0.0142040057  0.0228798268  2.4243745441
78
aligned d3map frame 58
N   -0.2386867267 -2.0253975381 -0.1185535264
N   -1.9738955040  0.2741830502 -0.0692014035
C    2.0665155132 -2.7202524927  0.2853929930
C    0.7115293144 -2.9785925544  0.0847908471
C    0.1204781362 -4.2796879397 -0.0406023883
H    0.6453310407 -5.2070219129  0.0869213705
C   -1.1848411719 -4.0897065705 -0.3613142109
H   -1.9397214250 -4.8291421639 -0.5446046296
C   -1.4105573208 -2.6692330536 -0.3810961177
C   -2.6460659239 -2.0595174190 -0.5383083853
C   -2.9096436567 -0.6795195840 -0.3172022050
C   -4.2042592008 -0.1009904602 -0.2893861907
H   -5.1234353075 -0.6242590978 -0.4662084266
C   -4.0423023038  1.2281548002  0.0132191346
H   -4.8092738993  1.9661848204  0.1333515926
C   -2.6452253407  1.4579491180  0.1075751767
C   -3.7866238747 -2.8969772520 -0.9678734506
C   -4.7868619337 -3.3151772705 -0.0921424960
C   -5.8724185540 -4.0565517120 -0.5305867489
C   -5.9721666621 -4.3889949260 -1.8708226812
H   -6.8196239489 -4.9568100049 -2.2226241807
C   -4.9886112076 -4.0017362600 -2.7645202376
C   -3.9056207398 -3.2683627244 -2.3068500804
N    0.2822782987  2.0185831491 -0.1478336832
N    1.9920545477 -0.2867914681 -0.0894751106
C   -2.0380161146  2.7225504695  0.1938663207
C   -0.6819585782  2.9691734572 -0.0416111198
C   -0.1261856806  4.2538192238 -0.3577887696
H   -0.6771600210  5.1754395709 -0.3625512904
C    1.1701945625  4.0495264010 -0.7024861069
H    1.8884197669  4.7763095717 -1.0280702898
C    1.4347439812  2.6453293319 -0.5319140519
C    2.6589677167  2.0200319553 -0.6986657882
C    2.9242850882  0.6558736032 -0.3794765514
C    4.2222530829  0.0930835601 -0.3013649590
H    5.1389694070  0.6233229856 -0.4688167941
C    4.0634129938 -1.2263907292  0.0452859623
H    4.8284736873 -1.9639398536  0.1899644825
C    2.6674713857 -1.4561825341  0.1412036548
C    3.7926943874  2.7580329631 -1.2901972940
C    4.4855230165  3.7767276753 -0.6361081142
C    5.5742651433  4.4017871395 -1.2254423599
C    5.9886629291  4.0106437742 -2.4870757072
H    6.8420422132  4.4874316977 -2.9423973386
C    5.3186444712  3.0065648659 -3.1663063568
C    4.2340691157  2.3913961337 -2.5664869701
Fe   0.0125671918  0.0010084317  0.2913542290
C   -2.8961408459  3.9028407136  0.4391789631
C   -2.8857886110  4.5088674855  1.6960482721
C   -3.7014049504  4.4648172148 -0.5484793184
C   -3.6568220075  5.6284616296  1.9631730656
C   -4.4789340563  5.5833714568 -0.2966690939
H   -3.6266538212  6.0747061196  2.9442767892
C   -4.4513692194  6.1595664629  0.9624537951
H   -5.0893285256  5.9984315855 -1.0817025609
H   -5.0535364957  7.0321966304  1.1619385237
C    2.9790439725 -3.8508772990  0.5689131680
C    3.3281113974 -4.1500483685  1.8836475365
C    3.5500006645 -4.6088390419 -0.4516334498
C    4.2363014310 -5.1591961383  2.1740679937
C    4.4591047888 -5.6232022920 -0.1768109176
H    4.4964389301 -5.3666775258  3.2011045667
C    4.8021867582 -5.8892946774  1.1389509952
H    4.8900616994 -6.1914227869 -0.9864999241
H    5.5258203911 -6.6678181280  1.3582146600
H   -6.6272623352 -4.3627239964  0.1751639791
H   -5.0557410447 -4.2543005662 -3.8093203428
H    6.0949324083  5.1795620485 -0.6893389365
H    5.6309978911  2.6960562727 -4.1512183871
Cl   2.6028900497 -3.2265463427  3.1529170862
Cl   3.1190329357 -4.2465136882 -2.0860057380
Cl  -1.8886691387  3.8236980243  2.9292036367
Cl  -3.6960430974  3.7592154450 -2.1271981538
Cl   3.9981282173  4.2340946872  0.9586423538
Cl   3.3841858324  1.1489057559 -3.4168147980
Cl  -4.6394328304 -2.9045631731  1.5823234648
Cl  -2.6712112977 -2.7823670753 -3.4181701560
Cl   0.0141172265  0.0015057044  2.4255615650
78
aligned d3map frame 59
N   -0.2531925993 -2.0220796611 -0.1091460223
N   -1.9716478199  0.2798650589 -0.0782386090
C    2.0696145847 -2.6830663820  0.3266427515
C    0.7059312373 -2.9663550250  0.0412669327
C    0.1545221103 -4.2530412513 -0.1955547918
H    0.6892260525 -5.1800148678 -0.1423971286
C   -1.1638677097 -4.0622960414 -0.5188404461
H   -1.8822564175 -4.8096969780 -0.7959712225
C   -1.4179108197 -2.6650367439 -0.4181977931
C   -2.6731777609 -2.0400564785 -0.5114745105
C   -2.9154181581 -0.6762870603 -0.2742139529
C   -4.2198777253 -0.1026169662 -0.1012192674
H   -5.1440655995 -0.6373712437 -0.1986859265
C   -4.0420544957  1.1999827633  0.2391507173
H   -4.7934147797  1.9335652575  0.4580722596
C   -2.6305765323  1.4501087124  0.2169002526
C   -3.8444695826 -2.8992311120 -0.7800811259
C   -4.2778618563 -3.8573921603  0.1387244566
C   -5.3619738727 -4.6767413328 -0.1262980868
C   -6.0402298801 -4.5449457772 -1.3256412092
H   -6.8840517372 -5.1824134180 -1.5379873930
C   -5.6482263067 -3.5930254312 -2.2512640426
C   -4.5619520992 -2.7820573169 -1.9720855438
N    0.2779368214  2.0166453571 -0.1423130492
N    1.9944054740 -0.2699615263 -0.0953461158
C   -2.0285481281  2.6882828616  0.3670449782
C   -0.6654450893  2.9619853588  0.0690318446
C   -0.1109533106  4.2519361426 -0.1404960401
H   -0.6391909094  5.1808547254 -0.0450848164
C    1.1962670070  4.0623691418 -0.5139369797
H    1.9273903819  4.8068770595 -0.7633899606
C    1.4351539448  2.6597866174 -0.4719774754
C    2.6808404027  2.0319310672 -0.6107092630
C    2.9340245306  0.6812450658 -0.3399874110
C    4.2414496282  0.1082234471 -0.2060067604
H    5.1621686230  0.6396237347 -0.3479212334
C    4.0719689240 -1.1875342452  0.1651848491
H    4.8269800437 -1.9189541833  0.3742978125
C    2.6583511990 -1.4346572461  0.1913649278
C    3.8304729731  2.8942804684 -0.9723397574
C    4.6111846409  3.5137249040  0.0004358308
C    5.6751630154  4.3315532547 -0.3437099953
C    5.9636763523  4.5450410433 -1.6803713041
H    6.7861761152  5.1863757445 -1.9569854801
C    5.2014456633  3.9483564316 -2.6692130554
C    4.1433168750  3.1296009303 -2.3076465847
Fe   0.0125671918  0.0010084317  0.2913542290
C   -2.8104278638  3.8423000119  0.8622124526
C   -2.6587761759  4.2184062767  2.1973823314
C   -3.6405521083  4.6116767897  0.0528015181
C   -3.3135201150  5.3252257316  2.7098346972
C   -4.2952219918  5.7276310946  0.5492090716
H   -3.1788407550  5.5925156399  3.7449695269
C   -4.1253817842  6.0775015325  1.8782107094
H   -4.9222099082  6.3179932013 -0.0994634027
H   -4.6279151143  6.9486818668  2.2685003375
C    2.9266866560 -3.7990641411  0.7829164502
C    3.2174789377 -3.9090913678  2.1432076025
C    3.4691821776 -4.7463027377 -0.0797480026
C    4.0200245980 -4.9284493956  2.6284516831
C    4.2664459582 -5.7764464599  0.3908392965
H    4.2268847670 -4.9838149261  3.6846995925
C    4.5389856889 -5.8598829118  1.7460947416
H    4.6687090763 -6.4970550715 -0.3024438262
H    5.1635909816 -6.6566592587  2.1187404318
H   -5.6702237777 -5.4048560727  0.6061830831
H   -6.1756728472 -3.4776256120 -3.1838564787
H    6.2615573587  4.8000835809  0.4299506627
H    5.4128095926  4.1128232035 -3.7128795402
Cl   2.5317339983 -2.7423892576  3.2239580252
Cl   3.1545399463 -4.6046326672 -1.7734418137
Cl  -1.6291395945  3.2631976061  3.2050746413
Cl  -3.8216410705  4.1679768802 -1.6072175063
Cl   4.2110290531  3.2571751204  1.6594800372
Cl   3.1771753442  2.3895254676 -3.5287263212
Cl  -3.4692856790 -3.9896210914  1.6605975413
Cl  -4.0702873613 -1.5917248373 -3.1291731719
Cl   0.0188865769  0.0319176001  2.4251784743
78
aligned d3map frame 60
N   -0.2733001670 -2.0134178549 -0.1285000828
N   -1.9682242457  0.2623041672 -0.1104780112
C    2.0343770966 -2.6722834353 -0.6115395677
C    0.6515427901 -2.9234448609 -0.5588117934
C   -0.0015314397 -4.1609613254 -0.8089194244
H    0.4582955869 -5.0491147549 -1.1978643602
C   -1.3201939370 -3.9925597619 -0.4604225210
H   -2.1040597634 -4.7213972685 -0.5001564010
C   -1.4619539850 -2.6470794466 -0.0436984508
C   -2.6938600042 -2.0236545137  0.3393118508
C   -2.9176053847 -0.6644120707  0.2647283575
C   -4.1911570923  0.0011379849  0.3960455731
H   -5.0965244946 -0.4631596591  0.7358250559
C   -4.0106185690  1.2788561738 -0.0148384147
H   -4.7390696161  2.0632047149 -0.0780740786
C   -2.6095534273  1.4371537512 -0.3133833813
C   -3.7671823172 -2.9287463873  0.7879912751
C   -3.5996009030 -3.6373416452  1.9819080146
C   -4.5853623786 -4.4819732500  2.4650418584
C   -5.7580295158 -4.6392366252  1.7468954732
H   -6.5321983202 -5.2897586482  2.1211595009
C   -5.9420346936 -3.9739683897  0.5465119316
C   -4.9489120795 -3.1315297098  0.0743638804
N    0.2808271051  2.0110122475 -0.1604450545
N    1.9913521765 -0.2611563862 -0.1248442352
C   -2.0183897087  2.6545644967 -0.6897777090
C   -0.6377398678  2.9158520755 -0.6132420238
C    0.0172333146  4.1525146673 -0.8656630794
H   -0.4386647441  5.0351796077 -1.2722499250
C    1.3311974968  3.9891859788 -0.4923131368
H    2.1184242084  4.7165556018 -0.5344274277
C    1.4701597380  2.6481105118 -0.0686344306
C    2.7006014349  2.0286952730  0.3279955750
C    2.9367335653  0.6720306994  0.2334241111
C    4.2129506152  0.0149304409  0.3720355952
H    5.1219526608  0.4937890949  0.6818501700
C    4.0329374045 -1.2753675907  0.0017028963
H    4.7630773950 -2.0613159185 -0.0408967139
C    2.6317896667 -1.4464502599 -0.2847679789
C    3.7275901798  2.9345373779  0.8749782047
C    3.4765153940  3.5419428115  2.1105462211
C    4.4008702888  4.3862792615  2.7026157076
C    5.5985506795  4.6436152946  2.0572260190
H    6.3256077227  5.2956281750  2.5170003597
C    5.8685271756  4.0737569445  0.8248292000
C    4.9333046594  3.2316428473  0.2422970404
Fe   0.0125671918  0.0010084317  0.2913542290
C   -2.9096575459  3.7126580809 -1.1968416296
C   -3.0859161723  4.9395032510 -0.5501098134
C   -3.6068064428  3.5135660034 -2.3932353251
C   -3.8903115363  5.9328594715 -1.0853444572
C   -4.4139777481  4.4963631808 -2.9396445538
H   -4.0041052832  6.8681088842 -0.5599220457
C   -4.5442957820  5.7097231568 -2.2855220681
H   -4.9273345674  4.3071666643 -3.8682039803
H   -5.1700279939  6.4806607484 -2.7088409807
C    2.9250967032 -3.7895962829 -0.9800935432
C    3.0379707414 -4.9430080850 -0.1997834966
C    3.6874079521 -3.7230058859 -2.1491449414
C    3.8591782273 -5.9922297471 -0.5836011273
C    4.5139256738 -4.7624890213 -2.5394093569
H    3.9204373485 -6.8693520823  0.0407046120
C    4.5925424044 -5.8987558543 -1.7524236631
H    5.0832251337 -4.6823778767 -3.4515571298
H    5.2292254891 -6.7166275227 -2.0515671773
H   -4.4281977544 -5.0040766467  3.3957402093
H   -6.8449704615 -4.1074083523 -0.0274328680
H    4.1766968015  4.8324520791  3.6577593772
H    6.7932999991  4.2819176846  0.3105448185
Cl   2.1621172228 -5.0562218812  1.2794895498
Cl   3.5682451138 -2.3193154539 -3.1481880783
Cl  -2.3245958673  5.1972025617  0.9799694460
Cl  -3.4463800088  1.9995272500 -3.2136618237
Cl   1.9896283929  3.1899143493  2.9193725843
Cl   5.2464934182  2.5701291347 -1.3262771445
Cl  -2.1402325998 -3.4247570631  2.8792325211
Cl  -5.1539423516 -2.3520628666 -1.4551817506
Cl   0.0259648222  0.0012558625  2.4238942065
78
aligned d3map frame 61
N   -0.2783343824 -2.0330864843 -0.0668249822
N   -1.9738380898  0.2496513513 -0.0950026038
C    2.0209373298 -2.7041840340 -0.5189734884
C    0.6956806772 -2.9754382612 -0.2183742419
C    0.1225259976 -4.2877894052 -0.0813703640
H    0.6731456700 -5.2068310645 -0.1307188420
C   -1.1983886364 -4.1178319991  0.1627714630
H   -1.9375002481 -4.8709285392  0.3561582460
C   -1.4556748066 -2.7040673476  0.0919405653
C   -2.7086824506 -2.1151842202  0.0035355863
C   -2.9144156356 -0.7326574562 -0.2260237933
C   -4.1403638006 -0.1755193771 -0.6592243190
H   -5.0358045266 -0.7254477517 -0.8757908523
C   -3.9412499526  1.1802591548 -0.7639333253
H   -4.6467292525  1.9228660310 -1.0818018645
C   -2.6016658233  1.4249869928 -0.3834463963
C   -3.9184580233 -2.9564294053  0.0291927526
C   -4.8774130744 -2.7835078787  1.0319053786
C   -6.0441598350 -3.5284611771  1.0542939375
C   -6.2718484738 -4.4701678167  0.0656570561
H   -7.1801660175 -5.0515730688  0.0769641224
C   -5.3449677724 -4.6631378331 -0.9432130009
C   -4.1859866597 -3.9053657879 -0.9595064738
N    0.2930024577  2.0317050527 -0.0966716842
N    1.9950801222 -0.2630806154 -0.1106766512
C   -2.0387985416  2.7252908664 -0.2559816428
C   -0.6884169827  2.9820529008 -0.0980263420
C   -0.1003969858  4.2817893005  0.1013445188
H   -0.6496454399  5.2016413176  0.1536617731
C    1.2357504076  4.0984586610  0.2096375100
H    1.9972848821  4.8377776847  0.3663703960
C    1.4774042322  2.6854333120  0.0812339439
C    2.7293052656  2.0875983753  0.0945230813
C    2.9612726372  0.7035566487 -0.0744353314
C    4.2301198333  0.1321171072 -0.3377744351
H    5.1597757753  0.6663995131 -0.3619122062
C    4.0186934796 -1.2044578111 -0.5744757055
H    4.7469448630 -1.9564894305 -0.8085142886
C    2.6288643865 -1.4293891260 -0.4225811092
C    3.9198818488  2.9590944781  0.1992872744
C    4.6580799154  3.0240495435  1.3803155651
C    5.7763898993  3.8351460211  1.4860684054
C    6.1763603299  4.5883905171  0.3959487916
H    7.0486985169  5.2184670627  0.4718799354
C    5.4678720324  4.5390235211 -0.7921664630
C    4.3468549814  3.7304462842 -0.8804886446
Fe   0.0125671918  0.0010084317  0.2913542290
C   -3.0140197575  3.8298431122 -0.2499097891
C   -3.9748583074  3.9067574087  0.7642211784
C   -3.0718787127  4.7855480803 -1.2649918732
C   -4.9601535531  4.8777005567  0.7568517303
C   -4.0521533946  5.7635583499 -1.2828509964
H   -5.6893755385  4.9012630460  1.5503123840
C   -4.9983283992  5.8008092717 -0.2738539729
H   -4.0754950530  6.4794974948 -2.0895855353
H   -5.7719758762  6.5527846087 -0.2913744604
C    2.8131756586 -3.7892448975 -1.1406609643
C    3.4451234169 -4.8131165138 -0.4438299024
C    2.8894831005 -3.8060121643 -2.5349403371
C    4.1217289028 -5.8240390180 -1.1089795433
C    3.5604516731 -4.8068574977 -3.2133630316
H    4.5983092865 -6.6083475182 -0.5441332032
C    4.1720423211 -5.8171258824 -2.4914379920
H    3.5912375578 -4.7931601405 -4.2908176394
H    4.6911859350 -6.6045813488 -3.0128391960
H   -6.7645015871 -3.3652134542  1.8389606918
H   -5.5187342826 -5.3859836968 -1.7236287227
H    6.3226431337  3.8726147434  2.4142346456
H    5.7774915282  5.1180687172 -1.6469231524
Cl   3.3791249658 -4.8075232364  1.2827596036
Cl   2.1006883503 -2.5490193768 -3.4200239692
Cl  -3.9132048611  2.7712401089  2.0648209594
Cl  -1.9253815579  4.7153698910 -2.5558601389
Cl   4.1372917692  2.0822184421  2.7305213024
Cl   3.4617549801  3.6488925817 -2.3618313743
Cl  -4.5859632167 -1.6220512189  2.2754799697
Cl  -3.0773885734 -4.1013276595 -2.2727001988
Cl   0.0318666325  0.0491474703  2.4242511974
78
aligned d3map frame 62
N   -0.2725773890 -2.0164840975 -0.1152026222
N   -1.9685295858  0.2542669779 -0.1191314354
C    2.0319835811 -2.6799430576 -0.6094282879
C    0.6527885656 -2.9401813519 -0.5138386423
C    0.0085440725 -4.1917410934 -0.7061266398
H    0.4809885465 -5.0920967869 -1.0498362988
C   -1.3120263859 -4.0136014554 -0.3643018327
H   -2.0984762799 -4.7433879747 -0.3801968794
C   -1.4583653169 -2.6532878761 -0.0024824684
C   -2.6899857237 -2.0228047397  0.3765549900
C   -2.9187656789 -0.6671150301  0.2625285660
C   -4.1885336194 -0.0003782337  0.3938738048
H   -5.0954578473 -0.4618560888  0.7326997430
C   -4.0074398406  1.2780671012 -0.0144730208
H   -4.7335413162  2.0656456430 -0.0719010475
C   -2.6070369023  1.4346089286 -0.3079786409
C   -3.7269627359 -2.9203540580  0.9149465201
C   -3.4749683060 -3.5640394547  2.1321945968
C   -4.4052467329 -4.4091597642  2.7122100442
C   -5.6137040055 -4.6294374827  2.0755154529
H   -6.3472647665 -5.2793770065  2.5255296310
C   -5.8855765242 -4.0229255592  0.8616476719
C   -4.9447333718 -3.1813713115  0.2895397956
N    0.2854702761  2.0144283181 -0.1451058106
N    1.9894190070 -0.2658824976 -0.1344049059
C   -2.0151309056  2.6578853478 -0.6562012174
C   -0.6388531436  2.9303303623 -0.5636988290
C    0.0065086695  4.1812330267 -0.7694173980
H   -0.4615337413  5.0744048334 -1.1337566313
C    1.3217774784  4.0102206637 -0.4119075385
H    2.1054489420  4.7428033788 -0.4286216527
C    1.4703467981  2.6517522552 -0.0400525163
C    2.7095188076  2.0245453988  0.3078295984
C    2.9459353972  0.6713147297  0.1793940928
C    4.2338590758  0.0291718385  0.2301830975
H    5.1529656764  0.5233352434  0.4787297358
C    4.0451554718 -1.2618953759 -0.1331678468
H    4.7790069536 -2.0392472429 -0.2272826355
C    2.6314068915 -1.4462147254 -0.3323552122
C    3.7634814039  2.9143592663  0.8375214120
C    3.6356764226  3.3564148172  2.1569051636
C    4.5899039303  4.1784756532  2.7332411170
C    5.6817654008  4.5788022666  1.9840467547
H    6.4271683448  5.2203872117  2.4283217525
C    5.8247291307  4.1671320466  0.6689413815
C    4.8667049949  3.3412198179  0.1041601608
Fe   0.0125671918  0.0010084317  0.2913542290
C   -2.9222561869  3.7243698942 -1.1217008285
C   -3.1493953341  4.8995254772 -0.4021695636
C   -3.6073977562  3.5638912975 -2.3302434188
C   -4.0053239224  5.8820986855 -0.8762073414
C   -4.4700651479  4.5333320344 -2.8106245850
H   -4.1627846751  6.7729924456 -0.2898038306
C   -4.6611732494  5.6949669055 -2.0810671167
H   -4.9825884753  4.3743281193 -3.7460783786
H   -5.3347968779  6.4525168612 -2.4484470890
C    2.9131335892 -3.8047767382 -0.9841473577
C    3.1257059123 -4.8922867847 -0.1367930561
C    3.5517415223 -3.8145847554 -2.2250422894
C    3.9328690086 -5.9532674015 -0.5162072588
C    4.3600001425 -4.8683222782 -2.6171156355
H    4.0780474675 -6.7793360699  0.1615879524
C    4.5428679414 -5.9383630559 -1.7581210256
H    4.8321599430 -4.8430932551 -3.5861124155
H    5.1675617662 -6.7649081942 -2.0583993529
H   -4.1791946827 -4.8776986440  3.6567333320
H   -6.8196005738 -4.1979562131  0.3517481027
H    4.4709732190  4.4924993828  3.7575086524
H    6.6662710617  4.4875800357  0.0776694312
Cl   2.3895826967 -4.8908415364  1.4249294468
Cl   3.3007239446 -2.4869932982 -3.2997475985
Cl  -2.3824141323  5.1080725516  1.1326830654
Cl  -3.3558171820  2.1246794621 -3.2495974588
Cl   2.2685209821  2.8253926132  3.0731018546
Cl   5.0223581594  2.8325169757 -1.5404568832
Cl  -1.9822839604 -3.2506613335  2.9444400867
Cl  -5.2768195250 -2.4714570316 -1.2563358920
Cl   0.0172912105  0.0130628287  2.4252045806
78
aligned d3map frame 63
N   -0.2872101304 -2.0335512710 -0.0591253429
N   -1.9732927084  0.2475166696 -0.1024126842
C    2.0195340360 -2.7144873761 -0.4586588073
C    0.6893377585 -2.9791700214 -0.1651393683
C    0.1137673639 -4.2878872709 -0.0030128719
H    0.6646245793 -5.2073535131 -0.0204153103
C   -1.2107102319 -4.1129305537  0.2134683282
H   -1.9542351428 -4.8596623801  0.4141359755
C   -1.4679023157 -2.7009778785  0.0996853433
C   -2.7175508009 -2.1126698239 -0.0107403290
C   -2.9113768794 -0.7284792676 -0.2617950493
C   -4.1307790831 -0.1640564171 -0.7027882989
H   -5.0206230718 -0.7097497609 -0.9473416314
C   -3.9358178524  1.1950519153 -0.7636781234
H   -4.6388676041  1.9453746560 -1.0660441439
C   -2.6014147457  1.4304403921 -0.3627918130
C   -3.9456667643 -2.9223569275  0.0510393139
C   -4.9063525293 -2.6583416014  1.0345283019
C   -6.1101196663 -3.3396911843  1.0756802090
C   -6.3739629245 -4.3163654697  0.1300849064
H   -7.3130175585 -4.8463851895  0.1532145459
C   -5.4426042443 -4.6083860566 -0.8512876711
C   -4.2474129922 -3.9096654770 -0.8895894743
N    0.2886655497  2.0342788079 -0.0891003657
N    1.9947425386 -0.2608597390 -0.1156475234
C   -2.0464190554  2.7230729573 -0.1709630727
C   -0.6968097211  2.9806299974 -0.0253378747
C   -0.1099533099  4.2755390833  0.2005481420
H   -0.6647374290  5.1881392791  0.3024565142
C    1.2297007438  4.0968462690  0.2511398104
H    1.9916943713  4.8342100185  0.4128164355
C    1.4746838148  2.6891935899  0.0632949181
C    2.7296979109  2.0987650238  0.0127509477
C    2.9558970272  0.7085962895 -0.1476943595
C    4.2157194553  0.1347421926 -0.4459549911
H    5.1411883247  0.6698872935 -0.5313574862
C    4.0056201165 -1.2111692148 -0.6198331077
H    4.7311856537 -1.9667614700 -0.8505391217
C    2.6235180226 -1.4376390006 -0.4112150769
C    3.9174446999  2.9748642864  0.0303441303
C    4.8248589457  2.9505817703  1.0910190411
C    5.9491423636  3.7598175358  1.0996151356
C    6.1860393418  4.6097191760  0.0330211427
H    7.0618844242  5.2397551338  0.0326567480
C    5.3075707366  4.6552934749 -1.0354499501
C    4.1862370646  3.8432931090 -1.0299513500
Fe   0.0125671918  0.0010084317  0.2913542290
C   -3.0451633284  3.8020246602 -0.0468997924
C   -3.9153154252  3.7974492404  1.0478935229
C   -3.2237739316  4.7893404330 -1.0133245228
C   -4.9314933487  4.7285886572  1.1663527370
C   -4.2417369766  5.7238689642 -0.9101025649
H   -5.5877056778  4.6942903016  2.0206239433
C   -5.0953511605  5.6845442376  0.1783956995
H   -4.3673986941  6.4634000979 -1.6840676260
H   -5.8970846345  6.4014108006  0.2568942611
C    2.8147686137 -3.8208556154 -1.0376254046
C    3.3923768980 -4.8511098196 -0.3035256275
C    2.9439665845 -3.8610384774 -2.4277814985
C    4.0589082749 -5.8939005072 -0.9284741738
C    3.6071167867 -4.8927684849 -3.0659684545
H    4.4897024996 -6.6835971208 -0.3351495512
C    4.1582973164 -5.9115731868 -2.3083065656
H    3.6775692469 -4.8960169633 -4.1415119746
H    4.6677848893 -6.7253854778 -2.7997645058
H   -6.8310866651 -3.0985018966  1.8393763196
H   -5.6416867516 -5.3613423991 -1.5964015739
H    6.6279001903  3.7205573421  1.9368921399
H    5.4873761470  5.3085466245 -1.8736599155
Cl   3.2721912921 -4.8133485583  1.4202373936
Cl   2.2262271950 -2.5987360247 -3.3644916489
Cl  -3.6991262488  2.6048642923  2.2794069959
Cl  -2.1796869749  4.8100093092 -2.3899541671
Cl   4.5126846281  1.9028154742  2.4276887676
Cl   3.1120286279  3.8773374126 -2.3831725703
Cl  -4.5722811353 -1.4595442834  2.2324430325
Cl  -3.1385414930 -4.2268365929 -2.1790574478
Cl   0.0204155906  0.0467421702  2.4242675405
78
aligned d3map frame 64
N   -0.2692359479 -2.0354736385 -0.0600172530
N   -1.9682383869  0.2836900531 -0.1017659979
C    2.0644405535 -2.7269810242 -0.2289868953
C    0.7071554727 -2.9763496795 -0.0314010910
C    0.1293027712 -4.2702029314  0.2346739101
H    0.6835053446 -5.1878354758  0.2865443348
C   -1.1962160085 -4.0801166230  0.4263978158
H   -1.9516438141 -4.8082180724  0.6510793501
C   -1.4524502884 -2.6767067875  0.2170544904
C   -2.6805816340 -2.0668794090  0.2117425513
C   -2.8929465599 -0.7041395885 -0.1868029700
C   -4.1227865307 -0.1946294214 -0.6548154772
H   -5.0113186722 -0.7689880814 -0.8359834233
C   -3.9392122570  1.1545989885 -0.8474824517
H   -4.6496312118  1.8666127500 -1.2200037962
C   -2.6073709820  1.4453600068 -0.4578152164
C   -3.8817654798 -2.7152879997  0.7821287876
C   -4.1464634052 -2.4738678677  2.1328328174
C   -5.3063614962 -2.9335832730  2.7320258814
C   -6.2250797912 -3.6401786593  1.9738654993
H   -7.1414788071 -3.9816699700  2.4286171127
C   -5.9818771777 -3.9061113623  0.6377991241
C   -4.8116689013 -3.4457616383  0.0516712870
N    0.2705615526  2.0323828089 -0.0956120999
N    1.9944435848 -0.2608076399 -0.1147727100
C   -2.0537403492  2.7321622911 -0.3409688136
C   -0.7079600607  2.9686112088 -0.0483616319
C   -0.1430167053  4.2490233750  0.2882141471
H   -0.7083961699  5.1479643957  0.4403964495
C    1.1930960025  4.0727832587  0.3981916337
H    1.9381293394  4.8004847474  0.6551105599
C    1.4576238778  2.6826377658  0.1191748143
C    2.7052534894  2.1086514531  0.0013169261
C    2.9349023910  0.7181775847 -0.2169727215
C    4.1924500548  0.1570066051 -0.5409480394
H    5.0971381774  0.7101577811 -0.7018931595
C    4.0137539554 -1.2024886154 -0.6059120193
H    4.7492067946 -1.9526660960 -0.8214491223
C    2.6423214580 -1.4491524667 -0.3340786957
C    3.8709787011  3.0110657349  0.0547574518
C    4.7968452942  2.9485422970  1.0973598236
C    5.8557378880  3.8376890261  1.1771314912
C    6.0070560710  4.8070026453  0.2028613858
H    6.8259790067  5.5068980955  0.2652765399
C    5.1162674769  4.8850273173 -0.8531724962
C    4.0602945597  3.9928651203 -0.9206556255
Fe   0.0125671918  0.0010084317  0.2913542290
C   -2.9279568157  3.8998612905 -0.5346856298
C   -4.0430552416  4.1362753472  0.2744523749
C   -2.6579511135  4.8329165148 -1.5414612252
C   -4.8539689218  5.2428643225  0.0852256688
C   -3.4545700600  5.9481132363 -1.7333828607
H   -5.7061829302  5.3924241940  0.7279128261
C   -4.5552173971  6.1476252024 -0.9185932040
H   -3.2110943210  6.6470375864 -2.5168231157
H   -5.1810687289  7.0135459807 -1.0654740290
C    2.9756272817 -3.8947334113 -0.2781031401
C    3.4283886060 -4.4902178302  0.8978360420
C    3.4001879475 -4.4357498040 -1.4886372732
C    4.2709539831 -5.5896800080  0.8709738169
C    4.2437742434 -5.5339283331 -1.5328872478
H    4.6039260894 -6.0299069277  1.7968133920
C    4.6735915370 -6.1065149465 -0.3483658692
H    4.5539381686 -5.9320838225 -2.4852664981
H    5.3284451578 -6.9633227625 -0.3760713020
H   -5.4864561656 -2.7254310165  3.7740670968
H   -6.6972732369 -4.4525193829  0.0447027774
H    6.5446391641  3.7731064883  2.0030751014
H    5.2292167020  5.6338817318 -1.6206233160
Cl   2.9185833488 -3.8222685527  2.4076292590
Cl   2.8471942946 -3.7127013321 -2.9561319799
Cl  -4.3935807825  3.0536855200  1.5751177544
Cl  -1.3150488604  4.5742121007 -2.5986687039
Cl   4.5785732920  1.7607916828  2.3314681263
Cl   2.9659285998  4.0846553660 -2.2550421028
Cl  -2.9918843490 -1.5582810725  3.0442023725
Cl  -4.5000583321 -3.7589079106 -1.6169927598
Cl   0.0614564718  0.0093745551  2.4240014859
78
aligned d3map frame 65
N   -0.2393626347 -2.0234458858 -0.1300449254
N   -1.9728849438  0.2732702199 -0.0755358719
C    2.0735777753 -2.7230956549  0.2279504876
C    0.7193793002 -2.9766492265  0.0240049596
C    0.1390490235 -4.2763567672 -0.1776542463
H    0.6792695144 -5.2009524040 -0.1131163806
C   -1.1676991903 -4.0824384326 -0.4835469701
H   -1.9130804767 -4.8200246856 -0.7116264808
C   -1.4076955825 -2.6635259681 -0.4267714540
C   -2.6430637999 -2.0556875881 -0.5656202551
C   -2.9091824494 -0.6764790498 -0.3339263330
C   -4.2028510373 -0.0971475266 -0.3165060588
H   -5.1229728703 -0.6157439625 -0.5022491243
C   -4.0397747992  1.2316627746 -0.0142676800
H   -4.8015039167  1.9760695132  0.1025107552
C   -2.6425907456  1.4580649268  0.0932202518
C   -3.7955539603 -2.8833747867 -0.9872742896
C   -4.7666505572 -3.3139977308 -0.0873821920
C   -5.8764712968 -4.0309897406 -0.5056324222
C   -6.0228774967 -4.3309621080 -1.8491965737
H   -6.8894469482 -4.8784179364 -2.1850054683
C   -5.0690104081 -3.9306884530 -2.7664206605
C   -3.9650743692 -3.2165544924 -2.3298381948
N    0.2836698312  2.0168244074 -0.1596049825
N    1.9910742277 -0.2848091915 -0.0959586051
C   -2.0372529122  2.7237498481  0.1804714796
C   -0.6796883900  2.9681111913 -0.0358717087
C   -0.1269954798  4.2528245764 -0.3575481139
H   -0.6688181292  5.1773294915 -0.3242243960
C    1.1571808418  4.0463504246 -0.7417854524
H    1.8632075452  4.7730064315 -1.0914292220
C    1.4256147317  2.6424145647 -0.5755400291
C    2.6427815862  2.0114467284 -0.7735317113
C    2.9123906876  0.6518768758 -0.4268538192
C    4.2127101464  0.0935902674 -0.3710489529
H    5.1231012886  0.6188986699 -0.5716341076
C    4.0661925044 -1.2231500970 -0.0085140029
H    4.8396356590 -1.9522000881  0.1281194437
C    2.6737860866 -1.4546810200  0.1234742517
C    3.7414963135  2.7219140650 -1.4532935272
C    4.4223663913  3.8153960417 -0.9154324953
C    5.4340865472  4.4553078962 -1.6168195078
C    5.8013059145  3.9923708147 -2.8671108576
H    6.5948133678  4.4830158095 -3.4113396227
C    5.1619005028  2.8942717810 -3.4206431881
C    4.1443263658  2.2752311400 -2.7174024568
Fe   0.0125671918  0.0010084317  0.2913542290
C   -2.9086329413  3.9051532343  0.3624457667
C   -2.9317176204  4.5704235580  1.5886457979
C   -3.7023815743  4.4085394856 -0.6656520302
C   -3.7214749731  5.6909515192  1.7850274219
C   -4.4988789120  5.5276378908 -0.4836269586
H   -3.7198949276  6.1835410210  2.7436533941
C   -4.5034552225  6.1647705157  0.7449548417
H   -5.1002302582  5.8913556293 -1.3007873323
H   -5.1163789666  7.0381800658  0.8968696096
C    2.9960048593 -3.8713769599  0.3843277284
C    3.3300414782 -4.3549977399  1.6467715247
C    3.5925994680 -4.4662412240 -0.7246702660
C    4.2371191379 -5.3920090535  1.8010928862
C    4.5015814969 -5.5023716876 -0.5880127730
H    4.4821635601 -5.7466973379  2.7885373994
C    4.8215749854 -5.9565461633  0.6804985619
H    4.9525520820 -5.9402631539 -1.4632879680
H    5.5364834573 -6.7574529164  0.7971344410
H   -6.6127591916 -4.3483961452  0.2141642331
H   -5.1804294445 -4.1529704192 -3.8140740359
H    5.9350572313  5.3019912982 -1.1733066205
H    5.4437197501  2.5143031489 -4.3889807784
Cl   2.5922621010 -3.6237398485  3.0261651220
Cl   3.1802296400 -3.8790358465 -2.2965174301
Cl  -1.9571745008  3.9544800663  2.8772038812
Cl  -3.6664241262  3.6283519081 -2.2099039560
Cl   4.0306715783  4.3555357199  0.6804671992
Cl   3.3241771671  0.9304335900 -3.4331185757
Cl  -4.5673937127 -2.9321864680  1.5863724818
Cl  -2.7715252884 -2.6989325749 -3.4691311326
Cl   0.0106126195  0.0087157413  2.4244998642
78
aligned d3map frame 66
N   -0.2592212720 -2.0208550405 -0.1089061945
N   -1.9674996012  0.2800435066 -0.1038300564
C    2.0678727551 -2.6708948573  0.3345241585
C    0.7027811680 -2.9626886260  0.0475425379
C    0.1621285831 -4.2469081944 -0.2084712736
H    0.7001461409 -5.1725577606 -0.1595363537
C   -1.1551043914 -4.0594059034 -0.5502984762
H   -1.8758690682 -4.8010058197 -0.8337975457
C   -1.4126631392 -2.6635419173 -0.4486693030
C   -2.6626639370 -2.0327667731 -0.5826358636
C   -2.9052120537 -0.6756721231 -0.3223066766
C   -4.2148658886 -0.1086545724 -0.1540602349
H   -5.1383661735 -0.6436928470 -0.2632912826
C   -4.0469389847  1.1872484704  0.2101995572
H   -4.8061352693  1.9125588197  0.4315705048
C   -2.6341908438  1.4456322887  0.1988489719
C   -3.8371565013 -2.8355735731 -0.9777303943
C   -4.4120748881 -3.7974279971 -0.1468321968
C   -5.5460199720 -4.4961299258 -0.5289571764
C   -6.1289934812 -4.2382558328 -1.7591138753
H   -7.0183379581 -4.7717348872 -2.0560470241
C   -5.5798876636 -3.2936032948 -2.6091201911
C   -4.4470729206 -2.6031457947 -2.2139808616
N    0.2756176443  2.0155463678 -0.1429771265
N    1.9913288235 -0.2646811731 -0.1195010597
C   -2.0370173921  2.6809884047  0.3585082310
C   -0.6728292423  2.9593707939  0.0610944298
C   -0.1267053231  4.2482795129 -0.1649372189
H   -0.6638958547  5.1727963870 -0.0712703571
C    1.1824292067  4.0597996484 -0.5327628628
H    1.9103956962  4.8056271526 -0.7854970982
C    1.4248334753  2.6581668364 -0.4897416979
C    2.6707659291  2.0289433657 -0.6648790407
C    2.9275139412  0.6801701967 -0.3970904387
C    4.2367809870  0.0933444171 -0.3175412646
H    5.1570888491  0.6106925917 -0.5100107191
C    4.0739491653 -1.1943471874  0.0782713392
H    4.8328675538 -1.9313944835  0.2566048941
C    2.6588960082 -1.4341492673  0.1563832626
C    3.7804058481  2.8944166376 -1.1219366202
C    4.7172322098  3.4383072597 -0.2457819671
C    5.7120952895  4.2936828011 -0.6989429126
C    5.7818026026  4.6083037748 -2.0468093545
H    6.5459150346  5.2845738833 -2.3994877920
C    4.8705711053  4.0732818083 -2.9418624152
C    3.8789215807  3.2256402988 -2.4726743316
Fe   0.0125671918  0.0010084317  0.2913542290
C   -2.8348338381  3.8219370423  0.8528448936
C   -2.6727339114  4.2177176720  2.1825499538
C   -3.7195938254  4.5440643834  0.0583441253
C   -3.3729925379  5.2940301116  2.7015804254
C   -4.4229005376  5.6270274027  0.5622189730
H   -3.2288175439  5.5777266444  3.7319174170
C   -4.2432494023  5.9958289803  1.8849555939
H   -5.0913231712  6.1767283518 -0.0797065742
H   -4.7769430931  6.8503213395  2.2833785195
C    2.8957394416 -3.7811810875  0.8578694894
C    2.9830325637 -3.9315511266  2.2424421571
C    3.5799447763 -4.6849326682  0.0537739771
C    3.7267044871 -4.9531846729  2.8087584709
C    4.3326120351 -5.7116553525  0.6057574004
H    3.7792370448 -5.0468712774  3.8807275391
C    4.3993860851 -5.8383528704  1.9831277391
H    4.8580526714 -6.3990832872 -0.0349602636
H    4.9862977078 -6.6311887911  2.4148211978
H   -5.9708315283 -5.2255375775  0.1410282553
H   -6.0251941132 -3.0843124821 -3.5693726043
H    6.4168089938  4.7151111330 -0.0011657878
H    4.9196907692  4.3141575617 -3.9906691275
Cl   2.1298985365 -2.8098346075  3.2460696266
Cl   3.4804610019 -4.5031995031 -1.6625913805
Cl  -1.5812585973  3.3226972535  3.1777628355
Cl  -3.9048984483  4.0986922008 -1.5987581273
Cl   4.6076148098  3.0425524411  1.4339453027
Cl   2.7309304856  2.5476831136 -3.5692895938
Cl  -3.7200797481 -4.0820552146  1.4101411228
Cl  -3.7573002003 -1.4260941385 -3.2749610547
Cl   0.0136632185  0.0157343701  2.4249627079
78
aligned d3map frame 67
N   -0.2471575363 -2.0204032251 -0.1181895323
N   -1.9658011320  0.2769412638 -0.1152348876
C    2.0796440573 -2.6859699062  0.3155885467
C    0.7087051538 -2.9680287255  0.0367064243
C    0.1738716536 -4.2443227946 -0.2585045726
H    0.7146910081 -5.1696995348 -0.2121931730
C   -1.1344490508 -4.0464704146 -0.6351734656
H   -1.8498315559 -4.7846947372 -0.9415875620
C   -1.3849518211 -2.6535819980 -0.5224952774
C   -2.6256777479 -2.0153540036 -0.7039231155
C   -2.8900986088 -0.6823257056 -0.3817900554
C   -4.2099751899 -0.1318040677 -0.2252833205
H   -5.1196478155 -0.6827672217 -0.3671186795
C   -4.0614183980  1.1509361169  0.1825274113
H   -4.8303624448  1.8525846358  0.4440410823
C   -2.6482444069  1.4344843718  0.1719745621
C   -3.7221762913 -2.7861308323 -1.3351982841
C   -4.6067998370 -3.6009824312 -0.6361412859
C   -5.6312919778 -4.2727959231 -1.2859511556
C   -5.7769388689 -4.1349248830 -2.6556559919
H   -6.5767667704 -4.6504958023 -3.1644322022
C   -4.9061691508 -3.3395128640 -3.3794941831
C   -3.8895246431 -2.6744842265 -2.7158313161
N    0.2734168754  2.0154118848 -0.1489790690
N    1.9857654438 -0.2813353912 -0.1324197443
C   -2.0690557120  2.6854273085  0.2675761220
C   -0.6982650701  2.9538513484 -0.0454483661
C   -0.1868064080  4.2164510753 -0.4231099975
H   -0.7431927126  5.1341715288 -0.4394270570
C    1.1272207349  4.0214227566 -0.7796279821
H    1.8181219568  4.7532106700 -1.1485717127
C    1.4084071147  2.6449253974 -0.5713842772
C    2.6638415862  2.0153784699 -0.7035180137
C    2.9150793578  0.6716691122 -0.3985468502
C    4.2308016604  0.1093227548 -0.2470727770
H    5.1499802058  0.6452325550 -0.3887195240
C    4.0750606558 -1.1794843389  0.1410627161
H    4.8394933387 -1.8979237686  0.3631721017
C    2.6604206637 -1.4428604366  0.1619750425
C    3.8068008690  2.8157808777 -1.1802947887
C    4.3283080000  3.8959610352 -0.4668895873
C    5.3927413062  4.6395813336 -0.9515895969
C    5.9712690455  4.3002496304 -2.1617413112
H    6.8027213077  4.8737255217 -2.5402966445
C    5.4920752992  3.2223407733 -2.8857746010
C    4.4204060472  2.4963211330 -2.3969599249
Fe   0.0125671918  0.0010084317  0.2913542290
C   -2.8919617225  3.8538059406  0.6288762346
C   -2.6299423205  4.5219563271  1.8303978765
C   -3.9177600466  4.3499801974 -0.1751829339
C   -3.3813604308  5.6138568487  2.2289825564
C   -4.6804650718  5.4393028412  0.2146082611
H   -3.1600868470  6.1014450455  3.1638817503
C   -4.4122893528  6.0635981314  1.4201682807
H   -5.4699533804  5.7952392600 -0.4279655841
H   -5.0040133995  6.9117832908  1.7270391893
C    2.9319381690 -3.8304447358  0.7020771783
C    2.8598839629 -4.3251834956  2.0043899750
C    3.8164772394 -4.4429251817 -0.1824054495
C    3.6587827688 -5.3778336072  2.4195399039
C    4.6171694818 -5.5002764834  0.2172991151
H    3.5915873334 -5.7318950945  3.4355264905
C    4.5375189183 -5.9585540119  1.5215590278
H    5.2942237344 -5.9572573443 -0.4872256474
H    5.1661095061 -6.7758653491  1.8394667758
H   -6.3062027991 -4.8928301176 -0.7191012926
H   -5.0091433705 -3.2290552646 -4.4474180232
H    5.7636995184  5.4710280258 -0.3744505920
H    5.9405422612  2.9435841872 -3.8259172942
Cl   1.7629505110 -3.5748280953  3.1088851336
Cl   3.8937126952 -3.8734032902 -1.8124750847
Cl  -1.3617170396  3.9419664172  2.8408177257
Cl  -4.2099534400  3.6283923921 -1.7198970162
Cl   3.6679732082  4.2828368252  1.0831538372
Cl   3.8092718416  1.1749899341 -3.3280994927
Cl  -4.4155356439 -3.7535345744  1.0736879411
Cl  -2.7914114450 -1.6755233159 -3.6006159068
Cl   0.0245618943  0.0227523736  2.4245260070
78
aligned d3map frame 68
N   -0.2530416204 -2.0122277686 -0.1722001309
N   -1.9719178968  0.2731072193 -0.0543004517
C    2.0020612988 -2.6992133059  0.4269726038
C    0.6699068924 -2.9639758104  0.1817345338
C    0.0309152684 -4.2545691920  0.1838272508
H    0.5153244453 -5.1772709280  0.4365131072
C   -1.2459183652 -4.0635603932 -0.2271488268
H   -2.0180111192 -4.7983729928 -0.3592277296
C   -1.4261850380 -2.6446044416 -0.4010694463
C   -2.6591034599 -2.0218070364 -0.6301275325
C   -2.9105306107 -0.6480795919 -0.4332905834
C   -4.1760411392 -0.0131990260 -0.5191821833
H   -5.0918838063 -0.4820229526 -0.8211036547
C   -3.9938380536  1.2981370527 -0.1396399801
H   -4.7309424237  2.0745228380 -0.0755973014
C   -2.6154109361  1.4562023202  0.1223924641
C   -3.7715071296 -2.8907905381 -1.0642428029
C   -4.8543338451 -3.2023474707 -0.2436642083
C   -5.8766100635 -4.0328612432 -0.6746025652
C   -5.8274301279 -4.5686012165 -1.9492718441
H   -6.6177728953 -5.2165216419 -2.2931971749
C   -4.7630775613 -4.2854220777 -2.7886416122
C   -3.7481017855 -3.4591450371 -2.3401466997
N    0.2772752201  2.0066354925 -0.2031898845
N    1.9931210822 -0.2746803172 -0.0713664407
C   -1.9739423021  2.7016784467  0.4118625176
C   -0.6433914606  2.9599741958  0.1590045166
C   -0.0064020713  4.2516356718  0.1509661814
H   -0.4938667026  5.1737511617  0.4013389110
C    1.2684485572  4.0599313980 -0.2646268991
H    2.0380440251  4.7944952896 -0.4037814181
C    1.4480192976  2.6391208841 -0.4363157179
C    2.6797063334  2.0133050347 -0.6690477261
C    2.9292942384  0.6394268901 -0.4712743279
C    4.1938089231  0.0007038784 -0.5602270249
H    5.1045780785  0.4649439298 -0.8860907479
C    4.0132323344 -1.3007198961 -0.1546097025
H    4.7492169932 -2.0763499491 -0.0813626511
C    2.6361286291 -1.4527390263  0.1241483159
C    3.8065944345  2.8869107063 -1.0517969746
C    4.8697314361  3.1508478548 -0.1850506420
C    5.9069076835  3.9942080798 -0.5502464242
C    5.8946062444  4.5874883439 -1.8008033672
H    6.6992203193  5.2448783929 -2.0900792070
C    4.8523831806  4.3520368785 -2.6800608426
C    3.8208293364  3.5114178255 -2.2997371298
Fe   0.0125671918  0.0010084317  0.2913542290
C   -2.7960371374  3.7544264080  1.0485464842
C   -2.9571969519  3.6941763219  2.4356154416
C   -3.3950433666  4.8071726003  0.3664651421
C   -3.6880007241  4.6511815404  3.1187270049
C   -4.1340643536  5.7718002862  1.0374260931
H   -3.7884737791  4.5774697538  4.1888845364
C   -4.2738019710  5.6875905164  2.4120861345
H   -4.5861372070  6.5774112759  0.4812319809
H   -4.8422879026  6.4377942493  2.9395819779
C    2.8546803430 -3.7503183801  1.0199300038
C    3.1678006304 -3.6570012113  2.3788003620
C    3.3533896073 -4.8352108471  0.3051937435
C    3.9486448481 -4.6155773296  3.0023669476
C    4.1422011540 -5.7965006014  0.9151776174
H    4.1656516950 -4.5199217768  4.0536868470
C    4.4336902776 -5.6812844273  2.2639172895
H    4.5205109138 -6.6224147055  0.3356659512
H    5.0462775625 -6.4280865770  2.7425702450
H   -6.6958154185 -4.2571440499 -0.0118314570
H   -4.7147920157 -4.6990674954 -3.7829399935
H    6.7041015043  4.1895044372  0.1462425809
H    4.8312602858  4.8164916407 -3.6524966190
Cl   2.5354905209 -2.3219758696  3.2774412564
Cl   2.9942019579 -4.9572177419 -1.3808761292
Cl  -2.1976723656  2.3976410831  3.2933312602
Cl  -3.2092181464  4.8994955724 -1.3487758342
Cl   4.8532274505  2.4548836636  1.3961567056
Cl   2.5145166568  3.2193978837 -3.3966250376
Cl  -4.9011978026 -2.5546105993  1.3588659565
Cl  -2.4144536789 -3.1057163395 -3.3851398980
Cl   0.0417822502 -0.0071633926  2.4243572645
78
aligned d3map frame 69
N   -0.2404706463 -2.0219365591 -0.1116543002
N   -1.9660450550  0.2783000943 -0.1080011020
C    2.0649369957 -2.6871564078  0.3721009955
C    0.7038866449 -2.9685750842  0.1167717348
C    0.1386044011 -4.2606897003 -0.0750876843
H    0.6618640723 -5.1893317986  0.0446877910
C   -1.1590901223 -4.0698710181 -0.4674349228
H   -1.8893138454 -4.8162498920 -0.7135962373
C   -1.3911728243 -2.6612324311 -0.4587163332
C   -2.6216782805 -2.0285955808 -0.6692044565
C   -2.8908988998 -0.6737040452 -0.3983003661
C   -4.2000642636 -0.1066678636 -0.3189078797
H   -5.1150608664 -0.6345954507 -0.5054139037
C   -4.0499750507  1.1906075735  0.0733995064
H   -4.8238870017  1.9081776677  0.2629655161
C   -2.6446855479  1.4439017309  0.1479590478
C   -3.7234021252 -2.8555120704 -1.2131274482
C   -4.6621029618 -3.4948022055 -0.4096619136
C   -5.6747566606 -4.2659639351 -0.9599289512
C   -5.7521775969 -4.4065498530 -2.3346758913
H   -6.5366748079 -5.0061901020 -2.7684736751
C   -4.8300339816 -3.7863814617 -3.1599699770
C   -3.8260251917 -3.0184979797 -2.5942172365
N    0.2751190688  2.0161683501 -0.1419686267
N    1.9850953781 -0.2853432463 -0.1265967102
C   -2.0445179542  2.6918414185  0.3121296866
C   -0.6798318297  2.9597181261  0.0405054820
C   -0.1345762040  4.2460637874 -0.2301918383
H   -0.6730104167  5.1719594573 -0.1666859999
C    1.1655051442  4.0528919531 -0.6120297974
H    1.8741533614  4.7970102010 -0.9186281413
C    1.4217929219  2.6518024032 -0.5186995931
C    2.6540824693  2.0151861803 -0.7113084493
C    2.9118089578  0.6559019312 -0.4377687941
C    4.2198856236  0.0850044069 -0.3496820605
H    5.1346754298  0.6093228687 -0.5477265333
C    4.0657976883 -1.2063743020  0.0597731823
H    4.8295867812 -1.9366738094  0.2443556031
C    2.6603871617 -1.4457116785  0.1592054659
C    3.7915434997  2.8218145027 -1.1985390886
C    4.4226215400  3.7840652308 -0.4108679999
C    5.4912964861  4.5227438839 -0.8950434618
C    5.9429166784  4.3074872633 -2.1850631988
H    6.7747880024  4.8801540226 -2.5640464433
C    5.3374240807  3.3593821930 -2.9920003235
C    4.2747231237  2.6254791430 -2.4936233452
Fe   0.0125671918  0.0010084317  0.2913542290
C   -2.8630506371  3.8440009790  0.7396016933
C   -2.6688626967  4.3593003858  2.0246540806
C   -3.8070058530  4.4664450808 -0.0742366486
C   -3.4043756189  5.4361054306  2.4891344363
C   -4.5523610614  5.5437602720  0.3796238465
H   -3.2345840593  5.8066229325  3.4870305600
C   -4.3494012344  6.0212003006  1.6623565679
H   -5.2766811422  6.0033893318 -0.2739853830
H   -4.9271912820  6.8593381763  2.0192859827
C    2.9149806053 -3.8009945494  0.8490661369
C    2.9745884357 -4.0537406085  2.2202827834
C    3.6619465311 -4.6096037421 -0.0001046984
C    3.7597929000 -5.0740676809  2.7284438864
C    4.4517974620 -5.6360376743  0.4937509414
H    3.7923985054 -5.2453408575  3.7921916121
C    4.4966763447 -5.8600438346  1.8586804257
H    5.0228527762 -6.2466475370 -0.1871073610
H    5.1145215972 -6.6545711474  2.2509666240
H   -6.3887070924 -4.7495176050 -0.3134765703
H   -4.8810540879 -3.8932013476 -4.2313645545
H    5.9625201136  5.2543219998 -0.2586598604
H    5.6790656144  3.1858651984 -3.9995696870
Cl   2.0435585204 -3.0506687314  3.2767004528
Cl   3.5879605749 -4.3155485145 -1.7012526495
Cl  -1.4971560970  3.6060575288  3.0488871206
Cl  -4.0173880457  3.9084686263 -1.6962764367
Cl   3.8801814023  4.0266799036  1.2089892600
Cl   3.5060506083  1.4477210555 -3.4967704585
Cl  -4.5408575101 -3.3164002137  1.3046400351
Cl  -2.6657719658 -2.2303016675 -3.6038197666
Cl   0.0263705956  0.0198536469  2.4245622738
78
aligned d3map frame 70
N   -0.2759220409 -2.0102290533 -0.1668650509
N   -1.9722152387  0.2516182511 -0.0877340321
C    2.0170749466 -2.6479720314 -0.7281661582
C    0.6721271269 -2.9287224800 -0.4570442602
C    0.1112993280 -4.2500033407 -0.3486852169
H    0.6478828299 -5.1606625477 -0.5311258941
C   -1.1707440135 -4.1030662203  0.0698025839
H   -1.8954216102 -4.8683702183  0.2729969062
C   -1.4266632774 -2.6884393668  0.1432304906
C   -2.6505560782 -2.0864304729  0.3575398106
C   -2.9156034994 -0.7132706037  0.0773758537
C   -4.1929502727 -0.2037119983 -0.2514479355
H   -5.1116082908 -0.7563911285 -0.2096116273
C   -4.0040729514  1.0886926095 -0.6782663239
H   -4.7466945407  1.7698301535 -1.0429488016
C   -2.6190179403  1.3705632971 -0.5421974597
C   -3.7817456714 -2.9311374145  0.8016185752
C   -4.0803393088 -3.0026826973  2.1619373317
C   -5.0899935286 -3.8247484182  2.6327427249
C   -5.8322266708 -4.5768511986  1.7335894059
H   -6.6085101830 -5.2326498970  2.0942347603
C   -5.5733355731 -4.5096479659  0.3764722553
C   -4.5532704690 -3.6903261254 -0.0785384344
N    0.2923490522  2.0053596876 -0.1974058196
N    1.9927836746 -0.2569110428 -0.1036473881
C   -2.0025598604  2.6108775146 -0.8008507910
C   -0.6600808125  2.9051640357 -0.5247768424
C   -0.1016118573  4.2321975541 -0.4838503808
H   -0.6444909518  5.1338143294 -0.6962472161
C    1.1892067359  4.1067092640 -0.0900879132
H    1.9074505233  4.8863921840  0.0747045880
C    1.4544551693  2.6964402384  0.0332043786
C    2.6902421011  2.1045148872  0.2001376202
C    2.9408423091  0.7135112985  0.0023798651
C    4.2127969966  0.1833118228 -0.3164190518
H    5.1356070348  0.7298608985 -0.3106204863
C    4.0173869992 -1.1308601337 -0.6688700268
H    4.7575769300 -1.8316571884 -1.0030529404
C    2.6316885986 -1.3976767574 -0.5139389699
C    3.8756872874  2.9580651951  0.4249968917
C    4.5274087578  2.9333215107  1.6589994951
C    5.6419510005  3.7205619913  1.9028270231
C    6.1246289752  4.5421663694  0.8984213847
H    6.9915640626  5.1586158265  1.0802109801
C    5.5091049582  4.5768109983 -0.3413813879
C    4.3941565320  3.7864716161 -0.5705266440
Fe   0.0125671918  0.0010084317  0.2913542290
C   -2.7906035966  3.6773657106 -1.4522429165
C   -3.8462544773  4.3488100324 -0.8326080196
C   -2.4644187480  4.0526545224 -2.7602849053
C   -4.5592734128  5.3370979264 -1.4956115436
C   -3.1659749280  5.0400179939 -3.4320864188
H   -5.3700427537  5.8389374096 -0.9893138469
C   -4.2171650099  5.6778087344 -2.7946695631
H   -2.8875011964  5.2999803710 -4.4415528893
H   -4.7699195461  6.4470877107 -3.3109262438
C    2.8323570081 -3.7335522329 -1.3086332630
C    3.8669287031 -4.3691290080 -0.6232356738
C    2.5799880330 -4.1428435289 -2.6210978570
C    4.6327848918 -5.3550827790 -1.2248054397
C    3.3400296646 -5.1221295164 -3.2375210904
H    5.4263347682 -5.8301984112 -0.6699484801
C    4.3701358497 -5.7217501700 -2.5339946226
H    3.1263450017 -5.4011274164 -4.2572291240
H    4.9713409074 -6.4834264808 -3.0065482374
H   -5.2849569014 -3.8769750815  3.6923200512
H   -6.1491816839 -5.0878688519 -0.3282739614
H    6.1222958845  3.6870664371  2.8678946951
H    5.8883918946  5.2054227159 -1.1306176245
Cl   4.1710204021 -3.9308136192  1.0213745880
Cl   1.3043092409 -3.3813765876 -3.5014851481
Cl  -4.2323266744  3.9728867823  0.8149653596
Cl  -1.1641040227  3.2442312869 -3.5655351041
Cl   3.9026847066  1.9060151848  2.9006651910
Cl   3.6506936547  3.7972217394 -2.1301023089
Cl  -3.1129584687 -2.0785763856  3.2624485196
Cl  -4.2083143503 -3.5955199246 -1.7707994131
Cl   0.0267331512 -0.0484186298  2.4211352329
78
aligned d3map frame 71
N   -0.2363191437 -2.0239715736 -0.1273350975
N   -1.9730603672  0.2718250280 -0.0766061160
C    2.0757625808 -2.7226953500  0.2418655640
C    0.7242425649 -2.9797330679  0.0232562594
C    0.1466793450 -4.2751488921 -0.1962557509
H    0.6852027806 -5.2012828097 -0.1384845165
C   -1.1567702692 -4.0764432505 -0.5130942971
H   -1.8971056727 -4.8118344105 -0.7587952717
C   -1.3956445180 -2.6574125395 -0.4467360529
C   -2.6364552313 -2.0544934745 -0.5907107882
C   -2.9049298010 -0.6768364269 -0.3577570910
C   -4.1957983128 -0.0906114736 -0.3861825751
H   -5.1140379881 -0.5997163237 -0.6022767475
C   -4.0357968483  1.2395220186 -0.0891911215
H   -4.7998241860  1.9877988278 -0.0087812819
C   -2.6431239201  1.4601969039  0.0621500295
C   -3.7737360474 -2.8885825699 -1.0290794019
C   -4.8112037456 -3.2403900534 -0.1669929364
C   -5.9005128312 -3.9753583798 -0.6069166685
C   -5.9613455576 -4.3768571293 -1.9300086288
H   -6.8112287001 -4.9408682750 -2.2810281728
C   -4.9374285502 -4.0612043786 -2.8062995703
C   -3.8547554171 -3.3275551825 -2.3514238210
N    0.2829581531  2.0183325563 -0.1558781579
N    1.9901173546 -0.2902777459 -0.0973670982
C   -2.0389520110  2.7276288060  0.1455652961
C   -0.6784726462  2.9715537269 -0.0370152835
C   -0.1199400161  4.2555980112 -0.3529863494
H   -0.6548614551  5.1808139405 -0.3233582123
C    1.1630679999  4.0455270998 -0.7334094490
H    1.8698297049  4.7720509392 -1.0810416784
C    1.4262419476  2.6402138874 -0.5688974095
C    2.6424498194  2.0052835898 -0.7684454060
C    2.9142105357  0.6493464848 -0.4121002910
C    4.2165543919  0.1001330765 -0.3189292093
H    5.1336735622  0.6277172437 -0.4947142975
C    4.0684838635 -1.2139532995  0.0543861550
H    4.8409827600 -1.9395701708  0.2211393739
C    2.6739070419 -1.4532587350  0.1460700776
C    3.7160924693  2.7214395625 -1.4802680867
C    4.3858653036  3.8384494631 -0.9775065739
C    5.3249906358  4.5220765690 -1.7350081517
C    5.6260698339  4.0845932104 -3.0130515082
H    6.3482967301  4.6210642520 -3.6090226083
C    5.0076169990  2.9566250216 -3.5281191042
C    4.0665951217  2.2892668502 -2.7642555947
Fe   0.0125671918  0.0010084317  0.2913542290
C   -2.9363226127  3.9035507686  0.2129809282
C   -3.1336949280  4.5895264240  1.4111965659
C   -3.6000691832  4.3636192215 -0.9215732924
C   -3.9702242729  5.6905975894  1.4763046695
C   -4.4391376409  5.4646670658 -0.8716440682
H   -4.1099070317  6.2030327712  2.4149970051
C   -4.6204266033  6.1224241606  0.3322047128
H   -4.9382037969  5.7977586302 -1.7672483051
H   -5.2717992632  6.9802793699  0.3786850076
C    2.9829340533 -3.8861345543  0.3834236471
C    3.2775528385 -4.4255884457  1.6316349630
C    3.5678640009 -4.4680152652 -0.7396088916
C    4.1309856069 -5.5111362536  1.7594307098
C    4.4203962103 -5.5529023425 -0.6291624963
H    4.3472087540 -5.9091447071  2.7367548707
C    4.6967937343 -6.0680564241  0.6263645868
H    4.8570509071 -5.9782552233 -1.5171738399
H    5.3574974300 -6.9141715902  0.7177112395
H   -6.6899607060 -4.2245696663  0.0847075647
H   -4.9764324175 -4.3690332938 -3.8387971056
H    5.8150269500  5.3895573192 -1.3219217191
H    5.2405502483  2.5991031177 -4.5182520562
Cl   2.5548127825 -3.7135303609  3.0280428080
Cl   3.2061661592 -3.8021457488 -2.2929310654
Cl  -2.3131585698  4.0263844837  2.8225907555
Cl  -3.3466097636  3.5455283633 -2.4229009026
Cl   4.0646976779  4.3555662172  0.6414705252
Cl   3.2683498620  0.9059774837 -3.4303250883
Cl  -4.7154374142 -2.7562658155  1.4905909916
Cl  -2.5817532687 -2.9161714322 -3.4471442546
Cl   0.0199755950  0.0481929589  2.4238116760
78
aligned d3map frame 72
N   -0.2447029584 -2.0179588642 -0.1440058507
N   -1.9696119197  0.2827781307 -0.0739033039
C    2.0321170666 -2.7102327891  0.3638719935
C    0.6893783711 -2.9713018800  0.1580293321
C    0.0687210205 -4.2678347683  0.1079364037
H    0.5724760890 -5.1923757558  0.3132224244
C   -1.2159725980 -4.0743065812 -0.2841894122
H   -1.9800921408 -4.8141968811 -0.4367147476
C   -1.4125751832 -2.6545349962 -0.4007673353
C   -2.6397050145 -2.0273596011 -0.6280921519
C   -2.8999588554 -0.6560651337 -0.4199427093
C   -4.1829520566 -0.0528420433 -0.4567803669
H   -5.0989558953 -0.5453637247 -0.7174245845
C   -4.0180168814  1.2607298570 -0.0812316352
H   -4.7808163541  2.0067876138  0.0173537475
C   -2.6328417088  1.4581308500  0.1183269248
C   -3.7539988155 -2.8742622335 -1.1077933383
C   -4.7939888221 -3.2978355202 -0.2839848975
C   -5.8289832398 -4.0784327914 -0.7743973032
C   -5.8332792645 -4.4479273773 -2.1084021712
H   -6.6402218639 -5.0511573486 -2.4942428974
C   -4.8102740075 -4.0502394089 -2.9494202341
C   -3.7811858251 -3.2732555790 -2.4443804156
N    0.2704294683  2.0125959877 -0.1755820140
N    1.9909132159 -0.2815355387 -0.0910533831
C   -2.0017538611  2.7099956205  0.3699812445
C   -0.6592287600  2.9634770919  0.1364230261
C   -0.0455242075  4.2613492078  0.0595103988
H   -0.5441091188  5.1885082539  0.2666607717
C    1.2342656261  4.0708339213 -0.3510645393
H    1.9895066623  4.8111208607 -0.5325877811
C    1.4351181734  2.6495043117 -0.4511292036
C    2.6601172959  2.0213353437 -0.6755578151
C    2.9201044262  0.6512135609 -0.4586578270
C    4.1984315958  0.0423480352 -0.5200436419
H    5.1098295327  0.5356689694 -0.7964715047
C    4.0335137093 -1.2718911919 -0.1459634030
H    4.7827135962 -2.0351447868 -0.0756957866
C    2.6524538524 -1.4569956763  0.0924672760
C    3.7900174307  2.8627703368 -1.1296065698
C    4.7418293605  3.3722679675 -0.2511600032
C    5.7983877123  4.1468446726 -0.7024408508
C    5.9117662824  4.4195843774 -2.0548658851
H    6.7353522090  5.0162268989 -2.4135802948
C    4.9794347514  3.9311679464 -2.9537371871
C    3.9282309629  3.1602013284 -2.4850898358
Fe   0.0125671918  0.0010084317  0.2913542290
C   -2.8296388005  3.8110899185  0.9087358635
C   -2.7176028465  4.1118711458  2.2695780599
C   -3.7173982361  4.5635278821  0.1448837525
C   -3.4783983211  5.1138699882  2.8489005105
C   -4.4897360034  5.5651534159  0.7137052090
H   -3.3735174967  5.3220210813  3.9016238977
C   -4.3669412120  5.8325339976  2.0666684261
H   -5.1725078118  6.1287377825  0.0973904516
H   -4.9667358827  6.6098021548  2.5138429143
C    2.9034082315 -3.7923486855  0.8745354357
C    3.0816645618 -3.8992408358  2.2550124212
C    3.5684890210 -4.6991946279  0.0573200265
C    3.9005982156 -4.8734428973  2.7992872613
C    4.3993945038 -5.6748306854  0.5871896201
H    4.0198336435 -4.9347320361  3.8686106473
C    4.5639406768 -5.7533553907  1.9591007635
H    4.9092727680 -6.3591540739 -0.0721215492
H    5.2102850986 -6.5089731182  2.3786200924
H   -6.6189797088 -4.3927118527 -0.1117496098
H   -4.8039868284 -4.3326502508 -3.9898712715
H    6.5203578774  4.5303836818  0.0001251225
H    5.0597522079  4.1385780930 -4.0083921781
Cl   2.2387307502 -2.7827248312  3.2748252884
Cl   3.3436702120 -4.5991363055 -1.6564197638
Cl  -1.6156432893  3.1924674118  3.2351616638
Cl  -3.8296277262  4.2568383890 -1.5541010845
Cl   4.5701095116  3.0348021714  1.4366470028
Cl   2.7595983409  2.5317514991 -3.5873697887
Cl  -4.7671450879 -2.8474147912  1.3825742030
Cl  -2.5052281783 -2.7580938899 -3.4874399240
Cl   0.0226095720  0.0241369757  2.4243149276
78
aligned d3map frame 73
N   -0.2501095016 -2.0202844106 -0.1219069665
N   -1.9644819824  0.2816426812 -0.1079159389
C    2.0751441423 -2.6894531803  0.3018924393
C    0.7223762467 -2.9537867165 -0.0080400199
C    0.2074406799 -4.2305599095 -0.3919977740
H    0.7723742986 -5.1423104835 -0.3987077465
C   -1.0831179021 -4.0342318996 -0.7848579875
H   -1.7681241065 -4.7647326455 -1.1688946967
C   -1.3788221515 -2.6479056944 -0.5741024510
C   -2.6097447107 -2.0192101801 -0.7379557058
C   -2.8837822247 -0.6768628876 -0.3569492495
C   -4.1932436052 -0.1556663621 -0.1445149959
H   -5.1046219619 -0.7093211588 -0.2538571560
C   -4.0478258595  1.1452095534  0.2487448538
H   -4.8216176896  1.8392572210  0.5181710943
C   -2.6488863507  1.4329718464  0.2040446581
C   -3.7070899664 -2.7391203525 -1.4130733423
C   -4.3551033401 -3.8544332956 -0.8806644945
C   -5.3473920737 -4.5198254972 -1.5854484238
C   -5.7122974005 -4.0679992374 -2.8429047490
H   -6.4781820388 -4.5860327208 -3.3998027967
C   -5.1066936535 -2.9488267210 -3.3897167051
C   -4.1193551334 -2.2934562445 -2.6748884793
N    0.2674992062  2.0163802856 -0.1538142067
N    1.9858422010 -0.2795975666 -0.1234852512
C   -2.0603649268  2.6972153060  0.2561602101
C   -0.7085287995  2.9493324248 -0.0751320424
C   -0.2029914308  4.2080627006 -0.5270034381
H   -0.7714848204  5.1154505951 -0.5784209603
C    1.0891593673  4.0036315019 -0.9080628855
H    1.7673272531  4.7105408180 -1.3450002937
C    1.3937722686  2.6305899194 -0.6287151735
C    2.6375623923  2.0172623439 -0.7484818552
C    2.9113301923  0.6779755251 -0.3623363709
C    4.2187552368  0.1534871472 -0.1394872769
H    5.1328137839  0.7069693612 -0.2393985462
C    4.0642951670 -1.1469951749  0.2512022229
H    4.8293545804 -1.8466786583  0.5256264491
C    2.6653376088 -1.4286952879  0.2061200865
C    3.7661591262  2.7805895093 -1.3112969158
C    4.3178336863  3.8993570436 -0.6839597013
C    5.3685305785  4.6004780018 -1.2545317198
C    5.8868644140  4.1909530480 -2.4720705811
H    6.7028052907  4.7340427479 -2.9228262609
C    5.3731102135  3.0750130809 -3.1130040722
C    4.3283028029  2.3792497429 -2.5301923083
Fe   0.0125671918  0.0010084317  0.2913542290
C   -2.8891714397  3.8792170387  0.5578353773
C   -2.6278328568  4.6200719797  1.7154831411
C   -3.9150357928  4.3253861545 -0.2801429973
C   -3.3638172946  5.7483555862  2.0349705501
C   -4.6649578629  5.4471591557  0.0331205976
H   -3.1315320607  6.2963450107  2.9351073617
C   -4.3848839653  6.1550220676  1.1906224051
H   -5.4527548266  5.7595480356 -0.6300528274
H   -4.9548377233  7.0358651012  1.4264775744
C    2.9249138882 -3.8456277627  0.6511097077
C    2.7495967546 -4.4760842678  1.8847523125
C    3.9104799366 -4.3428799298 -0.2018319728
C    3.5484722424 -5.5416502354  2.2696723946
C    4.7128764956 -5.4090037657  0.1710654662
H    3.3989399681 -5.9987238319  3.2350760655
C    4.5328998271 -5.9992201874  1.4107603255
H    5.4684172678 -5.7698819298 -0.5080756425
H    5.1612551378 -6.8237689421  1.7092116213
H   -5.8267666030 -5.3811021108 -1.1487628118
H   -5.3885932534 -2.5855824474 -4.3650001950
H    5.7762739771  5.4570119328 -0.7415222616
H    5.7722118362  2.7427053818 -4.0588628878
Cl   1.5279748315 -3.8796590000  2.9505000150
Cl   4.1095534782 -3.6357275335 -1.7654650816
Cl  -1.3593292795  4.0957710222  2.7725100728
Cl  -4.2151098199  3.5002612057 -1.7681386276
Cl   3.7106803340  4.3887653604  0.8580224080
Cl   3.6765216918  0.9983490099 -3.3395680581
Cl  -3.9375602174 -4.3856954602  0.7105140609
Cl  -3.3569195296 -0.9077139155 -3.3694971276
Cl   0.0401067469  0.0038169802  2.4242120388
78
aligned d3map frame 74
N   -0.2786301662 -2.0103189038 -0.1459350866
N   -1.9706614184  0.2558418774 -0.1054634540
C    2.0271444038 -2.6447590564 -0.6660172294
C    0.6524874859 -2.9085973415 -0.5921644595
C    0.0150072338 -4.1527477802 -0.8497380509
H    0.5000599710 -5.0362960029 -1.2170787315
C   -1.3093859128 -3.9926285885 -0.5214334489
H   -2.0939283643 -4.7219415951 -0.5852711304
C   -1.4639853442 -2.6510832973 -0.0912162129
C   -2.7043829688 -2.0375287224  0.2921924115
C   -2.9190250724 -0.6745050818  0.2546783703
C   -4.1813758988 -0.0012940465  0.4440142261
H   -5.0822439607 -0.4662731829  0.7937015889
C   -3.9979495258  1.2905418257  0.0842296006
H   -4.7186905508  2.0856792423  0.0782460525
C   -2.6068046356  1.4457151499 -0.2531253673
C   -3.7819584158 -2.9501665448  0.7068940174
C   -3.6026811367 -3.7443430017  1.8456508512
C   -4.5924941963 -4.5971109165  2.3006935711
C   -5.7935696013 -4.6747868738  1.6154199662
H   -6.5752915170 -5.3283885340  1.9714004464
C   -5.9932904113 -3.9234496119  0.4706114297
C   -4.9904279309 -3.0798997304  0.0204880586
N    0.2901800022  2.0060275621 -0.1781278952
N    1.9935254044 -0.2521172244 -0.1206596460
C   -2.0188796641  2.6546530155 -0.6496201838
C   -0.6340441762  2.8957148663 -0.6562640027
C    0.0294468569  4.1002855520 -1.0166977740
H   -0.4300911498  4.9602785018 -1.4631077024
C    1.3532480709  3.9391981165 -0.6832424268
H    2.1530889376  4.6436433904 -0.8038809030
C    1.4838117590  2.6298053809 -0.1613648764
C    2.7172833071  2.0346516556  0.2791148085
C    2.9460266437  0.6738521233  0.2353142224
C    4.2136310565  0.0030134441  0.3868135276
H    5.1201775650  0.4619204133  0.7282747726
C    4.0308659697 -1.2790653498 -0.0110069231
H    4.7583151874 -2.0665477214 -0.0618108505
C    2.6308331131 -1.4386475137 -0.2975271868
C    3.7296313662  2.9652309042  0.7994318155
C    3.4177680342  3.7045443782  1.9481531065
C    4.3316930255  4.5684654890  2.5259621873
C    5.5854474809  4.7131565301  1.9576052842
H    6.3074426084  5.3733416067  2.4097660923
C    5.9148875402  4.0208588504  0.8043536356
C    4.9879407374  3.1666889356  0.2300800454
Fe   0.0125671918  0.0010084317  0.2913542290
C   -2.9091059530  3.7481018586 -1.0790662580
C   -2.9577755621  4.9783263760 -0.4181188817
C   -3.7173477640  3.5922639306 -2.2094993036
C   -3.7435816510  6.0189540777 -0.8850955645
C   -4.5110554764  4.6232329916 -2.6830275040
H   -3.7523217390  6.9583870907 -0.3565647080
C   -4.5111800699  5.8396882914 -2.0234913021
H   -5.1133307828  4.4701333978 -3.5643987622
H   -5.1162443683  6.6509325445 -2.3971364855
C    2.9090973885 -3.7067343496 -1.2042336874
C    3.4421918947 -4.7261978535 -0.4218619087
C    3.2289986289 -3.6861590822 -2.5610420275
C    4.2732239888 -5.6912409485 -0.9698580201
C    4.0525580430 -4.6457337298 -3.1247958094
H    4.6787777094 -6.4670656184 -0.3407428513
C    4.5733393696 -5.6446481884 -2.3202779336
H    4.2787395901 -4.6033728062 -4.1782227024
H    5.2196933809 -6.3927825557 -2.7519595820
H   -4.4206801903 -5.1869973141  3.1864075706
H   -6.9186806181 -3.9913456512 -0.0794496382
H    4.0572981567  5.1106804895  3.4148209304
H    6.8819812622  4.1465859680  0.3459751654
Cl   3.0553494017 -4.7627122159  1.2612802290
Cl   2.5689369734 -2.4279249489 -3.5435835810
Cl  -2.0566214814  5.1941332876  1.0378249730
Cl  -3.7000891072  2.0893362748 -3.0614873754
Cl   1.8672560978  3.4948357448  2.6823363719
Cl   5.3802317887  2.3890103466 -1.2655006221
Cl  -2.1161869654 -3.6227255941  2.7242953817
Cl  -5.2273948096 -2.2143884193 -1.4603250376
Cl   0.0357696379  0.0420351857  2.4248497692
78
aligned d3map frame 75
N   -0.2561448001 -2.0152495324 -0.1511917055
N   -1.9648818329  0.2820508789 -0.0847925224
C    2.0280853401 -2.6923235108  0.3642693186
C    0.6890481996 -2.9632389685  0.0930405493
C    0.1103668430 -4.2646407512 -0.0974084154
H    0.6312550287 -5.1946447540  0.0240630064
C   -1.1659718780 -4.0724409691 -0.5138226011
H   -1.8868294836 -4.8162883590 -0.7887651862
C   -1.4119351840 -2.6536731922 -0.4846204954
C   -2.6368025114 -2.0278129220 -0.6685948032
C   -2.9017026876 -0.6580005668 -0.3746987240
C   -4.1937315450 -0.0894646111 -0.2705023313
H   -5.1184249779 -0.6066147924 -0.4369203966
C   -4.0237952273  1.2236629065  0.1064914918
H   -4.7859587201  1.9566550759  0.2868960017
C   -2.6288712682  1.4474427234  0.1848622050
C   -3.7806080119 -2.7908093288 -1.2101746942
C   -4.4864089488 -3.7496270784 -0.4854324233
C   -5.5824270378 -4.4014704641 -1.0298254658
C   -5.9880640172 -4.0990458573 -2.3184667883
H   -6.8469440421 -4.5944072782 -2.7422235813
C   -5.3055538747 -3.1546273301 -3.0663593875
C   -4.2131207814 -2.5117996829 -2.5092758249
N    0.2692367348  2.0085179082 -0.1842552792
N    1.9900283289 -0.2700706014 -0.1001555189
C   -2.0052474408  2.7045337428  0.3529077504
C   -0.6666143238  2.9637896097  0.0716142170
C   -0.0832471746  4.2610473432 -0.1251811819
H   -0.5994643397  5.1908705620  0.0171354174
C    1.1898128521  4.0600974175 -0.5519699622
H    1.9227895536  4.7976062541 -0.8156497601
C    1.4181449143  2.6378111378 -0.5491729802
C    2.6434931235  2.0180911282 -0.7595099268
C    2.9221802764  0.6527281341 -0.4694409158
C    4.2042188755  0.0515249028 -0.4810935865
H    5.1207621264  0.5364211203 -0.7554912847
C    4.0408277259 -1.2502018439 -0.0626954342
H    4.7943322317 -2.0070765770  0.0522744782
C    2.6529140983 -1.4427694506  0.1356845677
C    3.7442159813  2.8430232260 -1.3027568258
C    4.8051695773  3.2974116921 -0.5209221854
C    5.8342512335  4.0520458669 -1.0659336033
C    5.8073753518  4.3678564694 -2.4134038344
H    6.6105776297  4.9474974608 -2.8434595644
C    4.7592303479  3.9460590338 -3.2131353464
C    3.7391556840  3.1939835189 -2.6539161036
Fe   0.0125671918  0.0010084317  0.2913542290
C   -2.8546471291  3.8291462872  0.8041961013
C   -2.8935908826  4.1379163531  2.1636438986
C   -3.6292777832  4.5924293382 -0.0630398854
C   -3.6832928542  5.1677865597  2.6463476364
C   -4.4220642564  5.6284678326  0.4036243092
H   -3.6931105312  5.3807008001  3.7030788184
C   -4.4475517142  5.9060445718  1.7596357132
H   -5.0123131199  6.2056429433 -0.2899053772
H   -5.0652445224  6.7105133762  2.1285471193
C    2.8511037883 -3.7844246563  0.9328883162
C    2.9040661422 -3.8846044854  2.3246827993
C    3.5482939333 -4.7237059818  0.1834206292
C    3.6161610418 -4.8936408755  2.9470838158
C    4.2708427948 -5.7381513167  0.7939416579
H    3.6313765404 -4.9499015332  4.0238444853
C    4.2954277544 -5.8197738317  2.1736301851
H    4.7989089985 -6.4550784029  0.1860205093
H    4.8444195472 -6.6122641835  2.6551314829
H   -6.1153998676 -5.1307211011 -0.4406962093
H   -5.6142594072 -2.9098867984 -4.0670319212
H    6.6401214115  4.3877464241 -0.4351695115
H    4.7296568116  4.1911984390 -4.2626040836
Cl   2.0281418855 -2.7270762956  3.2645338194
Cl   3.4990947429 -4.6165771493 -1.5398683204
Cl  -1.9147261953  3.2017205942  3.2436931443
Cl  -3.5782973339  4.2316585078 -1.7529349211
Cl   4.8136162753  2.9202766661  1.1652776101
Cl   2.4374066141  2.6473224003 -3.6470417231
Cl  -4.0086572624 -4.0920711051  1.1414909360
Cl  -3.3486679893 -1.3393125696 -3.4353007340
Cl  -0.0100365712 -0.0281197306  2.4267935986
78
aligned d3map frame 76
N   -0.2715489071 -2.0147407736 -0.1434846646
N   -1.9697772024  0.2504333768 -0.0845834061
C    2.0089832744 -2.6413313262 -0.7398441385
C    0.6693761373 -2.9294519859 -0.4771437022
C    0.0904997724 -4.2465224764 -0.4266480446
H    0.6127753887 -5.1558906402 -0.6518379260
C   -1.1873297418 -4.1017590838  0.0051213277
H   -1.9164536849 -4.8672194471  0.1869725402
C   -1.4295966463 -2.6888124323  0.1338378122
C   -2.6531134563 -2.0826046278  0.3594116747
C   -2.9199581057 -0.7021425495  0.1255940508
C   -4.2047552712 -0.1470961938 -0.0680366483
H   -5.1331505373 -0.6718089033  0.0399442393
C   -4.0167241141  1.1653818719 -0.4411391832
H   -4.7674033465  1.8939581549 -0.6765486761
C   -2.6181554256  1.3995603445 -0.4352603926
C   -3.7799404302 -2.9370280369  0.7972402323
C   -4.0345316906 -3.0656561526  2.1624010149
C   -5.0476551122 -3.8867112907  2.6288843037
C   -5.8270089405 -4.5851751077  1.7224223857
H   -6.6145637186 -5.2289232446  2.0810494711
C   -5.6037568786 -4.4662427782  0.3616940284
C   -4.5820258815 -3.6462204660 -0.0905650750
N    0.2966753740  2.0095277293 -0.1736438881
N    1.9909637749 -0.2587856075 -0.1022371327
C   -2.0032572313  2.6532952741 -0.6638352490
C   -0.6541882302  2.9362421190 -0.4457026340
C   -0.0632793990  4.2474756249 -0.3918850110
H   -0.5803455551  5.1670094433 -0.5925716901
C    1.2247731845  4.0875683096  0.0002878044
H    1.9640714908  4.8453484581  0.1720820783
C    1.4594995833  2.6737838352  0.1053236336
C    2.6766283462  2.0641352395  0.3576174593
C    2.9447692970  0.6850417591  0.1298012040
C    4.2296537621  0.1212322306 -0.0499349983
H    5.1615097597  0.6392766801  0.0776964624
C    4.0370283125 -1.1813457245 -0.4548159995
H    4.7840856255 -1.9130416019 -0.6930143985
C    2.6362817155 -1.4054456216 -0.4651255652
C    3.7784782316  2.8930631904  0.8973439236
C    3.9264721573  2.9602339444  2.2833377679
C    4.9151526694  3.7370436618  2.8630322739
C    5.7785844146  4.4498202486  2.0509864191
H    6.5465551773  5.0619621614  2.4950523729
C    5.6580134528  4.3975750572  0.6728559454
C    4.6590557987  3.6242440481  0.1083178476
Fe   0.0125671918  0.0010084317  0.2913542290
C   -2.8816271371  3.7434802150 -1.1414824122
C   -3.3245402074  4.7737460446 -0.3140106866
C   -3.3090161149  3.7492636073 -2.4694424180
C   -4.1571476883  5.7752623261 -0.7909218557
C   -4.1431078082  4.7401235888 -2.9598194430
H   -4.4839384598  6.5585281019 -0.1262888107
C   -4.5639128048  5.7528911989 -2.1135537040
H   -4.4549541944  4.7121472950 -3.9911707347
H   -5.2165796219  6.5225659712 -2.4856606951
C    2.8179402945 -3.6817523768 -1.4160435757
C    3.5252228737 -4.6803306383 -0.7537247504
C    2.8630387012 -3.6635747156 -2.8112076457
C    4.2510887268 -5.6327378217 -1.4560279995
C    3.5793801528 -4.6080481278 -3.5269452870
H    4.7909547766 -6.3953961039 -0.9178935749
C    4.2717033367 -5.5914726383 -2.8398181532
H    3.5909935498 -4.5676879914 -4.6041913362
H    4.8315285209 -6.3330074716 -3.3892772371
H   -5.2167965415 -3.9759956185  3.6898083810
H   -6.2113921380 -5.0054685491 -0.3474043421
H    4.9924912596  3.7801871371  3.9371113766
H    6.3271149012  4.9549956932  0.0370895489
Cl   3.4867985641 -4.7169198011  0.9734509486
Cl   2.0020674696 -2.4208376769 -3.6430662434
Cl  -2.8464058937  4.7750247603  1.3443470154
Cl  -2.7800243491  2.4873402861 -3.5176826670
Cl   2.8223197132  2.0624805292  3.2710657387
Cl   4.4698587847  3.5802423402 -1.6131925212
Cl  -3.0415062101 -2.1823482441  3.2666719784
Cl  -4.2815105122 -3.4910404298 -1.7847960974
Cl   0.0365113550  0.0277662654  2.4236325652
78
aligned d3map frame 77
N   -0.2801209041 -2.0081227442 -0.1506650631
N   -1.9637748607  0.2584178518 -0.1345356136
C    2.0163393523 -2.6504198605 -0.6914319823
C    0.6395418989 -2.9098512954 -0.6098401062
C   -0.0148301620 -4.1453885016 -0.8699845200
H    0.4523738779 -5.0267926156 -1.2640344425
C   -1.3316960632 -3.9784685467 -0.5163304734
H   -2.1254791065 -4.6978613568 -0.5718007994
C   -1.4690531112 -2.6384701606 -0.0749889453
C   -2.6994737343 -2.0166311583  0.3261323015
C   -2.9163529685 -0.6555594874  0.2568613483
C   -4.1783539299  0.0262454563  0.4015099389
H   -5.0847120602 -0.4175520814  0.7636948538
C   -3.9902984784  1.2977212975 -0.0258079206
H   -4.7114822007  2.0903323982 -0.0833469079
C   -2.5953983655  1.4371728562 -0.3512364543
C   -3.7618196163 -2.9299085216  0.7796428440
C   -3.5526867019 -3.6839923121  1.9398634216
C   -4.5129233385 -4.5582824973  2.4191882683
C   -5.7093351375 -4.6958864295  1.7366251576
H   -6.4638289708 -5.3718030086  2.1075390008
C   -5.9395164145 -3.9785177658  0.5755899520
C   -4.9677026025 -3.1120449677  0.1016223988
N    0.2817122601  2.0033209297 -0.1826721830
N    1.9871103301 -0.2541913524 -0.1479410572
C   -1.9956398058  2.6252597608 -0.8005350641
C   -0.6134988148  2.8738354728 -0.7440440053
C    0.0760040826  4.0604450231 -1.1153059927
H   -0.3518167238  4.9037595669 -1.6225143534
C    1.3802883240  3.9094651531 -0.7031323420
H    2.1903330784  4.6064779175 -0.8053309631
C    1.4768576931  2.6188462570 -0.1333832110
C    2.6899671381  2.0148880117  0.3602852187
C    2.9331600723  0.6610199191  0.2541657311
C    4.1996006053 -0.0127022844  0.3957041668
H    5.1072334776  0.4393248025  0.7427324576
C    4.0197965045 -1.2845041635 -0.0352068773
H    4.7492129673 -2.0689664725 -0.1017304601
C    2.6215863847 -1.4382582433 -0.3367472260
C    3.6336524230  2.9201662489  1.0339549009
C    3.2106750128  3.5099591149  2.2325860371
C    4.0449927965  4.3315763257  2.9696943825
C    5.3259065301  4.5880896650  2.5114985793
H    5.9846859211  5.2191738852  3.0873973620
C    5.7624943984  4.0466708265  1.3149204052
C    4.9166469361  3.2275267365  0.5835814243
Fe   0.0125671918  0.0010084317  0.2913542290
C   -2.8829854060  3.6525513990 -1.3714054612
C   -2.9996641244  4.9412629315 -0.8445274068
C   -3.6438350329  3.3543151072 -2.5077574005
C   -3.8051978699  5.8971273001 -1.4412789295
C   -4.4616768058  4.2973591365 -3.1057520104
H   -3.8634239649  6.8847260866 -1.0130323439
C   -4.5313689049  5.5729076568 -2.5736046153
H   -5.0288524263  4.0280675299 -3.9843848666
H   -5.1581788745  6.3162049986 -3.0408291273
C    2.9100587778 -3.7372359496 -1.1441258717
C    3.1884667807 -4.8528491588 -0.3561088626
C    3.5164343494 -3.6571233924 -2.3979315039
C    4.0421552278 -5.8506588101 -0.7989019975
C    4.3644905851 -4.6506275780 -2.8572732928
H    4.2478424097 -6.6968900113 -0.1637797531
C    4.6250969769 -5.7442459141 -2.0499576411
H    4.8113941330 -4.5620840327 -3.8341920903
H    5.2898235404 -6.5193032669 -2.3982539464
H   -4.3193967977 -5.1208196566  3.3180613486
H   -6.8622192451 -4.0930864488  0.0297574626
H    3.6897427927  4.7561004305  3.8947302273
H    6.7520960266  4.2587444009  0.9429319959
Cl   2.4734540138 -4.9627943299  1.2117136777
Cl   3.1778350953 -2.2900523867 -3.3979257732
Cl  -2.1662619558  5.3401487740  0.6154242008
Cl  -3.5394077267  1.7791179895 -3.2107774255
Cl   1.6231172373  3.1581745216  2.8210429397
Cl   5.4452221537  2.6198308930 -0.9465017838
Cl  -2.0686441094 -3.4879983600  2.8035782796
Cl  -5.2350473857 -2.2847936444 -1.3934669630
Cl   0.0242436679 -0.0144026842  2.4245245166
78
aligned d3map frame 78
N   -0.2829644589 -2.0072053208 -0.1516520532
N   -1.9677824543  0.2455382091 -0.1208133844
C    1.9981890221 -2.6193759372 -0.7857131011
C    0.6312422475 -2.8983114468 -0.6361721037
C   -0.0089076249 -4.1476626100 -0.8597232996
H    0.4654516994 -5.0308121960 -1.2381497093
C   -1.3179231673 -3.9956726591 -0.4701219058
H   -2.1028814745 -4.7271943603 -0.4916850823
C   -1.4636939124 -2.6517200551 -0.0457174393
C   -2.6945532189 -2.0328163507  0.3567083869
C   -2.9152054971 -0.6723644087  0.2729194301
C   -4.1770277942  0.0072438112  0.4423630657
H   -5.0800397469 -0.4423840177  0.8046424692
C   -3.9940702648  1.2857940686  0.0338220764
H   -4.7144361934  2.0828093092 -0.0015540588
C   -2.6026937750  1.4306708888 -0.3048995007
C   -3.7471191668 -2.9454534312  0.8302716842
C   -3.5101834402 -3.7034274770  1.9841497276
C   -4.4613247848 -4.5756879033  2.4853235878
C   -5.6756992057 -4.7095581795  1.8323056667
H   -6.4210348940 -5.3847349613  2.2227413458
C   -5.9336163860 -3.9893596143  0.6777973071
C   -4.9723493926 -3.1246927989  0.1824310091
N    0.2948484773  2.0045890234 -0.1824799894
N    1.9896724807 -0.2516930733 -0.1361770446
C   -2.0076188937  2.6326584242 -0.7177623728
C   -0.6252534171  2.8866691399 -0.6803982217
C    0.0362592243  4.0968451838 -1.0254075183
H   -0.4169988368  4.9491624045 -1.4864310071
C    1.3539904326  3.9460753565 -0.6647358642
H    2.1470470827  4.6603811302 -0.7646839675
C    1.4874056063  2.6323738614 -0.1509328834
C    2.7320473498  2.0323067797  0.2459493691
C    2.9578726955  0.6701710916  0.1855161822
C    4.2329610173  0.0013673523  0.2401731340
H    5.1555776633  0.4543203218  0.5427226827
C    4.0316839018 -1.2671418514 -0.1936577971
H    4.7565594955 -2.0488634615 -0.3202448093
C    2.6183651195 -1.4257150804 -0.3991218153
C    3.7717045738  2.9803786340  0.6800480830
C    3.5182354332  3.7631784428  1.8167345627
C    4.4348500070  4.6901715622  2.2809065255
C    5.6354385475  4.8552822424  1.6103047046
H    6.3553422756  5.5738564303  1.9707203062
C    5.9108987582  4.1087167349  0.4755100604
C    4.9794678645  3.1935094457  0.0126724057
Fe   0.0125671918  0.0010084317  0.2913542290
C   -2.9054095623  3.6951147369 -1.2053785605
C   -2.9971050620  4.9471634191 -0.5907556351
C   -3.7019623854  3.4749660125 -2.3329524850
C   -3.8058514123  5.9480097647 -1.1052014195
C   -4.5277367101  4.4618711822 -2.8440054843
H   -3.8413168893  6.9066819970 -0.6140930656
C   -4.5678575984  5.7026442066 -2.2329604632
H   -5.1275151630  4.2533750731 -3.7142445392
H   -5.1979380049  6.4798021944 -2.6361449630
C    2.8330771633 -3.6298592143 -1.4756397224
C    3.4851075638 -4.6750688570 -0.8288194137
C    2.9735317206 -3.5264683852 -2.8591417000
C    4.2573796987 -5.5857683171 -1.5350687701
C    3.7356320041 -4.4304411475 -3.5790832917
H    4.7575056228 -6.3843814452 -1.0103867197
C    4.3788300128 -5.4570430147 -2.9076581994
H    3.8214297006 -4.3237536379 -4.6486221523
H    4.9787090911 -6.1612511982 -3.4641881962
H   -4.2470805132 -5.1402167918  3.3795239889
H   -6.8722423169 -4.1011579652  0.1571317110
H    4.2055492118  5.2748741279  3.1594509989
H    6.8389246896  4.2418171102 -0.0585741329
Cl   3.3150911792 -4.8193168239  0.8818253513
Cl   2.1672847380 -2.2343967045 -3.6760362417
Cl  -2.1256465899  5.2405310202  0.8706791935
Cl  -3.6341570195  1.9459965636 -3.1345944548
Cl   2.0352534010  3.5346808934  2.6735792416
Cl   5.3080999942  2.3442491823 -1.4634954523
Cl  -2.0071409900 -3.5112258837  2.8189286592
Cl  -5.2794902318 -2.2937706448 -1.3074668256
Cl   0.0003269555  0.0231400134  2.4240459061
78
aligned d3map frame 79
N   -0.2798697838 -2.0086942696 -0.1395466769
N   -1.9640437290  0.2536466098 -0.1337742577
C    2.0075332839 -2.6413117558 -0.7240163969
C    0.6347419195 -2.9084236168 -0.6154452552
C   -0.0220218471 -4.1447033495 -0.8632047797
H    0.4408251926 -5.0280409690 -1.2580777263
C   -1.3334015034 -3.9785598499 -0.4884761008
H   -2.1258155339 -4.7001115664 -0.5302007151
C   -1.4655853448 -2.6390624760 -0.0450690418
C   -2.6890428012 -2.0142638273  0.3838337193
C   -2.9079547358 -0.6516910602  0.2938136703
C   -4.1598496361  0.0411988031  0.4751932804
H   -5.0547955442 -0.3854251827  0.8822355595
C   -3.9788094223  1.3083615247  0.0303099634
H   -4.6980184433  2.1040418664 -0.0080108076
C   -2.5933085571  1.4390110711 -0.3302233896
C   -3.7224689755 -2.9069223723  0.9264922497
C   -3.4270731817 -3.6678753827  2.0657199481
C   -4.3755928386 -4.4778027222  2.6658690163
C   -5.6530984697 -4.5422303469  2.1360515251
H   -6.4033279858 -5.1511079293  2.6146874296
C   -5.9686077203 -3.8318468141  0.9907933970
C   -5.0043145702 -3.0420106886  0.3859979634
N    0.2900436921  2.0052469410 -0.1717383520
N    1.9870095578 -0.2510817818 -0.1487497866
C   -1.9940397054  2.6365858261 -0.7511403810
C   -0.6151916642  2.8923409593 -0.6885268484
C    0.0598208625  4.1050682730 -0.9991520954
H   -0.3831285784  4.9692112098 -1.4561177174
C    1.3661655113  3.9453077729 -0.6015822066
H    2.1684087972  4.6538646859 -0.6707506713
C    1.4792587736  2.6276125370 -0.0962645327
C    2.6973558842  2.0146702197  0.3687668368
C    2.9368990133  0.6590988150  0.2501303167
C    4.2041300641 -0.0170175852  0.3715949905
H    5.1147613135  0.4277372400  0.7206350355
C    4.0191084248 -1.2840741444 -0.0730268591
H    4.7473303036 -2.0683224174 -0.1564983090
C    2.6180514672 -1.4339936964 -0.3604240333
C    3.6570901125  2.9172488466  1.0216705641
C    3.2541819638  3.5358702232  2.2132428592
C    4.1047098087  4.3655178268  2.9227452963
C    5.3835856468  4.5975054269  2.4474970207
H    6.0551386468  5.2333324389  3.0031737346
C    5.8013833729  4.0262461924  1.2582504743
C    4.9380484091  3.2039488691  0.5517109528
Fe   0.0125671918  0.0010084317  0.2913542290
C   -2.8829529817  3.6909964507 -1.2735735514
C   -3.0391928467  4.9302026660 -0.6498496245
C   -3.5959832005  3.4695926585 -2.4556597587
C   -3.8466965712  5.9161031895 -1.1946629645
C   -4.4067008200  4.4458553986 -3.0093547772
H   -3.9447890171  6.8631205456 -0.6886513622
C   -4.5223113209  5.6714437002 -2.3771469630
H   -4.9367472183  4.2415722308 -3.9236973144
H   -5.1487244709  6.4363100015 -2.8046173043
C    2.8948968069 -3.7046237672 -1.2439735384
C    3.2519176885 -4.8249980813 -0.4973542383
C    3.4148379516 -3.5872433427 -2.5333128447
C    4.1000130376 -5.7925087413 -1.0138219336
C    4.2549184287 -4.5499262420 -3.0663278770
H    4.3682205803 -6.6440874892 -0.4097021749
C    4.5960223064 -5.6496688783 -2.2981639342
H    4.6339395094 -4.4326157685 -4.0687574247
H    5.2555037440 -6.4005091121 -2.7045347395
H   -4.1102050896 -5.0411825376  3.5460133183
H   -6.9551145780 -3.8908756446  0.5582498598
H    3.7632475467  4.8144775476  3.8411743180
H    6.7893902575  4.2186119970  0.8719400669
Cl   2.6408290791 -4.9802217915  1.1100496446
Cl   2.9775515262 -2.2114765716 -3.4814073878
Cl  -2.2452656291  5.2207320606  0.8563292624
Cl  -3.4395580719  1.9483319357 -3.2600739963
Cl   1.6706752563  3.2158696871  2.8281688397
Cl   5.4419325852  2.5716956887 -0.9775936750
Cl  -1.8545033910 -3.5466277428  2.7762239042
Cl  -5.3901762702 -2.2552785704 -1.1063413975
Cl   0.0110453243 -0.0029142509  2.4261358704
78
aligned d3map frame 80
N   -0.2618683304 -2.0104720735 -0.1555985957
N   -1.9572672205  0.2873189857 -0.1248132305
C    2.0327094724 -2.6802264775  0.3463805564
C    0.6923260325 -2.9537206948  0.0505338562
C    0.1491051205 -4.2443900844 -0.2549485985
H    0.6940628446 -5.1646067098 -0.1919426621
C   -1.1160998759 -4.0440811411 -0.7118047755
H   -1.8077915003 -4.7787633384 -1.0750720003
C   -1.3886652119 -2.6377152181 -0.5965651171
C   -2.6010411055 -1.9934414922 -0.8289896972
C   -2.8793848166 -0.6430676471 -0.4683670780
C   -4.1807851639 -0.0881478589 -0.3482558072
H   -5.0968138418 -0.6090802290 -0.5485021649
C   -4.0264820927  1.2014798601  0.1000172336
H   -4.7967090553  1.9175676873  0.3159601001
C   -2.6307758107  1.4385886549  0.1922514032
C   -3.6893674697 -2.7192837326 -1.5129053469
C   -4.4151822994 -3.7594153974 -0.9345265312
C   -5.4133258586 -4.4211776675 -1.6329774388
C   -5.7006663073 -4.0473685323 -2.9336670227
H   -6.4666806136 -4.5709003295 -3.4871927937
C   -5.0076526021 -3.0086076693 -3.5339105395
C   -4.0208435067 -2.3519994510 -2.8210862232
N    0.2570915725  2.0068959757 -0.1901031904
N    1.9830546644 -0.2684835494 -0.1367262133
C   -2.0141407617  2.6883141832  0.3944690822
C   -0.6746864495  2.9582074174  0.0958923833
C   -0.0999083246  4.2521459883 -0.1149420863
H   -0.6034650465  5.1868169994  0.0374303267
C    1.1637708959  4.0525511101 -0.5832750577
H    1.8862566760  4.7947774148 -0.8636293367
C    1.3909509907  2.6341511062 -0.5920310061
C    2.6108909300  2.0057477645 -0.8485084642
C    2.9012342808  0.6512178171 -0.5356151627
C    4.1910629861  0.0554496632 -0.5397421334
H    5.1048526480  0.5344624169 -0.8342973123
C    4.0397669843 -1.2316196407 -0.0832371768
H    4.8047053459 -1.9702393784  0.0573150017
C    2.6509695178 -1.4337951318  0.1218395966
C    3.6605588483  2.8139966291 -1.5011622256
C    4.8107836782  3.2551228056 -0.8494008227
C    5.7799708232  3.9930945720 -1.5124323426
C    5.6029290442  4.3075747264 -2.8481172576
H    6.3543903478  4.8789274380 -3.3694301952
C    4.4640405887  3.8977262546 -3.5209334040
C    3.5054266550  3.1618330499 -2.8467648079
Fe   0.0125671918  0.0010084317  0.2913542290
C   -2.8564836315  3.8070000134  0.8718932207
C   -2.8484603034  4.1256439384  2.2295829591
C   -3.6690614540  4.5554851282  0.0255725200
C   -3.6374933637  5.1504973389  2.7294394159
C   -4.4593067292  5.5850787920  0.5111626219
H   -3.6180819148  5.3712350489  3.7844703131
C   -4.4412945562  5.8736689207  1.8654668279
H   -5.0786378485  6.1500613558 -0.1659756593
H   -5.0581103871  6.6707884830  2.2515401779
C    2.8814652894 -3.7773165237  0.8615787208
C    2.9213955328 -3.9773061347  2.2419588020
C    3.6633026833 -4.6013204720  0.0577741924
C    3.7189738867 -4.9620253038  2.8018688297
C    4.4649675291 -5.5901574128  0.6029520747
H    3.7339726236 -5.0906801844  3.8708027066
C    4.4882774460 -5.7643046297  1.9775792021
H    5.0635575808 -6.2136367134 -0.0416862335
H    5.1156989302 -6.5288774921  2.4077446006
H   -5.9568426601 -5.2211627425 -1.1567042966
H   -5.2225636844 -2.7108682854 -4.5486625157
H    6.6571027248  4.3172368197 -0.9768841481
H    4.3184205555  4.1426940639 -4.5611218582
Cl   1.9531761699 -2.9551743273  3.2485673869
Cl   3.6202861053 -4.3641367618 -1.6565422429
Cl  -1.8407342958  3.2000645259  3.2856498793
Cl  -3.6707777744  4.1831044024 -1.6617941121
Cl   5.0050387360  2.9056731806  0.8312576011
Cl   2.0928964336  2.6366906151 -3.6894623339
Cl  -4.0809300380 -4.2065067976  0.7012527467
Cl  -3.1400334403 -1.0664411932 -3.5712050769
Cl   0.0246067186  0.0194128735  2.4241704834
78
aligned d3map frame 81
N   -0.2708084587 -2.0099877003 -0.1523294088
N   -1.9634256902  0.2417577805 -0.1228705163
C    1.9676745400 -2.6065393714 -0.8968958274
C    0.6503868083 -2.9177338179 -0.5580414193
C    0.0609643511 -4.2289720041 -0.5308065046
H    0.5626008766 -5.1353070335 -0.8097738932
C   -1.1984553988 -4.0890875851 -0.0428319392
H   -1.9285387813 -4.8546813754  0.1365335201
C   -1.4233718655 -2.6798762479  0.1370286889
C   -2.6500086414 -2.0739111579  0.3671848648
C   -2.9200218294 -0.7023831785  0.0980415409
C   -4.1982906011 -0.1466485583 -0.1389900639
H   -5.1331992960 -0.6613294713 -0.0335021966
C   -3.9952983064  1.1485351739 -0.5603650844
H   -4.7379328017  1.8692681108 -0.8437185179
C   -2.5964012533  1.3788819462 -0.5298608291
C   -3.7536088093 -2.9445761991  0.8284735983
C   -3.8631577128 -3.2163437695  2.1924528077
C   -4.8380946198 -4.0719247980  2.6784701802
C   -5.7186578250 -4.6693148468  1.7932650262
H   -6.4733115245 -5.3447781777  2.1645706862
C   -5.6373942982 -4.4121836977  0.4354887311
C   -4.6575245940 -3.5532738547 -0.0363828776
N    0.3048987396  2.0052793131 -0.1817552285
N    1.9818480947 -0.2564979063 -0.1419287237
C   -1.9724818820  2.6235570330 -0.7892957440
C   -0.6362190508  2.9231069703 -0.5170454749
C   -0.0453433375  4.2349788964 -0.4732913556
H   -0.5488250453  5.1485447964 -0.7226451701
C    1.2255344988  4.0860313905 -0.0211415900
H    1.9544926989  4.8512315175  0.1625682120
C    1.4609526788  2.6734477612  0.1119453528
C    2.6774308841  2.0566119669  0.3594768787
C    2.9393589873  0.6834151761  0.0720997276
C    4.2115902826  0.1423526367 -0.2198992662
H    5.1451862319  0.6633245483 -0.1331378614
C    4.0000630719 -1.1412597204 -0.6756925307
H    4.7349130312 -1.8518575533 -1.0014896173
C    2.6053374420 -1.3781426459 -0.6037437452
C    3.7974265753  2.8470842750  0.9105072285
C    4.0766000464  2.7166418976  2.2724308190
C    5.0998944978  3.4326304257  2.8689614759
C    5.8667347269  4.2883179331  2.0976954986
H    6.6654651999  4.8493227650  2.5555795998
C    5.6214315602  4.4279577896  0.7427074403
C    4.5905525145  3.7087664531  0.1598568000
Fe   0.0125671918  0.0010084317  0.2913542290
C   -2.8179820462  3.6673154562 -1.4072425428
C   -3.3077844597  4.7716162490 -0.7126974481
C   -3.1509608469  3.5518477003 -2.7584755145
C   -4.0871220969  5.7316307708 -1.3401616638
C   -3.9290266543  4.5012908333 -3.3989938461
H   -4.4505969987  6.5753250344 -0.7773167917
C   -4.3924586584  5.5923563440 -2.6831271004
H   -4.1629670967  4.3820163252 -4.4446948136
H   -4.9980163537  6.3370643339 -3.1760992533
C    2.7265423174 -3.5783553626 -1.7140598493
C    3.3966630865 -4.6875414066 -1.2104145261
C    2.7559517267 -3.3709482877 -3.0946422320
C    4.0710248424 -5.5631498830 -2.0478132915
C    3.4213638998 -4.2362525177 -3.9444932334
H    4.5858103192 -6.4135308084 -1.6290021916
C    4.0778116668 -5.3329287833 -3.4124517333
H    3.4178035053 -4.0492898104 -5.0062776725
H    4.6005999619 -6.0123218823 -4.0693422392
H   -4.8955140271 -4.2679942423  3.7367198165
H   -6.3190683554 -4.8776668417 -0.2579080761
H    5.2845786983  3.3178348523  3.9246851570
H    6.2222948617  5.0870090889  0.1373977576
Cl   3.3880894604 -4.9565593764  0.4969702192
Cl   1.9187880639 -2.0046221098 -3.7415458929
Cl  -2.9556933964  4.9186494409  0.9728686944
Cl  -2.5535352473  2.1962764245 -3.6474852381
Cl   3.0929595930  1.6472898550  3.2118124789
Cl   4.2880453879  3.8556024807 -1.5357119885
Cl  -2.7444046322 -2.4605251848  3.2719749163
Cl  -4.5218930879 -3.2419960011 -1.7300532090
Cl   0.0064621584  0.0283880524  2.4231000357
78
aligned d3map frame 82
N   -0.2781411033 -1.9986250371 -0.1991421211
N   -1.9674877643  0.2383339436 -0.1076619110
C    1.9746128871 -2.5732261882 -0.9375064095
C    0.6436640754 -2.8867226364 -0.6343960728
C    0.0648246897 -4.2027853755 -0.6388348061
H    0.5750388311 -5.0948031858 -0.9481422914
C   -1.1934349595 -4.0853460346 -0.1368989397
H   -1.9193823675 -4.8590765017  0.0234573966
C   -1.4237925119 -2.6846747264  0.0897235084
C   -2.6414279804 -2.0834151895  0.3724024991
C   -2.9163462946 -0.7072414448  0.1306340332
C   -4.2006862497 -0.1624588836 -0.1170582507
H   -5.1308412891 -0.6807725417  0.0095623247
C   -4.0050764762  1.1138067958 -0.5885804889
H   -4.7548602314  1.8119633682 -0.9049466561
C   -2.6064675165  1.3584859495 -0.5582332935
C   -3.7610955342 -2.9300573669  0.8400011734
C   -3.9025444317 -3.1556796618  2.2104593827
C   -4.9508329044 -3.9174536222  2.7038222048
C   -5.8676207555 -4.4671672689  1.8238576684
H   -6.6898481443 -5.0555782339  2.2021433942
C   -5.7414019363 -4.2691220221  0.4600373895
C   -4.6891231541 -3.5054027407 -0.0214585175
N    0.3075211061  1.9909110166 -0.2288581595
N    1.9862288317 -0.2473174268 -0.1260057974
C   -1.9681968244  2.5622703027 -0.9185170207
C   -0.6272877300  2.8713857822 -0.6476065892
C   -0.0594386282  4.1897070388 -0.6640149470
H   -0.5787493124  5.0801365714 -0.9627386338
C    1.2079009909  4.0839473359 -0.1817649105
H    1.9196164353  4.8713153157 -0.0266581731
C    1.4556511816  2.6870704764  0.0370709428
C    2.6740396740  2.0838516460  0.3134081929
C    2.9364267689  0.7014546523  0.0855757736
C    4.2142300869  0.1637956234 -0.2015918723
H    5.1445172574  0.6897359746 -0.1088390258
C    4.0119427396 -1.1163167302 -0.6644998854
H    4.7529892597 -1.8149996753 -1.0007952062
C    2.6161113415 -1.3645119902 -0.5958776250
C    3.8216930773  2.9063419214  0.7476838081
C    4.2345098922  2.8225244917  2.0788797401
C    5.3205918320  3.5445103004  2.5440095295
C    6.0146252553  4.3636018346  1.6701808526
H    6.8595752396  4.9225988462  2.0271167925
C    5.6294246751  4.4661117699  0.3445572497
C    4.5378450962  3.7407742866 -0.1069871689
Fe   0.0125671918  0.0010084317  0.2913542290
C   -2.7283636209  3.5601889433 -1.6999390311
C   -3.6823830587  4.4201927145 -1.1636725183
C   -2.4604038662  3.6612326851 -3.0677679211
C   -4.3379617753  5.3541934844 -1.9523034869
C   -3.1062346707  4.5873223231 -3.8688695856
H   -5.0611736995  6.0146161446 -1.5036864396
C   -4.0455433017  5.4345105133 -3.3037420167
H   -2.8742606084  4.6376499017 -4.9217665823
H   -4.5411345887  6.1696522953 -3.9156688621
C    2.7261280921 -3.5452914826 -1.7626698818
C    3.6583572074 -4.4489990008 -1.2649033773
C    2.4876060255 -3.5433679532 -3.1393157563
C    4.3346082587 -5.3203620724 -2.1077578316
C    3.1540134331 -4.4053342818 -3.9917910603
H    5.0513614234 -6.0111604230 -1.6936368843
C    4.0784336417 -5.2931857963 -3.4668597885
H    2.9494816650 -4.3728388627 -5.0501616211
H    4.6041736850 -5.9652941910 -4.1258189593
H   -5.0439514588 -4.0692716515  3.7666317007
H   -6.4505216312 -4.6999810711 -0.2294136828
H    5.6121174182  3.4601527448  3.5788082364
H    6.1683403677  5.0971574147 -0.3405721707
Cl   3.9564016775 -4.4814966577  0.4350298289
Cl   1.3438976159 -2.4163191551 -3.7779525063
Cl  -4.0119548382  4.3433498489  0.5326206032
Cl  -1.2859474213  2.6022999786 -3.7637823220
Cl   3.3430099076  1.8000603738  3.1515503095
Cl   4.0772974863  3.8296514535 -1.7691660487
Cl  -2.7555534278 -2.4490078883  3.2874985901
Cl  -4.5119650479 -3.2499076578 -1.7224623831
Cl   0.0266524887  0.0100132855  2.4229098585
78
aligned d3map frame 83
N   -0.2829179123 -2.0041114846 -0.1794744530
N   -1.9632040431  0.2339581349 -0.1258670477
C    1.9619404798 -2.5903199642 -0.9201659019
C    0.6378918426 -2.9021954926 -0.5960736167
C    0.0528713498 -4.2170337307 -0.5888982796
H    0.5621282941 -5.1143098535 -0.8848248740
C   -1.2067998950 -4.0892576777 -0.0959982754
H   -1.9396452250 -4.8567716811  0.0694297476
C   -1.4357708699 -2.6833058284  0.1075370379
C   -2.6551289840 -2.0800488679  0.3678369650
C   -2.9219392891 -0.7019206541  0.1066363146
C   -4.1992920089 -0.1426212159 -0.1322438582
H   -5.1389904522 -0.6439596033 -0.0069628094
C   -3.9925241512  1.1390749046 -0.5881047101
H   -4.7321528050  1.8573618443 -0.8849793978
C   -2.5924152350  1.3639247322 -0.5643344641
C   -3.7749321358 -2.9144555627  0.8554209222
C   -3.8388850150 -3.2094750698  2.2189888517
C   -4.8810608174 -3.9558185196  2.7433537411
C   -5.8764541792 -4.4193432663  1.9009044824
H   -6.6927004453 -4.9967398503  2.3024280744
C   -5.8314089499 -4.1544750508  0.5430955364
C   -4.7812584707 -3.4086691100  0.0306812116
N    0.3074607307  1.9975073347 -0.2086168245
N    1.9838531102 -0.2476482986 -0.1437484571
C   -1.9579295308  2.5827741838 -0.8868925146
C   -0.6258609685  2.8942818194 -0.6007993796
C   -0.0455082412  4.2112386494 -0.6028279566
H   -0.5589064129  5.1090827800 -0.8889628136
C    1.2213853684  4.0871424663 -0.1310864496
H    1.9469703976  4.8610889436  0.0285282888
C    1.4617730552  2.6814097189  0.0605129039
C    2.6830943609  2.0773412267  0.3041779534
C    2.9421712284  0.6980248832  0.0380303252
C    4.2084450960  0.1642976811 -0.2880707706
H    5.1402273427  0.6913686367 -0.2301259359
C    3.9930948436 -1.1222186521 -0.7322778476
H    4.7214942597 -1.8262565754 -1.0833782159
C    2.6016230485 -1.3679210134 -0.6219388327
C    3.8127206151  2.9061483298  0.7775586525
C    4.0918962434  2.9201157564  2.1447569120
C    5.1152371047  3.6993433884  2.6612181271
C    5.8836825098  4.4673075700  1.8020599578
H    6.6826624364  5.0753012479  2.1980651345
C    5.6374146149  4.4596477233  0.4394166338
C    4.6045458481  3.6831724163 -0.0627366469
Fe   0.0125671918  0.0010084317  0.2913542290
C   -2.7478809653  3.5703322811 -1.6568915042
C   -3.4143871846  4.6524963670 -1.0905662681
C   -2.8179223367  3.4109771863 -3.0411716747
C   -4.1256478834  5.5485054134 -1.8745608187
C   -3.5214251614  4.2977841856 -3.8380022182
H   -4.6341486793  6.3772060628 -1.4089885116
C   -4.1736373789  5.3657086906 -3.2457565949
H   -3.5507758871  4.1479159589 -4.9053422897
H   -4.7261763356  6.0589227056 -3.8603432444
C    2.7183115475 -3.5624164553 -1.7434953639
C    3.4802541945 -4.6093206933 -1.2327574470
C    2.6563531763 -3.4135260725 -3.1312796747
C    4.1602893699 -5.4797317451 -2.0737189555
C    3.3280709694 -4.2732224340 -3.9844465958
H    4.7449375321 -6.2840754423 -1.6536886973
C    4.0799970164 -5.3058263218 -3.4464701517
H    3.2555648306 -4.1324690187 -5.0523802973
H    4.6092811392 -5.9810091735 -4.1036797074
H   -4.9071967615 -4.1667763441  3.8002960544
H   -6.5989163549 -4.5229420311 -0.1183264912
H    5.3027769789  3.6989185529  3.7229840947
H    6.2397935437  5.0504628430 -0.2331756616
Cl   3.5716159916 -4.8079709713  0.4823064368
Cl   1.7044706456 -2.1193918796 -3.7767926919
Cl  -3.3460659534  4.8594657461  0.6220947980
Cl  -1.9896067861  2.0759744219 -3.7609127856
Cl   3.1082090042  1.9537375555  3.1895740405
Cl   4.2823813599  3.6621635793 -1.7601886947
Cl  -2.5866564868 -2.6156309686  3.2505482604
Cl  -4.6912220464 -3.0950641348 -1.6677920746
Cl   0.0149816889  0.0177335062  2.4244533676
78
aligned d3map frame 84
N   -0.2788029723 -2.0018698904 -0.1844076496
N   -1.9629518476  0.2375243073 -0.1246616708
C    1.9588962215 -2.5822055585 -0.9510659900
C    0.6386743905 -2.8964593754 -0.6168292048
C    0.0551393849 -4.2117762825 -0.6083851892
H    0.5585345806 -5.1082520552 -0.9150563433
C   -1.1963088955 -4.0879793924 -0.0970381738
H   -1.9216542664 -4.8600501988  0.0745554459
C   -1.4263430387 -2.6824740348  0.1116939085
C   -2.6458160642 -2.0804248919  0.3700261779
C   -2.9169454248 -0.7058802268  0.0882787605
C   -4.1925314077 -0.1657763257 -0.1935668931
H   -5.1257098213 -0.6855610190 -0.0995287762
C   -3.9872410918  1.1200199299 -0.6423270052
H   -4.7271544438  1.8266248544 -0.9655428693
C   -2.5914631846  1.3616554101 -0.5794766641
C   -3.7489326935 -2.9288455778  0.8711343786
C   -3.8354525305 -3.1552076406  2.2461129248
C   -4.8279620626 -3.9632696571  2.7774095487
C   -5.7500035124 -4.5544290627  1.9316883584
H   -6.5207440313 -5.1885416194  2.3407624142
C   -5.6889286082 -4.3435850144  0.5647192140
C   -4.6896496798 -3.5354776423  0.0458001901
N    0.3028236411  1.9981489197 -0.2137445047
N    1.9821743444 -0.2525424303 -0.1420855634
C   -1.9643159992  2.5935383170 -0.8723245209
C   -0.6332605572  2.9044099612 -0.5831197737
C   -0.0504571101  4.2205537771 -0.5541848570
H   -0.5607452099  5.1251860867 -0.8225389695
C    1.2146812709  4.0860452305 -0.0828672490
H    1.9407045607  4.8552464796  0.0960281180
C    1.4548447491  2.6756135046  0.0792313905
C    2.6709522321  2.0682043446  0.3355951100
C    2.9372434231  0.6910437315  0.0557155559
C    4.2066592793  0.1619185188 -0.2691053438
H    5.1383392990  0.6882629842 -0.1960498017
C    3.9937762705 -1.1177748435 -0.7348452084
H    4.7262696267 -1.8176196819 -1.0877313535
C    2.6020451634 -1.3661276111 -0.6347813113
C    3.7904612935  2.8858203890  0.8493085465
C    4.0405753076  2.8735793932  2.2219419064
C    5.0547982513  3.6388272004  2.7739604162
C    5.8394781745  4.4239941418  1.9468376402
H    6.6275928156  5.0261288288  2.3702786297
C    5.6231479293  4.4445137148  0.5793718585
C    4.6021876620  3.6767319779  0.0418745759
Fe   0.0125671918  0.0010084317  0.2913542290
C   -2.7858513665  3.5930352477 -1.5907236047
C   -3.3863548211  4.6907735641 -0.9818506224
C   -2.9822296018  3.4205363568 -2.9621369588
C   -4.1550583214  5.5862653799 -1.7095786139
C   -3.7468504324  4.3047895360 -3.7026571951
H   -4.6115717658  6.4264997889 -1.2118576180
C   -4.3322410386  5.3864289736 -3.0676039776
H   -3.8769225741  4.1424654528 -4.7604973849
H   -4.9333388999  6.0784334123 -3.6363905311
C    2.6963580814 -3.5379704108 -1.8081912880
C    3.4541713894 -4.6062442649 -1.3422608087
C    2.6087385014 -3.3531803023 -3.1891512573
C    4.1028012696 -5.4632812119 -2.2190616094
C    3.2483454606 -4.1993407633 -4.0779328207
H    4.6842899005 -6.2842391344 -1.8315763383
C    3.9948928159 -5.2546262369 -3.5829701683
H    3.1552355949 -4.0281155644 -5.1384960358
H    4.4966223805 -5.9210081472 -4.2673668476
H   -4.8681308051 -4.1236154163  3.8428216436
H   -6.4037643831 -4.8031336499 -0.0984602691
H    5.2183470069  3.6164974898  3.8390545252
H    6.2361626482  5.0485743121 -0.0694191347
Cl   3.5776490821 -4.8524364318  0.3634165548
Cl   1.6646655079 -2.0323454507 -3.7841980110
Cl  -3.1779834523  4.9133252003  0.7186968631
Cl  -2.2339616721  2.0718938591 -3.7410464995
Cl   3.0353203433  1.8903504492  3.2277757698
Cl   4.3216210635  3.6790979627 -1.6640458324
Cl  -2.6749926137 -2.4028637928  3.2780270660
Cl  -4.5811159958 -3.2822858617 -1.6608459263
Cl   0.0159169032  0.0318634414  2.4238057472
