196
 energy: -281.967402115165 gnorm: 0.000226779669 xtb: 6.7.1 (edcfbbe)
P            1.07807852654648       -1.13541974484472       -0.59548134594614
Au           2.63040573583712        0.17827558180311        0.64376356770012
C            0.53341641311387       -2.67197910398311        0.21551335510591
C            1.06839881214328       -2.96437760516597        1.46492252153293
C           -0.27054670714547       -3.61323855409807       -0.43108264387791
C            0.80474173371013       -4.18050485066414        2.07063866215622
H            1.70440329157968       -2.23533498166589        1.94919486046149
C           -0.51680245144423       -4.83685722468275        0.17678992782634
H           -0.61115168377212       -3.43711487675720       -1.44052549875975
C            0.01262604558063       -5.11705057857868        1.42688946790325
H            1.23268314528685       -4.40669333600848        3.03562988496253
H           -1.10372348118919       -5.58187290883222       -0.33824268212498
H           -0.17581886199154       -6.07386981149537        1.89013229691537
C            2.16205707645886       -1.81952261554403       -1.89169105698977
C            3.18486371510155       -2.65531614233115       -1.44544706482080
C            2.10077903600451       -1.47426296860897       -3.23570204048739
C            4.11273100746049       -3.16291197936829       -2.33225160624145
H            3.24539391968243       -2.90742118877233       -0.39425904045397
C            3.03352791013526       -1.99113194403522       -4.11960595001279
H            1.34388310170225       -0.80523776944542       -3.61255055563251
C            4.03668363625415       -2.83411554412577       -3.67653703442447
H            4.89664788858430       -3.81443976147795       -1.97725387979329
H            2.97120475963497       -1.72779812769763       -5.16482656884937
H            4.76309437559468       -3.22741902285125       -4.37020705324227
O           -4.57910066469361        3.82752829497510        1.34658416027172
N           -2.40556153611252       -0.89315529955495       -0.22287478851707
O           -2.54528351995121        3.33965153754933        0.55421936265236
C           -1.58912165351865       -0.09010630136431       -0.94364529951169
C           -4.41991321323396        1.96736666404775       -0.13028326787402
N           -3.39372063437804        0.97011610613043       -0.36628275692512
C           -5.25988112540409        3.98100421847686       -1.45926904124851
N           -3.46951138971552       -0.24236029266795        0.11939081484848
C           -4.91539037316222        2.51483109513277       -1.49620231653910
H           -5.77918208009856        1.92883317733328       -1.80532620839116
H           -4.12603983810106        2.36634369298754       -2.23299456132043
C           -5.85832947780755        6.70480742362671       -1.40226407060437
H           -6.09106657883239        7.75896723487393       -1.38273560682822
C           -4.58276413601645        6.28025544409073       -1.73514420735806
H           -3.81763881482825        7.00352962795740       -1.97621352041301
C           -4.28853784819072        4.92858924246683       -1.76485966371315
H           -3.28985998815452        4.61135561454248       -2.03167025441719
C           -6.53476794649221        4.41829761534090       -1.12486703569979
H           -7.30772031994323        3.70382596245818       -0.88786840897346
C           -2.23533786454179        1.12784853971963       -1.03875882451330
H           -1.94360065739820        2.05142595430381       -1.48722662975556
C           -6.83398801838399        5.76949724967526       -1.09898541078259
H           -7.83127794993879        6.09420804073852       -0.84155368831885
C           -3.73687445950233        3.13106307943390        0.63209684640216
C           -3.50980472045486        4.44795839066666        3.43423912806186
H           -2.68465861735050        3.76112643306444        3.25996961015393
H           -3.14467240146628        5.28936356472424        4.01512478206703
H           -4.28359155404556        3.93657431881834        4.00182699478715
C           -4.07843894202294        4.95409302207206        2.11434083678434
H           -3.28899465483020        5.43051096948568        1.52045634250987
C           -5.25005793077305        5.90007544969300        2.31231064326513
H           -6.03613075289192        5.40606570089090        2.87703951692132
H           -4.91952092204134        6.77790112424089        2.85863424644737
H           -5.65008762155013        6.21149404181853        1.35125629332043
C           -5.55029059585161        1.40351059811043        0.75798361955696
H           -6.20802528994880        2.24638231487148        0.97463238263124
H           -5.09989391604606        1.07533100450727        1.69644571926841
C           -6.38438976329505        0.27191944075083        0.20893116237474
C           -8.03273831877368       -1.81176065905549       -0.66647689479491
C           -6.16460417031522       -1.03590204976772        0.62872116306805
C           -7.46471468772474        0.51923487751594       -0.63220429969262
C           -8.27381421468406       -0.51262342293170       -1.07764456618241
C           -6.98033045226492       -2.06654407330276        0.19666885530893
H           -5.35252409113469       -1.25105534796809        1.30432305292941
H           -7.71111934153805        1.52911154263342       -0.92360162787515
H           -9.10623741141408       -0.29640877108375       -1.73130079603173
H           -6.79895747024577       -3.07339939617600        0.54269121739489
H           -8.67278571388145       -2.61424133821164       -1.00177669699298
Cu          -2.31359654539201       -2.58299368090107        0.66610407437951
C           -0.34802090892582       -0.54066834347612       -1.61550581091600
H            0.06020358921518        0.29442708245308       -2.19125406465883
H           -0.59711902977295       -1.35207530036061       -2.31053365698316
N           -2.35356120367720       -3.12647441683682        2.66845896708554
N           -3.52342790587048       -4.18345417119061        0.50242668366366
C            0.92883730788376        0.13844082310103        3.52284338783276
H            1.93291098693840        0.34751445747797        3.85447972058524
C            0.29703261251891        1.06090886397652        2.68306814743682
O           -0.39042351392644        0.75166554535699       -4.77099797678669
O            1.05180104258737        2.10613187528088        2.24749040996520
C           -1.63654401807796       -2.60405675571699        3.66585271989004
C           -2.98875894116218       -4.29404459135595        2.83042314954302
C           -2.88768768536574       -5.01356604040310        4.01772996391457
H           -3.36895739944595       -5.96986659124298        4.13032464067221
C           -4.75879603918497       -5.74917005845024        1.80018244401947
H           -4.99447704014357       -6.18903359939403        2.75406634610243
C           -3.78324809624323       -4.76540838033326        1.68286724687717
C           -2.13505188186856       -4.48774874974142        5.05660901702018
H           -2.04491843047954       -5.02545486982769        5.98817423070969
C           -1.51145408447455       -3.26555876731349        4.88851642485087
H           -0.95059547007833       -2.81479385922593        5.69061476665188
C           -1.02879732172893        0.84155468284963        2.32162707686377
H           -1.56343289643879        1.58930636399900        1.75924200769374
C           -4.17614986159595       -4.55177195959973       -0.59369319399512
C            1.39630847407118        4.25097194015711       -0.81679756476925
H            0.46462387099846        4.81922223265632       -0.76640514564065
H            2.19210835598577        4.94491444228421       -1.09408860979874
C           -3.82824511097740       -0.34877473494806       -4.00815988961734
H           -4.79095294344742        0.06203123230562       -3.74110175510403
C            0.29161991170429       -1.02735491735068        3.88604272263776
C           -2.76837082154417        0.51437374164107       -4.23646370476054
H           -2.93097716039627        1.57880863826321       -4.17167177990103
C           -0.99381686045727       -1.30850992217857        3.42110305528713
C           -1.66090662940508       -0.33193770585608        2.68803144995420
H           -2.69403005486136       -0.49192203806084        2.42047421755200
C           -5.44420266171242       -6.14928613338438        0.66239146217010
H           -6.20002269470572       -6.91719577912686        0.72577655349793
C            0.55968952618463        2.88631205458839        1.16153693011239
H            0.13939960212912        2.21246677080202        0.40796324734669
H           -0.23110871870273        3.56295677130545        1.50257537270235
C            1.29136963778051        3.16781324839790       -1.89175536157588
H            0.40938182820009        2.55814577164245       -1.69492557952490
H            2.16750466843501        2.51903718288154       -1.82775728054699
C           -1.52531631293770        0.00615377361808       -4.59276396778435
C           -3.83934731233493       -3.87760963288093       -1.88692178274574
H           -3.61221994062163       -4.64562658813981       -2.62946107785478
H           -2.96125567006212       -3.24599339490829       -1.74282178662652
C           -5.14390749573445       -5.55497413692287       -0.54879237715099
H           -5.64723695281338       -5.85938344842263       -1.45227933281607
C           -3.68766127501469       -1.72271044336561       -4.13655146899052
C            1.72117699822165        3.67608625333531        0.56384684908913
H            1.99253196215164        4.48216922786983        1.24719511638559
H            2.57878338934189        3.00391590699041        0.47347707392908
C           -4.84911145881503       -2.63981453831636       -3.88020831951816
H           -5.76934950429335       -2.14620391179734       -4.19960170998128
H           -4.73366580770549       -3.54848148743720       -4.47436375250313
C           -1.38130024460940       -1.37320498732094       -4.75415756795026
H           -0.42542529661559       -1.76072497061954       -5.07057458594391
C           -2.44863674433802       -2.21811669923152       -4.53048523929089
H           -2.31643067686271       -3.27982608887416       -4.67616178386753
C            1.20439937252174        3.74036890248983       -3.30802631927580
H            2.12455248598247        4.28589148698555       -3.52311179958089
H            0.37935387814840        4.45358513427736       -3.37764717224851
C           -0.41626338232935        2.13450433883301       -4.44620126812614
H           -0.98486036702874        2.68838173222684       -5.20350516672490
H           -0.91083074576303        2.26643429515440       -3.47746514677635
C           -5.00397013945999       -3.02102796201912       -2.40134617106307
H           -5.93778715593517       -3.57408554646866       -2.29388942303057
H           -5.08259833108231       -2.11979980113560       -1.79232727732871
C            1.02625753595771        2.64255867382798       -4.36316240733756
H            1.33453401217064        3.01059393736346       -5.34166006877782
H            1.67150583340636        1.79927423445691       -4.11001296614975
H            0.81374826481073       -1.74602196442116        4.49808637016719
C            5.44922669911060        1.35288084176061        1.00633565237857
C            4.17463784858454        1.22704954187714        1.49480256106253
C            6.50040606981513        2.05731719963035        1.62192114993304
H            3.97090647885130        1.86557616869507        2.34524668910881
O            5.87846005617929        0.62245208436756       -0.12230473942986
C            5.18412758487713        0.61866632205372       -1.26760889956718
O            4.10370235484282        1.16753817093856       -1.39930639370593
C            7.86812883531572        1.90529517607875        1.09982603291344
H            8.10150498904818        0.85331586578551        0.93510874510035
H            7.93124446258882        2.36998758616201        0.11216996189881
H            8.60767717780063        2.35844654802191        1.75283388075573
C            6.31890493710648        2.90054423261725        2.80920844128021
H            5.29190202930840        3.20829576372880        2.97833561602800
H            6.66257233157921        2.34942521548492        3.68917767454529
H            6.96286889871312        3.77648337654692        2.73571041936303
C            5.89333237603591       -0.08018366599264       -2.34724975265503
C            5.56394279307523        0.24181258553475       -3.66210420612703
C            6.88744898365995       -1.01564350682856       -2.06925741065074
C            6.25215222027061       -0.33744472366645       -4.71657128719032
H            4.78636193291448        0.96980237002123       -3.81917717327002
C            7.56526262599340       -1.63637495969569       -3.10616030758616
H            7.10141902479510       -1.24840730374150       -1.04079667596119
C            7.24016579876130       -1.26875868179407       -4.40965408686381
H            7.78503950013746       -1.72365991487123       -5.22037607826141
C            6.00375925595115        0.03958619641226       -6.16957621007602
C            4.80459108004940        0.97824814795531       -6.33059903496643
H            4.64726394537173        1.18677103571879       -7.38676942619423
H            3.89870341953181        0.52557217642371       -5.93602856381843
H            4.97784103217804        1.92693955111672       -5.82825371609611
C            7.25582801258776        0.75717417170827       -6.69782482839660
H            7.10696016990199        1.05450745053624       -7.73356057615090
H            7.45869939478055        1.65040235046358       -6.11005918263741
H            8.13066466253036        0.11396095309796       -6.65208996669483
C            5.74361213248510       -1.22055067434599       -7.00735941668913
H            5.51898089441905       -0.94142517445177       -8.03451367957408
H            6.60768807529545       -1.87835628512877       -7.02619750789950
H            4.89763164224141       -1.77509302434878       -6.60953224660155
C            8.64929313302688       -2.67921640499592       -2.87567642732238
C            9.96893036966587       -2.17314627919698       -3.47721253644775
H            9.89359037924992       -2.03725455168457       -4.55236005663719
H           10.24967889195753       -1.22059849771430       -3.03200266096070
H           10.76484625112323       -2.88932631156853       -3.28509496835610
C            8.88176646275233       -2.96722378914451       -1.38936861083756
H            9.22589214001716       -2.07747731197420       -0.86774465008978
H            7.97736605520906       -3.33861136937063       -0.91323227664288
H            9.65045753352154       -3.73023002568985       -1.28636675787234
C            8.23550968694763       -3.99067787060154       -3.55960216315089
H            8.11953799009210       -3.86324978927351       -4.63213771712337
H            8.99305637105178       -4.75323154193821       -3.39252725375660
H            7.29242130417809       -4.34895467266425       -3.15256874206534
