172
 energy: -256.624456553644 gnorm: 0.000476071497 xtb: 6.7.1 (edcfbbe)
P            1.12649635897177       -1.08986592146357       -0.73492481716130
Au           2.71952372647001        0.16956360898043        0.50889159507501
C            0.61018024713201       -2.67222913156678        0.00070744055087
C            1.19453799316582       -3.04612873287508        1.20540897964336
C           -0.21836194361286       -3.56958002735409       -0.67639299565328
C            0.95423228577095       -4.30110242352965        1.73745511426656
H            1.85153305216843       -2.35063324848394        1.71027461281052
C           -0.43967016436896       -4.83241568021993       -0.14423004927203
H           -0.59721127044596       -3.32491959269464       -1.65754084652010
C            0.13855850728473       -5.19459699341940        1.06250625090121
H            1.42022800335531       -4.59166316375273        2.66695704442221
H           -1.04443329618133       -5.54345871827605       -0.68591463137448
H           -0.02995533912253       -6.18171584149681        1.46600267274857
C            2.11886292163207       -1.69247835899602       -2.14053068992336
C            3.09169602703968       -2.64674059900459       -1.84590962571199
C            2.04200922823981       -1.17078858807491       -3.42656292446729
C            3.94957482464534       -3.09948105795816       -2.82902797216016
H            3.16929926712035       -3.03728547677038       -0.83948116031203
C            2.90547266066787       -1.62960767271191       -4.40757822656566
H            1.32164591676178       -0.41091378899991       -3.68377401099031
C            3.85519330362388       -2.59303800709298       -4.11601218659561
H            4.69484257814893       -3.84464541137223       -2.59358720914472
H            2.83402507549671       -1.22820505280485       -5.40742787506717
H            4.52387479374339       -2.94630779898544       -4.88598470460369
O           -4.46121593358948        3.67788693100834        1.83533804320036
N           -2.35812195231550       -0.86729916260640       -0.19708547786716
O           -2.45818449852468        3.27537222137364        0.92595317948250
C           -1.56041658784575       -0.01374868798888       -0.88014652272689
C           -4.35856168213068        1.98423558968347        0.16271373054134
N           -3.34758108664045        1.00123002182860       -0.17785302922847
C           -5.17219540344134        4.13228418582131       -0.94435524129961
N           -3.41142753065354       -0.24352265463093        0.22180350167271
C           -4.86184517958338        2.67025267885243       -1.13596307419027
H           -5.74309678147711        2.13579848591215       -1.48617455532046
H           -4.08840505051967        2.57986597183988       -1.89834275992751
C           -5.70265975589677        6.84655021761985       -0.58150098935665
H           -5.90838679844853        7.89709003874767       -0.44084627783994
C           -4.44272761173384        6.43179154857321       -0.97976403193005
H           -3.66323572233316        7.15927205740179       -1.15247798109198
C           -4.18258597738007        5.08515598125374       -1.16215442494426
H           -3.19588995101750        4.77602056694388       -1.47794352505074
C           -6.43164838991291        4.55963095231637       -0.54500431930878
H           -7.21877574110058        3.84156608156080       -0.37522407884570
C           -2.20739867170115        1.20753157928228       -0.86758566761555
H           -1.92573939762629        2.16156409957204       -1.25441704707992
C           -6.69703433045512        5.90641348364010       -0.36706715482693
H           -7.68251348374635        6.22387853742052       -0.05995591388286
C           -3.64751719395231        3.06110573702817        1.02205640641594
C           -3.34310595855571        4.05411032592813        3.95299499155181
H           -2.53355906862121        3.37711537843381        3.68930483297014
H           -2.95298282251631        4.82154526452117        4.61440236093046
H           -4.11576742888749        3.49642026975867        4.47679932955693
C           -3.92640396786214        4.70910002053616        2.70707122183689
H           -3.14002608827642        5.23338758823680        2.15082493970704
C           -5.07536455323335        5.64842609145835        3.02940071263715
H           -5.85891989369103        5.11124123257263        3.55694883451994
H           -4.71636092720425        6.45792114989897        3.65725100522869
H           -5.48888442310043        6.06640296080365        2.11563512589701
C           -5.48842442440756        1.35559447552209        1.00569145590622
H           -6.12536111998718        2.18474189848598        1.31676453582970
H           -5.03370206814763        0.92366613251725        1.89878901888801
C           -6.35370807337448        0.30408787117888        0.35583521723216
C           -8.05783665274116       -1.64447288684106       -0.70313156029987
C           -6.15390657846720       -1.04401415994340        0.63303490329358
C           -7.44120538397414        0.65873255238452       -0.43646462081928
C           -8.27673339443813       -0.30531743235888       -0.97495832031902
C           -6.99907528279350       -2.00794513923617        0.11192016880136
H           -5.33454616126556       -1.34265275907015        1.26702503070858
H           -7.67102802092831        1.69808431980307       -0.61658191109522
H           -9.11304664947988       -0.00649073846563       -1.58994229926893
H           -6.83581643995381       -3.04840432259435        0.35086249281528
H           -8.71985901559132       -2.39503662184131       -1.10860161436857
Cu          -2.21804949829258       -2.61244724938922        0.57024858916144
C           -0.34530425590557       -0.40974727508174       -1.63020468538223
H            0.04178797487041        0.47151084706869       -2.14910624636376
H           -0.62422599405090       -1.15830343525264       -2.38258894587085
N           -2.16965380350762       -3.28849064752575        2.53149552576378
N           -3.41674647092384       -4.21418431996924        0.34877638343278
C            1.14673409478081       -0.07655634464780        3.46239994543044
H            2.16457000517567        0.11088431417273        3.76377074392227
C            0.47639365224874        0.90310193330699        2.72356020055807
O           -0.50436319131139        1.10868496257768       -4.68398365402327
O            1.20530374798748        1.98613248309212        2.33881737213577
C           -1.41289624148071       -2.82875603443174        3.53029403015827
C           -2.80149268864771       -4.46357449550482        2.64596921278133
C           -2.65988291275896       -5.25220866079291        3.78436356830977
H           -3.14162618082528       -6.21197806577784        3.85879501097750
C           -4.60012768065232       -5.86441131867894        1.58855639958458
H           -4.80307328452921       -6.36237342765941        2.52112807608056
C           -3.63448858371935       -4.86790094823099        1.49992951807252
C           -1.86514070959096       -4.79195730272390        4.82297736731760
H           -1.74196591432756       -5.38485896942837        5.71647798425177
C           -1.24199350157896       -3.56379209682217        4.70432037344525
H           -0.64691235923729       -3.16390484328335        5.50878309631430
C           -0.86323216639433        0.70335963199785        2.40394313810665
H           -1.42309078096168        1.48741991030366        1.92188679774606
C           -4.09951803962106       -4.52346785803086       -0.74747236214862
C            1.39830855254445        4.35382711533441       -0.57332414093907
H            0.47399111161554        4.91927930259113       -0.43453366441488
H            2.18305824535144        5.06437340777588       -0.84012867640031
C           -3.89246192430725       -0.11744985155498       -3.88875372712924
H           -4.85355223921309        0.25246296902611       -3.56252723231749
C            0.52661979510562       -1.26788547970899        3.76878581268408
C           -2.85747199597710        0.78267277922463       -4.08721081062456
H           -3.03862757188052        1.83583036209651       -3.94003639823880
C           -0.77842792618418       -1.51944794242659        3.34335403089796
C           -1.47736663301235       -0.49635391859898        2.71053723791841
H           -2.52103002881445       -0.64111275218494        2.47704580985765
C           -5.31840423932932       -6.20163975429574        0.45069897999876
H           -6.06781821062355       -6.97731793635872        0.49163403960996
C            0.66191061632512        2.83777724826863        1.33379341020923
H            0.21490655008407        2.21529635782843        0.55229505487960
H           -0.11833938268602        3.47939947044942        1.75661408790293
C            1.23287374564782        3.35110301181035       -1.71652124464322
H            0.35194626506741        2.73842133378750       -1.52558396339109
H            2.10155101286555        2.69030418853024       -1.73569752365564
C           -1.61771897843950        0.32828187867169       -4.51951935721733
C           -3.80353162923558       -3.77349489478176       -2.00881073426744
H           -3.58163805581266       -4.49606440325807       -2.79722667409197
H           -2.93200289711090       -3.13658939714823       -1.84921647185982
C           -5.05839470784113       -5.53599444568368       -0.73241483325644
H           -5.58634926354129       -5.79242630331424       -1.63675724011207
C           -3.72994377770269       -1.47518610656628       -4.12185365213287
C            1.78928580592931        3.68131441097306        0.74476604131587
H            2.08621691081580        4.43810433933636        1.47236775486419
H            2.64590796450038        3.02453068907257        0.56727987843184
C           -4.86690642475560       -2.43255259414223       -3.90498619942337
H           -5.80229245119281       -1.94021782464530       -4.17933456888885
H           -4.74189013001631       -3.29941397219985       -4.55688469460606
C           -1.45091893515300       -1.03315987024230       -4.78065447896905
H           -0.49743658191908       -1.37611754973349       -5.15085492091067
C           -2.49391933165810       -1.91479075085905       -4.58544946694573
H           -2.34552464363752       -2.96065491797121       -4.80939635285295
C            1.09579418872270        4.02097343118712       -3.08526211509564
H            2.00581151059863        4.58662816710387       -3.29175816182919
H            0.26528369478044        4.73102593197351       -3.07921508311586
C           -0.54489972511945        2.46748880251225       -4.27187713453267
H           -1.15053323192872        3.05576973082930       -4.97244576049958
H           -1.00664024464309        2.52837996471469       -3.28025798036122
C           -4.99083160496804       -2.90820988296612       -2.45094256644641
H           -5.91320053737025       -3.48373439967327       -2.36452261510427
H           -5.07441430603085       -2.04749977552704       -1.78666360545579
C            0.89104960595695        2.99756736526936       -4.20811408223296
H            1.15459045701921        3.43941497569386       -5.16913049330378
H            1.55968719643332        2.15071072111341       -4.04152446708471
H            1.07551990579846       -2.02688639340059        4.30400570325927
C            5.43242753060200        1.62492639704299        0.83537054635560
C            4.21719760028020        1.27784506359660        1.36912384310073
C            6.40717623957672        2.43011270525183        1.45317805866194
H            3.99698128387010        1.79029825679045        2.29726429093475
O            5.90011990208740        1.05639481845476       -0.37046752870866
C            5.14919155638012        0.98377796776457       -1.47208553351465
O            3.99080865908246        1.35800526099750       -1.52874279616173
C            7.74019189206023        2.54067302807279        0.83779213582789
H            8.14951993933833        1.54908670928699        0.64049333410814
H            7.65500957587205        3.01387726424576       -0.14354600865328
H            8.42885266412222        3.11057268074496        1.45366062192149
C            6.19028336484043        3.13848256172131        2.71945698666298
H            5.15029932273464        3.20471432007328        3.02083316382285
H            6.75089769249694        2.62916144456668        3.50819499851964
H            6.62028303432339        4.13810298251245        2.65139773943219
C            5.88363334031955        0.42738815282492       -2.61911021114924
C            5.34113648907990        0.59014178400473       -3.89400337756919
C            7.09600144656398       -0.24429223107967       -2.46149287045758
C            6.01158146974707        0.10107727436367       -4.99765794692768
H            4.40382067327035        1.11435293846521       -3.99720445449759
C            7.75468078961198       -0.74021380500736       -3.57001940359260
H            7.50709068273141       -0.38484633019987       -1.47446080031233
C            7.21799252508775       -0.56363047028433       -4.83703627393484
H            5.59831569753752        0.23898967095036       -5.98490938989456
H            8.69142867607030       -1.26285258072264       -3.44964840458646
H            7.74188156197888       -0.94549574574404       -5.70040733502382
