162
 energy: -241.720898003565 gnorm: 0.000677359373 xtb: 6.7.1 (edcfbbe)
P            1.07225227959104       -1.11395715823174       -0.75795212090088
Au           2.76232598705762        0.24682814561104        0.22327505847707
C            0.59657415320778       -2.62640725969361        0.13321607199440
C            1.25841373660266       -2.91048516031226        1.32214731872164
C           -0.27154060921194       -3.56944855393915       -0.42125521821062
C            1.05111527674834       -4.11926624918612        1.96378744561574
H            1.95123001150632       -2.18475968391550        1.72564259257270
C           -0.45742961373910       -4.78709023232951        0.21871562057126
H           -0.70598815800439       -3.39970286953152       -1.39510796462214
C            0.19388890807742       -5.05744370052999        1.41224666394021
H            1.57667897099692       -4.34100135884815        2.88036439046496
H           -1.09217384643574       -5.53635121072885       -0.22888168988311
H            0.05079096117959       -6.00973109007876        1.90050150387256
C            1.93933267731362       -1.83409659650785       -2.19091120074155
C            2.82796321376617       -2.87890448776791       -1.94151559112901
C            1.86118143630128       -1.29603252927703       -3.47112670821838
C            3.59825505323152       -3.40150102428084       -2.96284144229480
H            2.91193041752677       -3.28652599101488       -0.94304412393884
C            2.63711936098034       -1.82348720530305       -4.48965067458913
H            1.20572829219244       -0.47006625345986       -3.69442784519771
C            3.50303574071166       -2.87530222127373       -4.24199590003869
H            4.27668121438655       -4.21749640085370       -2.76199688112883
H            2.56675672975802       -1.40474681105579       -5.48287479580634
H            4.10603647301562       -3.28113824599954       -5.04047150245016
O           -4.31642305335744        3.77440178323558        1.97959934205477
N           -2.39882066705692       -0.78859241565446       -0.04492014452935
O           -2.36743839654055        3.37590250058020        0.95597836485657
C           -1.61182882544909        0.00839051055695       -0.80462417634483
C           -4.31626544607988        2.12635923708815        0.25662131733444
N           -3.34617079503290        1.10173823231052       -0.08453454110313
C           -5.03639804609415        4.31787673411297       -0.81497919917845
N           -3.41940079320171       -0.11876119146930        0.38426771004624
C           -4.79644314468514        2.84539086554640       -1.03264289124452
H           -5.70478371107044        2.35761999730327       -1.38193928270099
H           -4.03560627690117        2.73171231885360       -1.80413623997490
C           -5.42930506640384        7.04653671505158       -0.38679972833641
H           -5.58177465736818        8.10229409053896       -0.21995372331537
C           -4.20730614748076        6.58368160237203       -0.84495220425100
H           -3.40379064571636        7.27883544493578       -1.03922523015099
C           -4.01577132019422        5.23027231615679       -1.05973288443241
H           -3.05865697919847        4.88307417088044       -1.42203878351552
C           -6.25843187466883        4.79375633707591       -0.35781247637634
H           -7.06967517910570        4.10880384492973       -0.16685588506785
C           -2.22955885067509        1.24507187771339       -0.82678670476903
H           -1.93969622482158        2.17233534210152       -1.26894877681612
C           -6.45546032065000        6.14749104995719       -0.14729256017506
H           -7.41279141479965        6.50251473519952        0.20452525331552
C           -3.55278900033210        3.17273983514077        1.10952346289520
C           -3.12161277122531        4.07352439875675        4.06543713578932
H           -2.33673112823869        3.38546662745696        3.75930278035760
H           -2.69366690889742        4.81513430431378        4.73288247176841
H           -3.89012364890579        3.52009432106818        4.59975016066523
C           -3.72912973215506        4.77278783842849        2.85555753898398
H           -2.94974537899224        5.29264002826174        2.28565688719630
C           -4.84519689678292        5.72928007993979        3.23806590288169
H           -5.62494341259425        5.19600613939205        3.77523524662011
H           -4.44862547305526        6.51316329145802        3.87571569483379
H           -5.27612256131164        6.18131225060484        2.34881584778177
C           -5.47015030360193        1.54247593574519        1.09756294728989
H           -6.06526940525153        2.39540699332761        1.42572123314432
H           -5.03362174193246        1.07331624002883        1.98048648913465
C           -6.38561254138248        0.54635622272569        0.42992236250577
C           -8.17558439642132       -1.29963554813521       -0.66970621578447
C           -6.23850684540389       -0.81590055832764        0.66691544551248
C           -7.46371410280284        0.96785266355397       -0.34245374715219
C           -8.34123141243096        0.05448772457241       -0.90202048328096
C           -7.12784080191255       -1.72900653233337        0.12735096944526
H           -5.42628090478689       -1.16416215905475        1.28501888063178
H           -7.65229508789148        2.02036571390789       -0.49151256695032
H           -9.16782861632285        0.40439318109712       -1.50295629970727
H           -7.00923670060116       -2.78122619524439        0.33941273986255
H           -8.86934497693765       -2.01097386419671       -1.09236533785526
Cu          -2.21375279345710       -2.48954326694827        0.80735770609190
C           -0.44884071116145       -0.46211786562517       -1.59357637725350
H           -0.07874385685141        0.37517716074185       -2.19137490150410
H           -0.78466229820201       -1.25031987362784       -2.27941806283023
N           -2.06861722158804       -3.05710821515877        2.79760246686834
N           -3.40650885556978       -4.10847000300691        0.72463889918853
C            1.34540248708417        0.13377154200437        3.35404145920755
H            2.38292193127714        0.31398958618981        3.58515619250708
C            0.65375581294664        1.08141008908475        2.59396448685260
O           -0.69303751822284        0.89833884706220       -4.73217577620482
O            1.37869795354181        2.12312349742536        2.10183502100960
C           -1.26149354156203       -2.54976962697687        3.73194806210957
C           -2.71224310797903       -4.21172177848407        3.01153649613408
C           -2.53606738498413       -4.92766006610180        4.19245169677967
H           -3.02931904223926       -5.87155186867288        4.34879134793598
C           -4.55041291344801       -5.66915468888793        2.10794963526236
H           -4.72821428067623       -6.10054131370307        3.07806956781015
C           -3.58819460872628       -4.68240230032744        1.92372580232977
C           -1.69126529742374       -4.41694386878704        5.16597975085589
H           -1.54075650612696       -4.95396719852038        6.09009569291244
C           -1.05185009400042       -3.21200128601162        4.94224404427901
H           -0.41444417194673       -2.77425741414625        5.69280556826390
C           -0.70583212527853        0.89380597918295        2.36369882097265
H           -1.27704645226861        1.66084053490546        1.86901054090871
C           -4.11415693306154       -4.49661518977042       -0.33054239766072
C            1.41184657677976        4.36246935579562       -0.91630015385398
H            0.50639560589922        4.94922842455545       -0.74645001169197
H            2.18646746425509        5.04834881432194       -1.26502208145486
C           -4.00510611096659       -0.40420903394933       -3.75494139056602
H           -4.96319757426532       -0.05424067285195       -3.39932872202090
C            0.71874489215338       -1.02073092874183        3.77035964756884
C           -3.00593575055248        0.52025809096912       -4.01546087769807
H           -3.21203146391506        1.57017620426549       -3.87961792363009
C           -0.61248075676409       -1.26836415909172        3.43306575404761
C           -1.32553999912118       -0.27025405249075        2.77689888635646
H           -2.38378924738224       -0.40402493709359        2.61234483648073
C           -5.29628816737077       -6.08686611255888        1.01552930570743
H           -6.04194786815985       -6.85865616670055        1.13041787041874
C            0.78010649090865        2.94181841608029        1.10033745316515
H            0.27739636697368        2.29413835986574        0.37540128643575
H            0.03528812803615        3.60924096438761        1.54631754050162
C            1.15932635564389        3.31272015258380       -1.99997740859172
H            0.29850952366550        2.70809937036253       -1.71582086501589
H            2.02325264516005        2.64852715902612       -2.06367255527598
C           -1.77326638599682        0.09147199955843       -4.49271598206727
C           -3.84069729682907       -3.84313296699240       -1.65009906483238
H           -3.55116201386912       -4.61875292804728       -2.36331288861170
H           -3.01379910805418       -3.14027044858256       -1.53251104314296
C           -5.06600943516449       -5.50969989043106       -0.21914785559762
H           -5.61174181736380       -5.83653131224176       -1.08952489771548
C           -3.81172878388379       -1.76230844127210       -3.96257334312791
C            1.87498097390984        3.74720739719851        0.40622589815915
H            2.22042363949458        4.53402611336990        1.07821419407383
H            2.71480024854046        3.07244916264043        0.21107535177394
C           -4.91360443231845       -2.74621643999065       -3.68809299280750
H           -5.85987124268482       -2.32094756626461       -4.03011684177972
H           -4.73368733819810       -3.66001344312014       -4.25778160695498
C           -1.57475517432521       -1.27118157954240       -4.72309689815366
H           -0.62584680899668       -1.59521391822047       -5.12053440275075
C           -2.58110925024731       -2.17784372707859       -4.46131290231241
H           -2.40832281551349       -3.22496627402356       -4.66158660579984
C            0.91249190150286        3.92545151610918       -3.37993895889356
H            1.79272363004220        4.50061793680570       -3.67205480240851
H            0.06882780018104        4.61873803927820       -3.34333495162976
C           -0.75985294562758        2.27266839768957       -4.38073768349849
H           -1.43667256630261        2.80337924446206       -5.06184183672892
H           -1.15366632253398        2.36369559240547       -3.36238333669433
C           -5.06260519807104       -3.09845350934882       -2.20190496394500
H           -5.95185050970815       -3.72052035587273       -2.09434980079877
H           -5.22142920305326       -2.18855512679952       -1.62274005237595
C            0.65562106648025        2.85610302252824       -4.44769057941084
H            0.82459218790119        3.27402805585344       -5.44021944672831
H            1.36879234293192        2.04040911982425       -4.31116206806483
H            1.28049154872027       -1.75738563818230        4.32307366703531
C            5.41562312478576        1.88356196443406        0.17588272956524
C            4.29082600613049        1.46927552733382        0.84235905565699
C            6.39767096154262        2.75763693298908        0.68025947595079
H            4.16083463155402        1.97122380996131        1.79317757799319
O            5.80626970931526        1.33196908078323       -1.07585383309702
C            4.98803961198129        1.03613465646552       -2.05192520628083
O            3.78979446071193        1.14698507443745       -2.08598184005883
C            7.65980670928684        2.92820596491539       -0.05551196388113
H            8.05373240594254        1.96678500838527       -0.38524563910346
H            7.46695566495925        3.49079029325614       -0.97322880970242
H            8.40220608985369        3.46262447454471        0.52959249894066
C            6.24536903494496        3.49918787051166        1.93653490449128
H            5.22262815012814        3.56382064241078        2.29297787516274
H            6.85071260960620        3.01295804899650        2.70687506774160
H            6.66355676214312        4.49900696081265        1.82106914357951
H            5.57948644671567        0.66029710029869       -2.90283775133587
