175
 energy: -272.473130985469 gnorm: 0.000448825319 xtb: 6.7.1 (edcfbbe)
P            1.19419987118463       -0.98649287540332       -0.67702368962433
Au           2.63006505349607        0.23464188252134        0.77849378776350
C            0.65776056667992       -2.61109482434069       -0.05673544550995
C            1.15311197632686       -3.02966733265919        1.17274169555972
C           -0.10405612202125       -3.48795504543989       -0.83248334103875
C            0.89258870507341       -4.30939152663311        1.63131250681868
H            1.75766514982801       -2.34896494139074        1.75705759011940
C           -0.34736837751684       -4.77502527742596       -0.37151367548822
H           -0.40872869624230       -3.20718051477955       -1.82971534363217
C            0.14351828201665       -5.18234838647113        0.85954035941480
H            1.29115032439791       -4.63414740920156        2.58055427131237
H           -0.89798694376905       -5.46923812478818       -0.98767930380434
H           -0.04106056111001       -6.18754960385754        1.20751919877866
C            2.31228170660478       -1.49948652922754       -2.02364954325543
C            3.28522603878223       -2.44245474403228       -1.69547889767785
C            2.31310969192041       -0.93193045588773       -3.29261968563854
C            4.21587251292102       -2.84472641119459       -2.63352504620036
H            3.30215494215580       -2.86865475822181       -0.70092120642576
C            3.25003129199624       -1.33949306938420       -4.22803674282402
H            1.59558662100431       -0.17745708804266       -3.57270776928713
C            4.19573742330599       -2.29823603428445       -3.90755997496704
H            4.95598459966310       -3.58750919202502       -2.37613170832260
H            3.23728781625841       -0.90502834203069       -5.21653411341576
H            4.91567676149414       -2.61930161223989       -4.64502630147099
O           -4.74632658325047        3.51720314976274        1.60954170044596
N           -2.32310149956689       -0.89709153458269       -0.42043375749732
O           -2.66267412257361        3.21122769790358        0.85605266638742
C           -1.50351157598737        0.01638606723524       -0.99085687812458
C           -4.44688493197171        1.86274850940946       -0.07420998105774
N           -3.37277661763470        0.93753598898032       -0.38031628440426
C           -5.37301933354789        3.97170019970067       -1.17622491693073
N           -3.42616532096705       -0.32861572094963       -0.05594451906776
C           -4.90417322943872        2.55539766804599       -1.38574914155543
H           -5.69433905913260        1.95329955946965       -1.83079606479347
H           -4.06170604331768        2.57234372834455       -2.07710448525414
C           -6.19880607604703        6.60814377604185       -0.79259574231822
H           -6.51909372306311        7.62873663858662       -0.64557691915099
C           -4.87633817474997        6.33136832839091       -1.09775727549913
H           -4.16295519647150        7.13707940534268       -1.19037282513326
C           -4.46923580084571        5.02304749231747       -1.28977710688378
H           -3.43494210907567        4.82197993296793       -1.53319807315085
C           -6.69610036480413        4.26112393184482       -0.86954461542572
H           -7.41933488011581        3.46533892184028       -0.78216478636741
C           -2.19041607939646        1.21559883428935       -0.96663420426634
H           -1.91282320473175        2.19709865408877       -1.28088193982466
C           -7.10793493298122        5.56913305056516       -0.68136938642619
H           -8.14111116014239        5.77874880542577       -0.44738509178593
C           -3.84617481947687        2.94850069514285        0.85403274094517
C           -3.81558067291011        3.90099921404620        3.81499669845422
H           -2.96188584886076        3.25998814402988        3.60643198574617
H           -3.50851929502527        4.67209692518810        4.51483582517905
H           -4.60390861830895        3.30578973358496        4.26965373021211
C           -4.32580374343264        4.55340308172885        2.53607326856087
H           -3.52041596330999        5.11892529638856        2.05204516924102
C           -5.53485078122003        5.43961059655812        2.77953305408244
H           -6.33253152652883        4.86363002325243        3.24085949122575
H           -5.25915286326832        6.25548791205526        3.44034305701915
H           -5.89620307674162        5.85131735613260        1.84114501099574
C           -5.59089268137402        1.15843840183111        0.68664057110904
H           -6.30658456401416        1.94214628877344        0.93934533780335
H           -5.17593614116122        0.76816728708122        1.61771796298564
C           -6.32818205650086        0.03851700850228       -0.00630636090053
C           -7.81590749169464       -2.04560092006978       -1.13290559048794
C           -6.07893157540077       -1.28549261364422        0.34081112398209
C           -7.35549305483869        0.29863559588226       -0.90740337228827
C           -8.08406237262615       -0.73241558610220       -1.47675714250876
C           -6.81516854709756       -2.31638961340927       -0.21475224113661
H           -5.30761977456338       -1.51382866482316        1.05870616133751
H           -7.62613583873280        1.31466272624346       -1.15157382600258
H           -8.87741867179814       -0.50589929675971       -2.17406368023892
H           -6.61445380973835       -3.33623839774157        0.07829541030712
H           -8.39625063168740       -2.84802263166504       -1.56346209249923
Cu          -2.22376094744705       -2.67461529507012        0.27659721909206
C           -0.21954460575577       -0.30258855504134       -1.65828993005874
H            0.17622531827252        0.61477954323867       -2.10245358431262
H           -0.41217548768445       -1.02039141283626       -2.46551087399719
N           -2.34528563747166       -3.43902637004005        2.20187503417943
N           -3.39829975064956       -4.26108427844691       -0.11737673541467
C            0.80703413827296       -0.21752382783049        3.55827509300870
H            1.79178546696262       -0.02521957096250        3.95211349103094
C            0.17695560605893        0.78380865652749        2.81296753415306
O           -0.20921610028347        1.38745514624059       -4.60688182588725
O            0.91199378612825        1.89565260003579        2.53817686278683
C           -1.68551531775438       -3.01753789035188        3.28273765774064
C           -2.96352655120827       -4.62678199868882        2.20512372665226
C           -2.90256145740872       -5.46938327165936        3.31146052124311
H           -3.37140914539083       -6.43832436314575        3.29880281248661
C           -4.64868415654216       -5.99062660244895        0.93428311896399
H           -4.91409719004822       -6.54315488902478        1.81925340806755
C           -3.69489548833562       -4.97985780864035        0.97586541991609
C           -2.20625271546931       -5.04979603102987        4.43473562334192
H           -2.14722697217695       -5.68492703837058        5.30546437545493
C           -1.59963189618509       -3.80758861033262        4.43000508349069
H           -1.08315953336097       -3.43944917274060        5.30122310107466
C           -1.12755000333976        0.57540036403839        2.37545094602404
H           -1.66436415163547        1.37161850356138        1.88669750929502
C           -3.99288530671648       -4.51297500241504       -1.27737470791909
C            1.29455105987525        4.41847940657842       -0.21933540274343
H            0.33874066954676        4.94139199294268       -0.13956356603217
H            2.07055326429291        5.17123800728958       -0.37061041041401
C           -3.63600044677123        0.09480448009265       -4.16362352301824
H           -4.62750846612087        0.44158762890568       -3.91198181617682
C            0.19193060033335       -1.43412871825280        3.75591843379722
C           -2.60098135491463        1.01359075746490       -4.23710292919797
H           -2.80995868029224        2.05839054967026       -4.06861332663598
C           -1.06779693843049       -1.68890555785926        3.21276082430249
C           -1.73665065623302       -0.64940271163315        2.57391707522467
H           -2.75382912406459       -0.80283019608772        2.24777927582617
C           -5.27398524618077       -6.26982040567197       -0.27230642492117
H           -6.01208557651466       -7.05504231448590       -0.33236116128625
C            0.43440174215455        2.78678647354502        1.53397282741443
H            0.07243812751281        2.19696500366937        0.68568412713705
H           -0.39598876477939        3.38854525144088        1.91833969665975
C            1.27717442698714        3.48059391974375       -1.42762326502239
H            0.41748386928981        2.81523728805574       -1.34776979204915
H            2.17933296208482        2.86544449524521       -1.41337622763005
C           -1.32169076471060        0.58953761693709       -4.57415610037780
C           -3.61746644033112       -3.68698165217430       -2.46780602248585
H           -3.34917218374338       -4.35922298922465       -3.28566113136700
H           -2.75690056198424       -3.06537912675968       -2.21542415447928
C           -4.93658213981753       -5.53356978931032       -1.39229445232705
H           -5.39284306623640       -5.74114147258395       -2.34675243709653
C           -3.43391970710999       -1.25167555858496       -4.42823067845265
C            1.58672205770138        3.68480344756864        1.09141627043057
H            1.79701399261863        4.40773889940118        1.88089953716267
H            2.47355126079681        3.05918170960373        0.95716050408989
C           -4.57025631489904       -2.22972509463990       -4.33817638142576
H           -5.49292348790868       -1.73049085581568       -4.64114151106696
H           -4.39529994724430       -3.05616585970854       -5.02982739174160
C           -1.11389559527536       -0.75870048672357       -4.87213783349329
H           -0.12802062755453       -1.07620143651190       -5.17407011670699
C           -2.15672955310635       -1.65913765230600       -4.80063556956264
H           -1.97485187775523       -2.69349661346724       -5.05136745672412
C            1.21231493108503        4.23248410900378       -2.75869587072856
H            2.11704962413524        4.83260378578359       -2.86779846919514
H            0.36352776509227        4.92066877754433       -2.76244390407950
C           -0.30861252717132        2.73006946825348       -4.15296772735855
H           -0.86843639214771        3.33233044128377       -4.87908424518013
H           -0.84923223161505        2.74795803001657       -3.19993212112772
C           -4.77686346800515       -2.79129851442157       -2.92431914603965
H           -5.70243596891844       -3.36818378962188       -2.92490109047125
H           -4.89917758413451       -1.97298718600937       -2.21374899898957
C            1.10742929683695        3.28171118812431       -3.95661823807983
H            1.42411791656285        3.79221608296291       -4.86610271633148
H            1.78262710992244        2.43818026630556       -3.80202528430228
H            0.71232081910759       -2.20805497258021        4.29805756863079
C            5.31926102794876        1.58589302684220        1.47524893644972
C            4.03492402113561        1.28351186696093        1.84519048205025
C            6.24955843262931        2.33620347350458        2.21703120973649
H            3.71838912477585        1.78379711310954        2.75156518536317
O            5.89376585604507        1.00588831353115        0.31682951726326
C            5.27798628450368        1.03106934934190       -0.86023615697824
O            4.18916149624502        1.53422640285233       -1.05475809712904
C            7.64832837387036        2.39955492744390        1.76396691027862
H            8.02278592702985        1.40400098001410        1.52479897997332
H            7.70121376466321        2.95899338046891        0.82621683946633
H            8.29236486205949        2.87731089806847        2.49587924705549
C            5.90935376887997        3.03355682130922        3.46149889175433
H            4.84451231558198        3.17722809454851        3.61233358530406
H            6.30396125066160        2.45846533804961        4.30415914425971
H            6.42347567194348        3.99406421593745        3.49383188278295
C            6.07862643440714        0.38015521253336       -1.92361627713449
C            5.79551986681504        0.69294338307994       -3.25129354182888
C            7.08310629028656       -0.53463240174048       -1.61745866733921
C            6.51653319965874        0.10182290054789       -4.26946322812103
H            5.01670233918832        1.40558147090231       -3.46984102333737
C            7.79884455830919       -1.13882247487870       -2.63375895253658
H            7.29225947807213       -0.78411298945777       -0.59000558346560
C            7.51451881808867       -0.81345382666683       -3.95392855881699
H            6.31527994367314        0.34401684362213       -5.30121986099391
H            8.57547808465131       -1.85301006835310       -2.40877930538564
C            8.25091248031188       -1.48781958222916       -5.07684457365859
F            8.58114325815941       -0.64005129768433       -6.06642017923049
F            9.38551945388983       -2.08790825682230       -4.69080755642605
F            7.49599971915662       -2.45108249204074       -5.65423166263425
