184
 energy: -269.295605761871 gnorm: 0.000643920931 xtb: 6.7.1 (edcfbbe)
P            0.93813345194698       -1.15987534974975       -0.87577505379380
Au           2.51291279753985        0.06211925641975        0.42554832821841
C            0.40655608606128       -2.78021452368718       -0.23639313556059
C            0.72461993707698       -3.11525244579935        1.07646366146604
C           -0.12486720196961       -3.74619725154651       -1.09063038823344
C            0.50002342492648       -4.40195448924000        1.53630859464427
H            1.16628381755616       -2.36695511620421        1.72074659701368
C           -0.35065017256135       -5.02646394856857       -0.62203376423463
H           -0.32391998132316       -3.50274458654452       -2.12425211842259
C           -0.03805094807070       -5.35586064810753        0.68874674905424
H            0.76289006209873       -4.66611928378829        2.54981809599185
H           -0.75081034232516       -5.77941142025650       -1.28396079637472
H           -0.19887955719611       -6.36311909539112        1.04301484488106
C            1.93884128570706       -1.71193820349912       -2.29345201298955
C            2.96865879912853       -2.60038935267582       -1.98353207169018
C            1.79959048966583       -1.25658201380377       -3.59798830248437
C            3.81741087559487       -3.06189971369259       -2.96888520587556
H            3.09303824294968       -2.93330609408290       -0.96030168179374
C            2.65622991305555       -1.72205639753230       -4.58246397962540
H            1.03648817108597       -0.54525170418295       -3.86887755877109
C            3.65630543340122       -2.62727865707189       -4.27551488126577
H            4.60559642187237       -3.75673812518196       -2.72177141115110
H            2.53886674750640       -1.37062547052152       -5.59696643212317
H            4.31480460522808       -2.98932216736040       -5.04925139717248
O           -4.43053327787993        3.78358720023078        1.85049900537292
N           -2.43836647982429       -0.74051123895228       -0.13214249747369
O           -2.48008305532640        3.42638811837431        0.81159706390596
C           -1.68277072510644        0.04723548309390       -0.93122393072652
C           -4.40825975046534        2.14193364395888        0.12332275803670
N           -3.42329206232648        1.12949853240548       -0.21100810302196
C           -5.19963054676065        4.31239936756320       -0.93456036006105
N           -3.46499565411234       -0.07743022432748        0.29506200808051
C           -4.89367432606970        2.85428921551153       -1.16686367080211
H           -5.77276335654646        2.33215418330619       -1.54026234186792
H           -4.11337010879428        2.78587969672034       -1.92355625618871
C           -5.71311996734387        7.01622916506022       -0.47692683581499
H           -5.91175266008756        8.06224876334000       -0.29796908884692
C           -4.46570716948078        6.61078738166700       -0.92103705576469
H           -3.68888869321053        7.34136183529740       -1.09214093499451
C           -4.21387432403420        5.26966453895384       -1.15043351571483
H           -3.23637435159212        4.96840148706048       -1.50049025692331
C           -6.44774323227863        4.73109875086991       -0.49235312403630
H           -7.23380701408844        4.01146563135161       -0.32563822817642
C           -2.32083006224358        1.27300731485842       -0.97339709757578
H           -2.04797316960165        2.19352640224512       -1.43944947639337
C           -6.70460892903004        6.07229922430173       -0.26701233200641
H           -7.68131525575388        6.38213108921172        0.07389635255119
C           -3.65983726272524        3.19962563513625        0.97485967253227
C           -3.23220788941288        4.11030939561772        3.92986439320401
H           -2.43078849709857        3.44334221611123        3.62002305105315
H           -2.82097824030463        4.86186762891915        4.59665395765410
H           -3.98425997899297        3.53644207953499        4.46600912226517
C           -3.86154876099911        4.79527431507231        2.72302469720758
H           -3.09690003420294        5.33253150532392        2.14933706564851
C           -4.99784366700810        5.72572061778561        3.11042233858113
H           -5.76173537625021        5.17464241910523        3.65236379245056
H           -4.61652149512483        6.51974985730923        3.74478973356980
H           -5.44437590138733        6.16600647542768        2.22292789868846
C           -5.55728481092874        1.54309020212978        0.96010119104944
H           -6.17954660516997        2.38522370383575        1.26464103827816
H           -5.12071353098665        1.10214029006861        1.85729786972601
C           -6.43304437978489        0.50862342527840        0.29694212053245
C           -8.14413317816400       -1.41233275866675       -0.80135491266369
C           -6.25618687278447       -0.84324867783134        0.57095952631334
C           -7.50250954194891        0.88135430817784       -0.51157350636918
C           -8.34095603018016       -0.06896322020490       -1.06958573059818
C           -7.10577315681156       -1.79347145027232        0.03148978902890
H           -5.45314259473012       -1.15430715194742        1.21993086020060
H           -7.71599103368576        1.92395192264283       -0.69163566982266
H           -9.16151786136684        0.24368774174443       -1.69865150966315
H           -6.96509996487294       -2.83635841617124        0.27346696311832
H           -8.80721594884684       -2.15253312233681       -1.22388953465855
Cu          -2.20411629371210       -2.40847518527728        0.76793517335115
C           -0.52747301032402       -0.42459523471817       -1.73142691484336
H           -0.12199494801992        0.42351484352053       -2.28963608465398
H           -0.87971943620470       -1.18011380972040       -2.44626289235916
N           -2.04745988353201       -3.06153670808295        2.73094338537696
N           -3.15284505151764       -4.16990212733083        0.56336372409422
C            1.14990548855750        0.28814783119276        3.48755338285832
H            2.16179228041944        0.50793039312081        3.78567499915244
C            0.47330843391049        1.20182209716256        2.67301080530210
O           -0.70508586803169        0.99874635142516       -4.94463173430984
O            1.18139492168228        2.27091522421369        2.22013847346271
C           -1.35972115639640       -2.49563748694263        3.72499511669242
C           -2.59128286166784       -4.27563007143125        2.88705875214995
C           -2.44575128730470       -4.98098676554883        4.07883593374921
H           -2.85470564704130       -5.96966181225454        4.19427244298373
C           -4.12849557874553       -5.94674585809476        1.80754201554155
H           -4.29280775286748       -6.44992664830501        2.74467792975682
C           -3.31668507350536       -4.82077854146141        1.72582837660704
C           -1.74571442094744       -4.39778405827380        5.12387039677504
H           -1.62989861600577       -4.92284387822653        6.05979015929609
C           -1.19728738711560       -3.14065430293923        4.95171932816603
H           -0.66387194183277       -2.65259364178588        5.75082152398583
C           -0.86090298305662        0.95924041582996        2.35784572145722
H           -1.42266662674394        1.69887870631857        1.81241550486520
C           -3.74632243344955       -4.59802129781794       -0.54472032820385
C            1.43209896654810        4.33095366188364       -0.92550463358639
H            0.53337577964862        4.93869328084623       -0.79719499080361
H            2.23589255741338        4.99545171156776       -1.24841057637511
C           -3.94845664529867       -0.33041721705970       -3.79168455235852
H           -4.87924647940058        0.00885693599758       -3.36133947497355
C            0.54238327225354       -0.88690797758353        3.87281523252924
C           -2.97123171768075        0.60173381147345       -4.10250070093132
H           -3.16844394349908        1.64885838861563       -3.93630769327943
C           -0.75844072393655       -1.18329893664068        3.46216647941425
C           -1.46575045107774       -0.21962297899799        2.75046392378035
H           -2.50779869947085       -0.39017057607961        2.52737967114657
C           -4.74496398566417       -6.41365831124932        0.65598857739373
H           -5.37165512168011       -7.29159522553111        0.69348933076199
C            0.67402555571617        2.98011594620050        1.09229744464994
H            0.23499657430673        2.26091235555001        0.39302527175527
H           -0.10377447983843        3.68572921428778        1.40339690335863
C            1.19934249075084        3.28039674898025       -2.01287761561203
H            0.32612347779790        2.68400087090078       -1.74773993933098
H            2.06266584448619        2.61190381954733       -2.05101953618212
C           -1.77184504741228        0.18604493435948       -4.66852922144180
C           -3.55171755124790       -3.82364890022678       -1.81036944848375
H           -3.27291428827140       -4.51793998885952       -2.60491843150904
H           -2.74840849003057       -3.09893123864815       -1.66803755638488
C           -4.54451947650822       -5.74162297196914       -0.53449954989139
H           -4.99991235751049       -6.08868608326063       -1.44805397113220
C           -3.76803317198050       -1.68310793590279       -4.04164055010588
C            1.82840207243897        3.71742575105613        0.41930822487076
H            2.18403903051933        4.50085604425782        1.09025328846322
H            2.64418611031238        3.00634906068912        0.26069106562118
C           -4.83863677652595       -2.67928350622199       -3.69902973976046
H           -5.81439154260775       -2.24521318743594       -3.92803080465663
H           -4.71584295263954       -3.56958205758194       -4.31899464979504
C           -1.59512416971063       -1.16853868046292       -4.95708885590994
H           -0.67996677425792       -1.48074237663496       -5.43482823305811
C           -2.58091839228280       -2.08258391850513       -4.64759260101846
H           -2.42639704791882       -3.12295939797308       -4.89222157167462
C            0.99129421520510        3.90705742497754       -3.39393481824617
H            1.88911146062214        4.46670703317079       -3.66119132870458
H            0.16222223012419        4.61825604336272       -3.36260293167254
C           -0.71020482699273        2.33617529518014       -4.46584277044867
H           -1.36267111629981        2.95810764413149       -5.09153275798358
H           -1.09564553461379        2.35002067694117       -3.44091155010640
C           -4.83845130675275       -3.09184270234254       -2.22085123509026
H           -5.69631570767573       -3.74623713135626       -2.05886799573950
H           -4.96915203949565       -2.21140596579403       -1.59093011595146
C            0.72836865124350        2.86102248540400       -4.48317278019720
H            0.94247158077062        3.28366904056070       -5.46507873269779
H            1.40320408926631        2.01551658837627       -4.33671939807442
H            1.09936232334349       -1.60097751032004        4.45999058256084
C            5.27918246895228        1.35764072918304        0.85008639003270
C            4.00221426749853        1.16071115492273        1.31026042983798
C            6.26832262214386        2.15427641286963        1.45394324542852
H            3.74876173012828        1.78300743089443        2.15886138504200
O            5.77066296927393        0.62878787314042       -0.25404827135339
C            5.10596678663303        0.57533434422123       -1.41529896164285
O            4.02972367231255        1.11731328112527       -1.59917532989531
C            7.63812604056161        2.12635485661253        0.91532343702949
H            7.98463116647125        1.09773985769317        0.80797324902715
H            7.64099698460521        2.53373611681117       -0.09892201768173
H            8.33098947055211        2.69229644117265        1.53019849082938
C            6.02648304394009        2.98931723798997        2.63533923344502
H            4.97761358488702        3.14170987778049        2.86622075400708
H            6.51027379946691        2.52338377802267        3.49828739921142
H            6.52130873859256        3.95201288255883        2.50451541285217
C            5.83656837031052       -0.18507775668531       -2.43432611673645
C            5.52078398519972       -0.00089881024588       -3.77822193836022
C            6.84392076446757       -1.08916984103012       -2.09579249520157
C            6.20520300037664       -0.69050881976669       -4.75921930588169
H            4.74467524402774        0.70188145527201       -4.03997578737577
C            7.50696087531153       -1.78378201944426       -3.08321033037535
H            7.08879700016536       -1.25506792507846       -1.05821536291618
C            7.21050626250090       -1.59816378582409       -4.43528934181955
H            5.94407791268510       -0.50874822904688       -5.78783464703262
H            8.27613629998046       -2.48212348223522       -2.79330675094924
C            7.98442609288029       -2.38092042892785       -5.48153495117378
C            7.54946418136140       -2.04942720622698       -6.91213475514110
H            6.50165906944124       -2.29102391018990       -7.07444360840430
H            7.71516302640071       -0.99903280726336       -7.14026999212736
H            8.13798078478369       -2.63791270792660       -7.61283943713563
C            9.47866620638306       -2.04927916368551       -5.34546480569009
H           10.04598547400133       -2.57584988020287       -6.10948977855323
H            9.64285448791426       -0.98106358203170       -5.47317933621220
H            9.86834478599791       -2.34252496920176       -4.37478235620799
C            7.76412972695771       -3.88346334885066       -5.24646418981594
H            6.70867950116768       -4.13163651164697       -5.33572110063246
H            8.31347752194522       -4.45786748101441       -5.98889494343121
H            8.10717217763158       -4.18938319134959       -4.26219436806335
