176
 energy: -263.864166414305 gnorm: 0.000470226336 xtb: 6.7.1 (edcfbbe)
P            1.08546530296843       -1.10433957045016       -0.76553413493196
Au           2.68518075528379        0.18605313870583        0.43687335823195
C            0.58132976238045       -2.65771890077219        0.03716122131899
C            1.17168020862675       -2.98083247983583        1.25368952327562
C           -0.23948128790368       -3.58768292120148       -0.60400414775586
C            0.94452592027413       -4.21742772435553        1.83228556291501
H            1.82329970813566       -2.26099573342222        1.73066465266923
C           -0.44777659577963       -4.83159606669023       -0.02522222526451
H           -0.62460806357646       -3.38168904458779       -1.59155150537702
C            0.13625390659455       -5.14317604555242        1.19275587609807
H            1.41545038374754       -4.46878700888724        2.77071492796442
H           -1.04786189240770       -5.56742198642726       -0.53820195911122
H           -0.02226331802641       -6.11606547790324        1.63319250429384
C            2.04079147602913       -1.76264430585958       -2.17152050647324
C            3.00471084424202       -2.72395573187381       -1.87092996766813
C            1.93905806342648       -1.28202016970312       -3.47202009661581
C            3.82638533493644       -3.22549775331967       -2.86123806372311
H            3.10310437196875       -3.08236784458019       -0.85449232645007
C            2.76666634307252       -1.78930707060553       -4.45982509646639
H            1.22588078408326       -0.51781490676549       -3.73617387244063
C            3.70590699847997       -2.76107452240432       -4.16168726854761
H            4.56389915710126       -3.97669730042965       -2.62037456409475
H            2.67674808788707       -1.41791765376512       -5.46991095587753
H            4.34572420685748       -3.15235842265130       -4.93770879568059
O           -4.47990780294444        3.73979134201476        1.75652055106734
N           -2.39782394972720       -0.84815277701745       -0.18055901254599
O           -2.48332544793657        3.32905332414932        0.83549015192608
C           -1.60297151400711       -0.01952770211493       -0.89671824804095
C           -4.38579708910166        2.01991246521028        0.11040224656577
N           -3.37870401827168        1.02491188518429       -0.20800816369356
C           -5.19474311440994        4.14778024635367       -1.03693471228732
N           -3.44420227863005       -0.20724524044132        0.22962000611895
C           -4.88501256460368        2.68217955248948       -1.20201506155659
H           -5.76529828136344        2.14185675567128       -1.54572152454057
H           -4.10928808197804        2.57901696178959       -1.96038714433922
C           -5.72219003621808        6.86933435615630       -0.72596075482637
H           -5.92690172989234        7.92265438205356       -0.60596622368007
C           -4.46503372169918        6.44604195664770       -1.12415113377937
H           -3.68659246307685        7.16953713387747       -1.31712462524057
C           -4.20652625054267        5.09588679160276       -1.28079944570777
H           -3.22226175787020        4.77981999001166       -1.59722293779646
C           -6.45123769235077        4.58371842757885       -0.63752703652049
H           -7.23758729839884        3.87002120961223       -0.44721686781532
C           -2.24346362440025        1.20535167694577       -0.91330913265378
H           -1.95875936675089        2.14695583551834       -1.32770476282995
C           -6.71512998373563        5.93405424697052       -0.48560596859187
H           -7.69850971036611        6.25790287238204       -0.17833994412480
C           -3.67103206264814        3.11286136685832        0.94632126021137
C           -3.37412357173584        4.14598901280963        3.87378060702486
H           -2.56680547017372        3.45947242681942        3.62840333770211
H           -2.98460873054080        4.92205682770010        4.52541953264101
H           -4.15476262276908        3.60226750677457        4.40049947406445
C           -3.94341184614836        4.78345893734061        2.61223689915659
H           -3.14948814278449        5.29211224803061        2.05228399616017
C           -5.08790743820911        5.73644308752041        2.91017783704542
H           -5.87967067868180        5.21346073755796        3.43976424635851
H           -4.72800499494196        6.55319795925589        3.52803055979379
H           -5.49116300590227        6.14286751705615        1.98664445080559
C           -5.51915240662943        1.41380565061664        0.96486497675391
H           -6.15147920240053        2.25205121058589        1.26039771143484
H           -5.06675246885263        0.99612144081917        1.86583225579006
C           -6.39110298989040        0.35516079380811        0.33575514705657
C           -8.11032764025627       -1.60375895164452       -0.67937552399957
C           -6.20011389224957       -0.98811582002125        0.64102091435905
C           -7.47663428077320        0.70023905709999       -0.46350909529325
C           -8.31970975704379       -0.26924523397164       -0.98004970542868
C           -7.05304083711816       -1.95702198920230        0.14201715630582
H           -5.38170678167678       -1.27844759702212        1.28021032519505
H           -7.69924040635898        1.73688422972237       -0.66666279399528
H           -9.15421399785567        0.02212461280231       -1.60111331097659
H           -6.89727081721285       -2.99313462169453        0.40372386658169
H           -8.77804295848220       -2.35818088598332       -1.06802088278628
Cu          -2.22914589319655       -2.56388683023039        0.64430688448044
C           -0.40336259214989       -0.44951697822160       -1.65292037580300
H           -0.02276052778635        0.40903375677641       -2.21280084776876
H           -0.70052260279597       -1.22482510838614       -2.37045258271739
N           -2.13481338934769       -3.17393051212326        2.62548864843750
N           -3.39828317403583       -4.19494646341841        0.49199399004189
C            1.16067135814512        0.10254705408919        3.42875142731259
H            2.17641492078616        0.31003932129902        3.72352326502442
C            0.47999438328327        1.04882445396944        2.65652821589238
O           -0.59290065498720        0.94926098647085       -4.76459264031252
O            1.19467252792076        2.12684221998465        2.23390707061850
C           -1.36964112769469       -2.67220902123203        3.59764364373057
C           -2.74792841483987       -4.35351145207072        2.78784099188428
C           -2.57839404208762       -5.10293833731481        3.94868427444115
H           -3.04450133162599       -6.06675159999032        4.06051810939692
C           -4.53923570577186       -5.81725415734373        1.80560454985731
H           -4.72233701164290       -6.28509139938192        2.75770784048878
C           -3.59062411776481       -4.80984308703484        1.66862693171668
C           -1.77651060473526       -4.59810018633653        4.96059183160493
H           -1.63208565136839       -5.15979827468842        5.87093046472090
C           -1.17310361579229       -3.36602279445999        4.79281834254256
H           -0.57305981318662       -2.93203858913813        5.57556224683487
C           -0.85802488573824        0.82422111069357        2.34626201610566
H           -1.42498177420724        1.58698883136814        1.83912998810671
C           -4.08958908847342       -4.55416686662207       -0.58362454525169
C            1.39857939622776        4.33053313980249       -0.80781770412657
H            0.47189705857727        4.89704850333394       -0.69004728047231
H            2.17949230755078        5.03349449693485       -1.10408021487470
C           -3.95516827023023       -0.27355554781401       -3.86241860927781
H           -4.91011624183515        0.09933283998902       -3.52205274071551
C            0.55332350369474       -1.08446269088367        3.77475789996711
C           -2.92902626420643        0.62610574082607       -4.10359162942698
H           -3.11084266450791        1.68125083570128       -3.97325191140524
C           -0.75020681362311       -1.36375400734598        3.36149032952319
C           -1.46066008324732       -0.36919107351003        2.69661111349241
H           -2.50410805389697       -0.53096662671571        2.47361882069868
C           -5.26707141722985       -6.20567271130983        0.69042752893718
H           -6.00355277813916       -6.99072689426441        0.76930811359805
C            0.65999187623126        2.91079333681413        1.17040275515691
H            0.21825024018788        2.23812238503358        0.42823092119901
H           -0.12243999181421        3.57986852572656        1.54393387620925
C            1.23533071878386        3.28520844523822       -1.91253141427780
H            0.37898324989954        2.65267932613818       -1.67827872389723
H            2.12368793193422        2.65002618278097       -1.93435939494458
C           -1.69790578661832        0.16757964275563       -4.55594428386080
C           -3.81899314816528       -3.84673086558544       -1.87490333561695
H           -3.59177624882039       -4.59399731431513       -2.63842059016174
H           -2.95724360915618       -3.18948099025754       -1.74753973335293
C           -5.03271968506021       -5.57934893388335       -0.51927178581026
H           -5.56842216279672       -5.87612439529834       -1.40655507914256
C           -3.79196281879045       -1.63536100605760       -4.07046444031108
C            1.79318266458146        3.71257094071241        0.53548236217929
H            2.10312583320810        4.49786627801813        1.22653770158103
H            2.64165357172494        3.03986502667953        0.38036728835148
C           -4.91956206540620       -2.59239789493179       -3.80789715582155
H           -5.86144581272688       -2.11630132221604       -4.08886739066291
H           -4.79524101708430       -3.48047242327696       -4.43071853366764
C           -1.53073843889995       -1.19843439578226       -4.79127922637300
H           -0.58440378296436       -1.54557359624374       -5.17536316930183
C           -2.56485083775054       -2.07987885805627       -4.55254360244305
H           -2.41628728471085       -3.12983534019979       -4.75654292243687
C            1.03960135915798        3.91209966480670       -3.29477221365387
H            1.93422652792564        4.48181066034994       -3.55087686114102
H            0.20160828954896        4.61323403698943       -3.27611354888999
C           -0.62985715211327        2.31642059555279       -4.38100491455377
H           -1.26561443141092        2.88462325767234       -5.07137850449625
H           -1.05554937403525        2.39547412584992       -3.37448013758999
C           -5.02441524141073       -3.01795300940489       -2.33707632535384
H           -5.93648048889784       -3.60501355336797       -2.22287456338601
H           -5.11676198467963       -2.13536474562921       -1.70349181686636
C            0.80302207780220        2.85844675832400       -4.38268451519897
H            1.02696997738687        3.27834386417476       -5.36339463354199
H            1.48528911451391        2.02175451931157       -4.22168591863173
H            1.11193057419366       -1.81970810295497        4.33262841331607
C            5.41045154624749        1.59302455040570        0.85138715960341
C            4.15468173967299        1.30868214340828        1.32608966943066
C            6.36186104491573        2.42242658156073        1.47178415910285
H            3.88709442103908        1.88693212012288        2.20158894217562
O            5.93253097035524        0.92795919239688       -0.27766522272774
C            5.24140820605091        0.81744090439395       -1.42138568605321
O            4.11718787554412        1.26840430556834       -1.57034393933548
C            7.72819533916970        2.47529821508482        0.92527067451262
H            8.14914094971499        1.46977644173643        0.87501661956514
H            7.70230189088257        2.82385250598569       -0.10961646852242
H            8.37896781230055        3.11691968029065        1.51095188364128
C            6.09070762561390        3.21160108367229        2.67838105161741
H            5.04103151800517        3.27749074604529        2.94330498650507
H            6.63859672679596        2.77246228227297        3.51639759676303
H            6.50229431722546        4.21354156437862        2.55124025455401
C            5.99050702559905        0.11763487498122       -2.46450824573453
C            5.49711800399651        0.13339956686543       -3.77403599702044
C            7.17616529727763       -0.56685331041110       -2.19581239757464
C            6.17466406953867       -0.50765962059767       -4.77971196135898
H            4.58269860839027        0.66710621067428       -3.97815807442862
C            7.85605552045130       -1.22175403370772       -3.20066899362597
H            7.55921129630467       -0.59753371628597       -1.18829172157543
C            7.36436290115517       -1.19770336330239       -4.50777955249641
H            5.81533523132713       -0.49522172931566       -5.79604246338851
H            8.76671445956557       -1.74748853023453       -2.96428653650530
O            7.94463117150163       -1.80227496232772       -5.56428560963043
C            9.16237405823349       -2.50409617715439       -5.38349908809467
H            9.42595767638345       -2.88575392740972       -6.36796717637733
H            9.03810717202599       -3.33979845437842       -4.69020954645899
H            9.95328935232423       -1.83887176335933       -5.02835399400230
