175
 energy: -259.789600226444 gnorm: 0.000786993912 xtb: 6.7.1 (edcfbbe)
P            1.08173562068877       -1.14963739233860       -0.73535958931304
Au           2.76185448430639        0.12794657390140        0.36845136631349
C            0.57500618785641       -2.68999056952273        0.08901805802325
C            1.20149712534369       -3.01516476632545        1.28686411938862
C           -0.28651563839484       -3.60792500694594       -0.51481782934611
C            0.96735198430971       -4.24027420445647        1.88657313334450
H            1.88719128104186       -2.30659218675687        1.73154866771219
C           -0.50001670006184       -4.84192550954229        0.08356496827563
H           -0.69901676651967       -3.40429497087180       -1.49162535796128
C            0.11714270193691       -5.15388542113688        1.28496514606083
H            1.46543925903171       -4.49290377351834        2.81050492009847
H           -1.13111963729803       -5.57065601682119       -0.40155363906589
H           -0.04767499449166       -6.11844221033466        1.74127499319636
C            1.98852859246604       -1.82126455415484       -2.16823414063309
C            2.88370016403625       -2.86113085755061       -1.92132017905684
C            1.93088895067236       -1.25860297822181       -3.43894868231381
C            3.67961251213510       -3.35700616915664       -2.93640071659594
H            2.95118236180346       -3.28574363911746       -0.92863075678328
C            2.73294476111132       -1.75791536473707       -4.45195776288097
H            1.26913607376430       -0.43706912424769       -3.66064486371387
C            3.60453849622983       -2.80659029038917       -4.20743547838401
H            4.36238821583940       -4.16970954635838       -2.73758468971305
H            2.67925971632270       -1.32198931461359       -5.43881183022314
H            4.22720298035494       -3.18978920387948       -5.00202759051058
O           -4.35406019436836        3.79151928666385        1.87317954157549
N           -2.39711708908142       -0.81802858346430       -0.09017326367031
O           -2.37071516418931        3.32641995074855        0.94842445717336
C           -1.59438119955400       -0.01434604433762       -0.82565563269438
C           -4.31559557067909        2.09895630790221        0.19597409669475
N           -3.33979998727369        1.07470433877256       -0.12804066394122
C           -5.01042471090352        4.27826583116343       -0.92862923371840
N           -3.42458980238167       -0.15047859626400        0.32633457378772
C           -4.78471143010327        2.79884387202570       -1.10823090568309
H           -5.69753111262295        2.31344552554524       -1.44931923761957
H           -4.02331846469076        2.65814629084793       -1.87490790102031
C           -5.38477288834425        7.02133219978904       -0.58631712721804
H           -5.53026645182891        8.08294331050850       -0.45354362911282
C           -4.15331088668545        6.53291052290506       -0.98985119204381
H           -3.33559662368806        7.21390870380655       -1.17489021080776
C           -3.97084757765607        5.17222612791022       -1.16218508239405
H           -3.00601113439424        4.80515595826518       -1.48241484689130
C           -6.24094025345962        4.77946328162674       -0.52473579646214
H           -7.06550642705892        4.10810950610396       -0.34265913700401
C           -2.20932167232268        1.22350203950332       -0.84759634213055
H           -1.90898112454371        2.15415811066963       -1.27560313862861
C           -6.42895834746299        6.14051508208587       -0.35699402053416
H           -7.39302884214314        6.51543396588529       -0.04649813577780
C           -3.56585403837569        3.15166016538767        1.05335713315023
C           -3.25159254915158        4.11449617286295        4.00569358169392
H           -2.46851152880395        3.40276262731435        3.75367178169368
H           -2.83936443548073        4.86254082560581        4.67588479441430
H           -4.05718935581697        3.59081036599000        4.51481725934390
C           -3.78444855824950        4.79745472765918        2.75213878093446
H           -2.96651612664555        5.28494713228113        2.20816993807840
C           -4.89392520706811        5.78837042528081        3.05859581336924
H           -5.70998382281066        5.28652529334452        3.57147781927536
H           -4.50891057049112        6.57910443961873        3.69484423991586
H           -5.27251020306727        6.22711188149535        2.13939924471497
C           -5.47686184339652        1.51965679643305        1.03119315766051
H           -6.07109112705155        2.37582679009465        1.35287985913525
H           -5.04702519214134        1.05106840192119        1.91787341323421
C           -6.39288846191925        0.52622563739281        0.36050449170718
C           -8.18722819866024       -1.31074705866807       -0.74673519282059
C           -6.24751785097618       -0.83743655534696        0.59007921623424
C           -7.47161815263296        0.95370067782746       -0.40785331883486
C           -8.35153809970701        0.04499233808942       -0.97112389689003
C           -7.13894417973108       -1.74610808409471        0.04638661099632
H           -5.43532414792327       -1.19035867309391        1.20543836247198
H           -7.65832324429413        2.00765443892273       -0.54936457968390
H           -9.17891599096244        0.39943364330524       -1.56842687023069
H           -7.02147461039947       -2.79963714790112        0.25222146106524
H           -8.88276748817938       -2.01872999916139       -1.17214842646848
Cu          -2.24267561739763       -2.53344966454906        0.73822433541963
C           -0.41461650710838       -0.47347393148763       -1.59551868390364
H           -0.02810605020188        0.37566703349264       -2.16552713323878
H           -0.73635670836587       -1.24555798518947       -2.30607793977019
N           -2.12220842142134       -3.13413166606434        2.72054094797889
N           -3.43502883944961       -4.15007209190234        0.61315335005834
C            1.29182270573381        0.03574908556446        3.38016474746214
H            2.32526609377542        0.21003780462379        3.63260757115919
C            0.61864193014661        0.99341699043365        2.61573012972263
O           -0.61427935035520        0.89497277309634       -4.71858972131050
O            1.36190113734158        2.02961182467083        2.13909221780305
C           -1.32780323300025       -2.64333304313101        3.67456970011980
C           -2.76679229386793       -4.29317087120953        2.90571395933226
C           -2.60411496327345       -5.03108187642626        4.07500206863906
H           -3.09751225333283       -5.97854213073251        4.20740502077662
C           -4.59673314354638       -5.73163352896210        1.95799528884350
H           -4.78408594170073       -6.17992634541775        2.91857765690867
C           -3.63063993426679       -4.74407160137940        1.80019538162224
C           -1.77252438034643       -4.53761691289825        5.06843575936664
H           -1.63241987268046       -5.09170598655125        5.98407457882157
C           -1.13279573322464       -3.32765522629503        4.87510991385394
H           -0.50586854497216       -2.90328528653988        5.64193105041837
C           -0.73832773558931        0.81769236140465        2.36265470080767
H           -1.29659786242934        1.59448925375759        1.86776550177346
C           -4.13473372060335       -4.51771551309253       -0.45468184710836
C            1.49278460288921        4.27479242049964       -0.87355279181394
H            0.58753289912343        4.86579914074368       -0.71681146900514
H            2.28088020215249        4.95903928771225       -1.19396162138163
C           -3.96508889003614       -0.36286722965719       -3.82026717710881
H           -4.92563087416952       -0.00072247851170       -3.48373146584753
C            0.65308721511069       -1.12042567842872        3.77174666219058
C           -2.94748591950187        0.54810321239958       -4.05588112519672
H           -3.14093197568437        1.60071386891563       -3.92187278060850
C           -0.67282980789107       -1.35821294168983        3.40696924338183
C           -1.37064436301632       -0.34784149047475        2.75289189581146
H           -2.42679795031765       -0.47415005350502        2.56998059980438
C           -5.33460338693590       -6.12723577077324        0.85209648694319
H           -6.08399304711000       -6.89813375024050        0.94671155714304
C            0.79677631078068        2.84955649501481        1.11964633890709
H            0.30286739882679        2.20400476934441        0.38621752357815
H            0.05030155092488        3.52902812007383        1.54452493494050
C            1.25996699308242        3.24278762027122       -1.97808039406815
H            0.39683448660507        2.63121463519785       -1.71524461911918
H            2.12881768191969        2.58414909996462       -2.03859963166761
C           -1.71070309990443        0.10291559446361       -4.50601332392309
C           -3.84885300597076       -3.84283276826648       -1.76048986804187
H           -3.56875503100582       -4.60817599626573       -2.48828207214270
H           -3.01306589152989       -3.15343112759903       -1.62762968999923
C           -5.09184478219520       -5.52825748989892       -0.36969075043823
H           -5.63190613350806       -5.83613337251046       -1.25045978356352
C           -3.78604961570764       -1.72279467011552       -4.02844342503424
C            1.92049112835912        3.63602902467814        0.44970752480514
H            2.27136911693400        4.40819319290380        1.13593037086272
H            2.74870583400430        2.94684478329195        0.25963794675097
C           -4.90563436794015       -2.69246345859735       -3.77735638116336
H           -5.84422832716834       -2.24430784715119       -4.11082912722283
H           -4.74059810985548       -3.59759651917431       -4.36517675398344
C           -1.52545483439556       -1.26178798997615       -4.73531597919903
H           -0.57200645158084       -1.59776568748562       -5.11176495496759
C           -2.55050559954681       -2.15463262378360       -4.50046750645431
H           -2.38868343529109       -3.20343680288414       -4.70082477283152
C            1.02889178209297        3.88241089082371       -3.34853243375041
H            1.92213414379926        4.44320749544243       -3.62886231802121
H            0.19966527074664        4.59241507240220       -3.30063178705312
C           -0.67221424327011        2.27190075446114       -4.37568348129890
H           -1.33809961474707        2.80470555964199       -5.06565576469157
H           -1.07421063472526        2.37328794054995       -3.36133996430361
C           -5.06057632010838       -3.07175822871199       -2.29839028341736
H           -5.95785860036698       -3.68426748865565       -2.20320256755295
H           -5.20802416692614       -2.17127915314383       -1.70161461918076
C            0.75038920528188        2.83872209713100       -4.43526501314257
H            0.92126240514481        3.27384338578533       -5.41982165866663
H            1.45112680561921        2.01034399769849       -4.31616974112825
H            1.20203320077695       -1.86593720008443        4.32549282856924
C            5.53213986090853        1.51875776252741        0.41599021748862
C            4.34565777123134        1.24418789794255        1.04605439867745
C            6.57389622077681        2.31015171180130        0.93464687797823
H            4.20116229553817        1.82159872699279        1.95069307883130
O            5.90931256193493        0.85943932471331       -0.77988468618388
C            5.09162007274093        0.68085983921287       -1.81073843725518
O            3.93670664429260        1.04849473406987       -1.84615911112911
C            7.87892707920048        2.32033921848826        0.25555592009228
H            8.17730744448910        1.31197806168972       -0.03043441181573
H            7.78684142471760        2.87479486635657       -0.68260280003840
H            8.64968564797591        2.78742249624193        0.86126956809597
C            6.44873508200417        3.09937566357912        2.16545940178469
H            5.42367362856553        3.30120867147147        2.45939732724597
H            6.93899135232270        2.55795976387375        2.97996981039529
H            6.99707324250111        4.03471540115950        2.05747381258921
C            5.99874262488219        0.98353251975471       -4.07010609896246
C            4.90284188083928        1.46486031798404       -4.77501432380239
C            7.26965198524501        1.43404607260224       -4.39751664142530
C            5.07660844765886        2.38017482063723       -5.79762842854135
H            3.91458717704408        1.11880029662997       -4.51368819590641
C            7.44364445204472        2.34678302766634       -5.42502676000137
H            8.13076053995157        1.06311196176508       -3.86077121275011
C            6.34821296376621        2.82220338032646       -6.12564452860240
H            4.22152818916044        2.74647054726596       -6.34561510041609
H            8.43697539192551        2.68568963975123       -5.67965311864349
H            6.48532981127008        3.53324623742222       -6.92663832030847
C            5.79526296368092       -0.01079314333660       -2.94851557430129
H            6.74916172218099       -0.40637737202658       -2.60465974815073
H            5.15347521485731       -0.82229930702020       -3.29625239910177
