174
 energy: -254.405052055259 gnorm: 0.000146991995 xtb: 6.7.1 (edcfbbe)
P            1.11014669509158       -1.18539976569270       -0.92636084589469
Au           2.78728337809845        0.05925383107894        0.21800106666902
C            0.59277814204096       -2.73197668481199       -0.12003046211658
C            1.24306097656358       -3.10356102836077        1.05081581853456
C           -0.30740574841645       -3.61338827560580       -0.72416729104660
C            1.00033082623420       -4.34165348918937        1.62066310173122
H            1.95465970618880       -2.42220300637471        1.49731250621148
C           -0.53047141287382       -4.86038844870012       -0.15543624489925
H           -0.73830789968703       -3.37426145448523       -1.68518189998166
C            0.11633484355464       -5.22077466125392        1.01682338407491
H            1.51876976661572       -4.63165691996190        2.52203955220621
H           -1.18921348977624       -5.56178160554883       -0.64409119198122
H           -0.05351956677135       -6.19593560152636        1.44786634053105
C            1.93538721959011       -1.85222386017807       -2.40898301817685
C            2.79813765320915       -2.93270504209661       -2.23010672280261
C            1.82992725517578       -1.26401438584909       -3.66533156471499
C            3.51162295358892       -3.44298080297527       -3.29838698173479
H            2.90526274245350       -3.37712896366772       -1.24969193356037
C            2.54864922451269       -1.78003412834946       -4.73145444287650
H            1.19589166570508       -0.40791856936781       -3.83290835546846
C            3.38449665527882       -2.86986937647354       -4.55468355005836
H            4.17099413469244       -4.28562601293496       -3.15192285978314
H            2.45637561764092       -1.32296839602837       -5.70583457508173
H            3.94252054946955       -3.26612598037164       -5.38932658654296
O           -4.26439367559559        3.74527469220996        1.94277692487847
N           -2.32352795136885       -0.87912748292296       -0.14376718520143
O           -2.31062484078786        3.28042232450334        0.95886758664975
C           -1.55702047204331       -0.03768186053338       -0.87535184715771
C           -4.26415938279943        1.99611609838033        0.32745840457398
N           -3.28119264073722        1.00394334213387       -0.06372204301660
C           -5.12876335818543        4.12520028523681       -0.78892809104624
N           -3.33873613345277       -0.23966783472124        0.33918280099786
C           -4.85707654205226        2.65199489534504       -0.94935421410817
H           -5.77209773236077        2.12377074789988       -1.21162580047952
H           -4.14697199681870        2.52014007095994       -1.76555743267601
C           -5.59524751963764        6.86050853108376       -0.50380762811232
H           -5.77695391239074        7.91920915032579       -0.39489676284251
C           -4.36605541289620        6.40833421827125       -0.95411068998342
H           -3.58622111221894        7.11460939635952       -1.19854969930574
C           -4.13788433141273        5.05124929085742       -1.09778124500309
H           -3.17575870613595        4.71265886562514       -1.45609188390773
C           -6.35616329572454        4.58991733106579       -0.33554816944406
H           -7.14302395268419        3.89255385975423       -0.09353724181295
C           -2.18362476781700        1.19337108504898       -0.82374447111960
H           -1.91437094311014        2.14302056779002       -1.22972646576837
C           -6.59020840432854        5.94710573277672       -0.19659091332740
H           -7.55179814632948        6.29356889891563        0.15209857833862
C           -3.49729607940577        3.08829533888319        1.11532970536467
C           -3.02111005633102        4.18843948521306        3.97798901498645
H           -2.22407740153235        3.50696303254492        3.68915234277786
H           -2.59814332787423        4.97773159954472        4.59176586826332
H           -3.75932564198520        3.64436635217374        4.56232875417912
C           -3.67827584477360        4.80218776201243        2.74796532626212
H           -2.92657823038770        5.30699747908402        2.12912868540407
C           -4.80729822297453        5.75237613689048        3.10719779344001
H           -5.55867165011573        5.23208260694410        3.69504153844407
H           -4.41347342655631        6.58008502428504        3.68862018642588
H           -5.27332058420005        6.14262131262467        2.20656642815338
C           -5.33152928773104        1.38454651034727        1.26086314635806
H           -5.93533099114523        2.22224011969675        1.61271337746649
H           -4.81243782289288        0.95547866459310        2.11967103862821
C           -6.25581724753343        0.33737459140549        0.68958190883450
C           -8.06521331225782       -1.59538692941380       -0.21223812675701
C           -6.04378429134253       -1.01269492810000        0.94783452920744
C           -7.40617866663842        0.70184101772558       -0.00329619061841
C           -8.29565351973965       -0.25420166180065       -0.46394450051198
C           -6.94020041322721       -1.96873174073848        0.50350955262844
H           -5.17412723717156       -1.31974425184146        1.50613409285723
H           -7.64071879858134        1.74359680293216       -0.16247189258580
H           -9.18109447262821        0.05228780519221       -1.00148375777625
H           -6.76476309716340       -3.01083556675003        0.72598167694111
H           -8.76756929902075       -2.34002424252642       -0.55616059363603
Cu          -2.19907798329177       -2.63332670337250        0.60556780229367
C           -0.40288934052581       -0.45316524930514       -1.70646304728196
H           -0.03188327544498        0.42531559279789       -2.24148753302685
H           -0.75136211724264       -1.18349117732164       -2.44783671077222
N           -2.08728738010216       -3.30386070300967        2.56617002624304
N           -3.48464279581097       -4.17503292060338        0.45320718685595
C            1.35689005766093       -0.18184582719597        3.31545328979665
H            2.39470438196724       -0.02004332930436        3.55756174280732
C            0.66565809690164        0.81756623168261        2.62421658699382
O           -0.71613723926750        1.13628627970518       -4.70671125658128
O            1.39097484204883        1.89202258896460        2.20976221834948
C           -1.25815531004269       -2.87620930103012        3.52066425609929
C           -2.74850863198905       -4.45895462846096        2.71007106814693
C           -2.56268479022835       -5.26330022931327        3.83088380803187
H           -3.06944972750797       -6.20831833809001        3.92646654552943
C           -4.67214441560412       -5.76843622148238        1.76194255727304
H           -4.84309650294475       -6.25754969530644        2.70565661044928
C           -3.66517550980970       -4.82114798783036        1.61492274382584
C           -1.69079690531015       -4.83819835032683        4.82160938296824
H           -1.53117592558465       -5.44379170798671        5.70072803073648
C           -1.03849392615760       -3.62795027157475        4.67569312790370
H           -0.38388002824628       -3.25489300568021        5.44612593502564
C           -0.69454890057152        0.64865892391973        2.38248184219310
H           -1.26492544145701        1.44789283101969        1.93867744002741
C           -4.24678079782237       -4.44576696564214       -0.60007120672870
C            1.47035319627411        4.28245049895323       -0.69000798787352
H            0.56091159105519        4.85476702552088       -0.49261662824853
H            2.24737826329319        4.98989910919869       -0.98617107354098
C           -4.08475985642256       -0.03177855544776       -3.75863913643813
H           -5.02357124556800        0.35508680543520       -3.38983012924065
C            0.72994425148581       -1.36171785045059        3.65159008266623
C           -3.04487290992045        0.85025425157357       -4.00633618814840
H           -3.20117081208338        1.90681613047826       -3.85455053919674
C           -0.60314680073371       -1.58161244879139        3.30375004257633
C           -1.31536811922328       -0.53944720370369        2.71824425212922
H           -2.37360176873485       -0.66052662289736        2.54514203256706
C           -5.47345548800901       -6.06543892149943        0.66916029228349
H           -6.25745766957333       -6.80230911171965        0.75506883007635
C            0.81177365209525        2.75660552003687        1.23650243269994
H            0.31520559351987        2.14561376870670        0.47613196028269
H            0.06477515261784        3.40984375072665        1.70002405544319
C            1.23275828182002        3.30329158782931       -1.84100530179011
H            0.36374638416408        2.68754075811609       -1.60929803632140
H            2.09720914097798        2.64269941350394       -1.92865884319970
C           -1.83384026454382        0.37445724062268       -4.49358346282444
C           -3.98887460400269       -3.70649218963492       -1.87639584192172
H           -3.83375721189865       -4.43704888502665       -2.67356644233015
H           -3.08692370508933       -3.10279565769885       -1.76239950454346
C           -5.25202546400260       -5.40975064744891       -0.52747512406106
H           -5.84567762832492       -5.63721326613208       -1.39820201802909
C           -3.95592507758382       -1.39268819188024       -3.99447493045266
C            1.92167353022253        3.58453835639436        0.59506720089363
H            2.27362513129196        4.32612752852085        1.31374265069016
H            2.75363051894826        2.91271026500243        0.36292228231945
C           -5.09841694402455       -2.32876596295992       -3.72054881475384
H           -6.03602429656263       -1.81919949342223       -3.95279429298958
H           -5.02099621600534       -3.19951054773593       -4.37459704109469
C           -1.70323755536047       -0.98980494212698       -4.76089033060695
H           -0.77398585381110       -1.34892580370527       -5.17471702457679
C           -2.75090249675127       -1.85351300102888       -4.51551376267587
H           -2.63098893202094       -2.90201696344610       -4.74430384228157
C            1.01339662368113        4.00559201619147       -3.18253068335767
H            1.91397020475616        4.56731950788973       -3.43566105470522
H            0.19357894894594        4.72384268115652       -3.10458342506300
C           -0.71880735785262        2.49571467366461       -4.29402967616175
H           -1.35961197540228        3.08935091387644       -4.95772500475262
H           -1.12129806138023        2.56038767902253       -3.27697595727253
C           -5.16432060148155       -2.79830689469332       -2.26044700329434
H           -6.10144639973258       -3.33946221803546       -2.12512578780459
H           -5.18305280855995       -1.93468057518127       -1.59486030810731
C            0.72291729063893        3.01391458418340       -4.31489964777465
H            0.92345716763416        3.48108174544450       -5.27909596015787
H            1.39536432539923        2.15945409771363       -4.21990544623533
H            1.29245068437267       -2.13608094349422        4.14921696355642
C            5.47191091877670        1.60556463361209        0.60668251671927
C            4.27000983404248        1.16913506760767        1.10248081281977
C            6.42489307471956        2.34446911146957        1.33278272946989
H            4.03739447028751        1.59386795906155        2.07103755571219
O            5.96590076515915        1.19239846727571       -0.65031347733020
C            5.20913515209050        1.11431298622544       -1.74015756484444
O            4.02166379250336        1.35972982108243       -1.76177709005751
C            7.78181935331548        2.50159761971251        0.78497105608710
H            8.16748541628994        1.54435045856611        0.43392087011345
H            7.74106224610916        3.14048561911590       -0.10080696841282
H            8.46539499246103        2.93957236591394        1.50575064295071
C            6.16100148403619        2.93029463957463        2.65258814884117
H            5.10675488037546        3.02906466998343        2.89064050741260
H            6.63202646329514        2.30690347391556        3.41774238697200
H            6.64934354639444        3.90232799596889        2.72009159745316
C            6.00522865883944        0.65198440834528       -2.94935655720561
C            7.32315833812952        1.42417472943892       -3.05852233827796
H            7.85353157071520        1.10579419631648       -3.95234135242338
H            7.95807680154115        1.23458725425539       -2.19844586056603
H            7.13782944910929        2.49342331566246       -3.13663233116099
C            5.16196553712241        0.85585736735297       -4.20713032111885
H            4.21490495564946        0.33059717882185       -4.11523232940356
H            5.69243621523711        0.47343928396900       -5.07451511286016
H            4.95688130296683        1.91257670151932       -4.36275925282341
C            6.28375888574399       -0.84382539817101       -2.73558641084345
H            5.35069588587930       -1.39897429858564       -2.66558441767648
H            6.85914592014789       -1.00372722358284       -1.82683443913091
H            6.85217211279780       -1.22845914880904       -3.57832293324039
