      -----------------------------------------------------------      
     |                   =====================                   |     
     |                           x T B                           |     
     |                   =====================                   |     
     |                         S. Grimme                         |     
     |          Mulliken Center for Theoretical Chemistry        |     
     |                    University of Bonn                     |     
      -----------------------------------------------------------      

   * xtb version 6.7.1 (edcfbbe) compiled by 'runner@sat12-gn217-0cbadaec-b866-44ae-a866-732403219ae3-6E01A8DFFD18.local' on 2026-06-10

   xtb is free software: you can redistribute it and/or modify it under
   the terms of the GNU Lesser General Public License as published by
   the Free Software Foundation, either version 3 of the License, or
   (at your option) any later version.
   
   xtb is distributed in the hope that it will be useful,
   but WITHOUT ANY WARRANTY; without even the implied warranty of
   MERCHANTABILITY or FITNESS FOR A PARTICULAR PURPOSE.  See the
   GNU Lesser General Public License for more details.
   
   Cite this work as:
   * C. Bannwarth, E. Caldeweyher, S. Ehlert, A. Hansen, P. Pracht,
     J. Seibert, S. Spicher, S. Grimme, WIREs Comput. Mol. Sci., 2020, 11,
     e01493. DOI: 10.1002/wcms.1493
   
   for GFN2-xTB:
   * C. Bannwarth, S. Ehlert and S. Grimme., J. Chem. Theory Comput., 2019,
     15, 1652-1671. DOI: 10.1021/acs.jctc.8b01176
   for GFN1-xTB:
   * S. Grimme, C. Bannwarth, P. Shushkov, J. Chem. Theory Comput., 2017,
     13, 1989-2009. DOI: 10.1021/acs.jctc.7b00118
   for GFN0-xTB:
   * P. Pracht, E. Caldeweyher, S. Ehlert, S. Grimme, ChemRxiv, 2019, preprint.
     DOI: 10.26434/chemrxiv.8326202.v1
   for GFN-FF:
   * S. Spicher and S. Grimme, Angew. Chem. Int. Ed., 2020, 59, 15665-15673.
     DOI: 10.1002/anie.202004239
   
   for ALPB and GBSA implicit solvation:
   * S. Ehlert, M. Stahn, S. Spicher, S. Grimme, J. Chem. Theory Comput.,
     2021, 17, 4250-4261. DOI: 10.1021/acs.jctc.1c00471
   
   for ddCOSMO and CPCM-X implicit solvation:
   * M. Stahn, S. Ehlert, S. Grimme, J. Phys. Chem. A,
     2023, XX, XXXX-XXXX. DOI: 10.1021/acs.jpca.3c04382
   
   for DFT-D4:
   * E. Caldeweyher, C. Bannwarth and S. Grimme, J. Chem. Phys., 2017,
     147, 034112. DOI: 10.1063/1.4993215
   * E. Caldeweyher, S. Ehlert, A. Hansen, H. Neugebauer, S. Spicher,
     C. Bannwarth and S. Grimme, J. Chem. Phys., 2019, 150, 154122.
     DOI: 10.1063/1.5090222
   * E. Caldeweyher, J.-M. Mewes, S. Ehlert and S. Grimme, Phys. Chem. Chem. Phys.
     2020, 22, 8499-8512. DOI: 10.1039/D0CP00502A
   
   for sTDA-xTB:
   * S. Grimme and C. Bannwarth, J. Chem. Phys., 2016, 145, 054103.
     DOI: 10.1063/1.4959605
   
   in the mass-spec context:
   * V. Asgeirsson, C. Bauer and S. Grimme, Chem. Sci., 2017, 8, 4879.
     DOI: 10.1039/c7sc00601b
   * J. Koopman and S. Grimme, ACS Omega 2019, 4, 12, 15120-15133.
     DOI: 10.1021/acsomega.9b02011
   
   for metadynamics refer to:
   * S. Grimme, J. Chem. Theory Comput., 2019, 155, 2847-2862
     DOI: 10.1021/acs.jctc.9b00143
   
   for SPH calculations refer to:
   * S. Spicher and S. Grimme, J. Chem. Theory Comput., 2021, 17, 1701-1714
     DOI: 10.1021/acs.jctc.0c01306
   
   for ONIOM refer to:
   * C. Plett, A. Katbashev, S. Ehlert, S. Grimme, M. Bursch,
     Phys. Chem. Chem. Phys., 2023, 25, 17860-17868. DOI: 10.1039/D3CP02178E
   
   for DIPRO refer to:
   * J. Kohn, N. Gildemeister, S. Grimme, D. Fazzi, A. Hansen,
     J. Chem. Phys., 2023, just accepted.
   
   for PTB refer to:
   * S. Grimme, M. Mueller, A. Hansen, J. Chem. Phys., 2023, 158, 124111.
     DOI: 10.1063/5.0137838
   
   with help from (in alphabetical order)
   P. Atkinson, C. Bannwarth, F. Bohle, G. Brandenburg, E. Caldeweyher
   M. Checinski, S. Dohm, S. Ehlert, S. Ehrlich, I. Gerasimov, C. Hölzer
   A. Katbashev, J. Kohn, J. Koopman, C. Lavigne, S. Lehtola, F. März, M. Müller,
   F. Musil, H. Neugebauer, J. Pisarek, C. Plett, P. Pracht, F. Pultar,
   J. Seibert, P. Shushkov, S. Spicher, M. Stahn, M. Steiner, T. Strunk,
   J. Stückrath, T. Rose, and J. Unsleber
   
 * started run on 2026/09/29 at 11:12:50.124     
   ID    Z sym.   atoms
    1   44 Ru     1, 120
    2    7 N      2-7, 205, 206
    3    6 C      8-56, 121, 125-130, 134, 138, 142, 146-152, 156, 160, 164,
                  168, 172, 176, 184-187, 189-193, 201, 212, 213, 215, 217,
                  218, 222, 229-233, 238
    4    8 O      57-60, 181-183, 200, 207-210
    5    9 F      61-69
    6   16 S      70, 71, 122, 123, 180
    7    1 H      72-119, 131-133, 135-137, 139-141, 143-145, 153-155,
                  157-159, 161-163, 165-167, 169-171, 173-175, 177-179, 188,
                  194-199, 202-204, 211, 214, 216, 219-221, 223-228, 234-237,
                  239-241
    8   17 Cl     124
constraining bond 1 120 to    2.7856040 Å, actual value:    2.7807642 Å
constraining bond 1 122 to    2.3679472 Å, actual value:    2.3749367 Å
constraining bond 1 123 to    2.3486910 Å, actual value:    2.3540074 Å
constraining bond 120 122 to    2.3406651 Å, actual value:    2.3446734 Å
constraining bond 120 123 to    2.3608950 Å, actual value:    2.3647692 Å
constraining bond 120 124 to    2.4419555 Å, actual value:    2.4354810 Å
constraining bond 1 121 to    1.9039122 Å, actual value:    1.9076831 Å

           -------------------------------------------------
          |                Calculation Setup                |
           -------------------------------------------------

          program call               : SOURCE_WORKSPACE/.micromamba/part3c/bin/xtb preoptimized.xyz --gfn 2 --chrg 0 --uhf 0 --cosmo 2.24 --parallel 4 --metadyn 25 --input metadyn.inp --namespace solvent-md
          calculation namespace      : solvent-md
          coordinate file            : preoptimized.xyz
          omp threads                :                     4


molecular fragmentation (1/2 indicates fragments):
122222222222222222222222222222222222222222222222222222222222222222222222
222222222222222222222222222222222222222222222221111111111111111111111111
111111111111111111111111111111111112222211111111111111211112222222122211
1111111112212222222222222
# atoms in fragment 1/2:    92   149
 fragment masses (1/2) :      800.50     1312.33
CMA distance (Bohr)    :   9.256
constraining FC (au)   :  0.2500

           -------------------------------------------------
          |                 G F N 2 - x T B                 |
           -------------------------------------------------

        Reference                      10.1021/acs.jctc.8b01176
      * Hamiltonian:
        H0-scaling (s, p, d)           1.850000    2.230000    2.230000
        zeta-weighting                 0.500000
      * Dispersion:
        s8                             2.700000
        a1                             0.520000
        a2                             5.000000
        s9                             5.000000
      * Repulsion:
        kExp                           1.500000    1.000000
        rExp                           1.000000
      * Coulomb:
        alpha                          2.000000
        third order                    shell-resolved
        anisotropic                    true
        a3                             3.000000
        a5                             4.000000
        cn-shift                       1.200000
        cn-exp                         4.000000
        max-rad                        5.000000

      * Solvation model:               COSMO
        Solvent                        2.24
        Parameter file                 internal GFN-xTB/COSMO
        Dielectric constant                2.2400E+00
        Reference state                gsolv [1 M gas/solution]
        Free energy shift                  0.0000E+00 Eh       0.0000E+00 kcal/mol
        Temperature                        2.9815E+02 K
        Density                            1.0000E+00 kg/L
        Solvent mass                       1.8000E+01 g/mol
        vdW Radii scaling                  1.0000E+00
        Surface tension                    1.0000E-05 Eh       1.5569E+01 dyn/cm
        Grid points                               230 per atom
q/qsh data taken from xtbrestart
CAMM data taken from xtbrestart

          ...................................................
          :                      SETUP                      :
          :.................................................:
          :  # basis functions                 682          :
          :  # atomic orbitals                 674          :
          :  # shells                          380          :
          :  # electrons                       714          :
          :  max. iterations                   250          :
          :  Hamiltonian                  GFN2-xTB          :
          :  restarted?                       true          :
          :  GBSA solvation                   true          :
          :  PC potential                    false          :
          :  electronic temp.          300.0000000     K    :
          :  accuracy                    1.0000000          :
          :  -> integral cutoff          0.2500000E+02      :
          :  -> integral neglect         0.1000000E-07      :
          :  -> SCF convergence          0.1000000E-05 Eh   :
          :  -> wf. convergence          0.1000000E-03 e    :
          :  Broyden damping             0.4000000          :
          :  net charge                          0          :
          :  unpaired electrons                  0          :
          ...................................................

 iter      E             dE          RMSdq      gap      omega  full diag
   1   -404.5484238 -0.404548E+03  0.317E-05    0.61       0.0  T
   2   -404.5484241 -0.300860E-06  0.100E-04    0.61      64.3  T
   3   -404.5484240  0.166495E-06  0.261E-05    0.61     246.8  T

   *** convergence criteria satisfied after 3 iterations ***

         #    Occupation            Energy/Eh            Energy/eV
      -------------------------------------------------------------
         1        2.0000           -1.0327353             -28.1022
       ...           ...                  ...                  ...
       351        2.0000           -0.3688957             -10.0382
       352        2.0000           -0.3680297             -10.0146
       353        2.0000           -0.3572645              -9.7217
       354        2.0000           -0.3548952              -9.6572
       355        2.0000           -0.3530789              -9.6078
       356        2.0000           -0.3515296              -9.5656
       357        2.0000           -0.3498467              -9.5198 (HOMO)
       358        0.0000           -0.3272470              -8.9048 (LUMO)
       359        0.0000           -0.3243968              -8.8273
       360                         -0.3215952              -8.7511
       361                         -0.3182733              -8.6607
       362                         -0.2938134              -7.9951
       ...                                ...                  ...
       674                         11.4848364             312.5183
      -------------------------------------------------------------
                  HL-Gap            0.0225998 Eh            0.6150 eV
             Fermi-level           -0.3384811 Eh           -9.2105 eV

 SCC (total)                   0 d,  0 h,  0 min,  0.590 sec
 SCC setup                      ...        0 min,  0.006 sec (  1.050%)
 Dispersion                     ...        0 min,  0.003 sec (  0.592%)
 classical contributions        ...        0 min,  0.001 sec (  0.105%)
 integral evaluation            ...        0 min,  0.021 sec (  3.475%)
 iterations                     ...        0 min,  0.268 sec ( 45.360%)
 molecular gradient             ...        0 min,  0.272 sec ( 46.096%)
 printout                       ...        0 min,  0.020 sec (  3.320%)

         :::::::::::::::::::::::::::::::::::::::::::::::::::::
         ::                     SUMMARY                     ::
         :::::::::::::::::::::::::::::::::::::::::::::::::::::
         :: total energy            -399.632783448382 Eh    ::
         :: total w/o Gsasa/hb      -399.624284923174 Eh    ::
         :: gradient norm              0.000550029077 Eh/a0 ::
         :: HOMO-LUMO gap              0.614971084607 eV    ::
         ::.................................................::
         :: SCC energy              -404.508906430907 Eh    ::
         :: -> isotropic ES            0.589786287986 Eh    ::
         :: -> anisotropic ES         -0.060098241964 Eh    ::
         :: -> anisotropic XC          0.073609350547 Eh    ::
         :: -> dispersion             -0.409400911363 Eh    ::
         :: -> Gsolv                  -0.055957518575 Eh    ::
         ::    -> Gelec               -0.047458993368 Eh    ::
         ::    -> Gsasa               -0.008498525207 Eh    ::
         ::    -> Ghb                  0.000000000000 Eh    ::
         ::    -> Gshift               0.000000000000 Eh    ::
         :: repulsion energy           4.875955362161 Eh    ::
         :: add. restraining           0.000167620365 Eh    ::
         :: total charge              -0.000000000000 e     ::
         :::::::::::::::::::::::::::::::::::::::::::::::::::::

           -------------------------------------------------
          |                Property Printout                |
           -------------------------------------------------

    * Orbital Energies and Occupations

         #    Occupation            Energy/Eh            Energy/eV
      -------------------------------------------------------------
         1        2.0000           -1.0327353             -28.1022
       ...           ...                  ...                  ...
       345        2.0000           -0.3897231             -10.6049
       346        2.0000           -0.3873615             -10.5406
       347        2.0000           -0.3844777             -10.4622
       348        2.0000           -0.3839126             -10.4468
       349        2.0000           -0.3753406             -10.2135
       350        2.0000           -0.3711362             -10.0991
       351        2.0000           -0.3688957             -10.0382
       352        2.0000           -0.3680297             -10.0146
       353        2.0000           -0.3572645              -9.7217
       354        2.0000           -0.3548952              -9.6572
       355        2.0000           -0.3530789              -9.6078
       356        2.0000           -0.3515296              -9.5656
       357        2.0000           -0.3498467              -9.5198 (HOMO)
       358        0.0000           -0.3272470              -8.9048 (LUMO)
       359        0.0000           -0.3243968              -8.8273
       360                         -0.3215952              -8.7511
       361                         -0.3182733              -8.6607
       362                         -0.2938134              -7.9951
       363                         -0.2874839              -7.8228
       364                         -0.2825085              -7.6874
       365                         -0.2753084              -7.4915
       366                         -0.2732003              -7.4342
       367                         -0.2704164              -7.3584
       368                         -0.2665635              -7.2536
       ...                                ...                  ...
       674                         11.4848364             312.5183
      -------------------------------------------------------------
                  HL-Gap            0.0225998 Eh            0.6150 eV
             Fermi-level           -0.3384811 Eh           -9.2105 eV

     #   Z          covCN         q      C6AA      α(0)
     1  44 Ru       7.471    -0.135   311.701    29.696
     2   7 N        2.749    -0.158    24.402     7.337
     3   7 N        2.778    -0.155    24.343     7.328
     4   7 N        2.742    -0.154    24.321     7.325
     5   7 N        2.775    -0.161    24.487     7.349
     6   7 N        2.757    -0.080    22.800     7.092
     7   7 N        2.757    -0.078    22.755     7.085
     8   6 C        2.922    -0.028    28.699     8.785
     9   6 C        2.973    -0.009    28.249     8.718
    10   6 C        2.935    -0.044    29.087     8.845
    11   6 C        2.901     0.095    25.889     8.343
    12   6 C        2.919    -0.041    29.026     8.835
    13   6 C        2.977    -0.021    28.516     8.759
    14   6 C        2.721     0.361    20.874     7.479
    15   6 C        2.806     0.207    23.610     7.961
    16   6 C        3.798     0.022    20.205     6.400
    17   6 C        3.900     0.026    20.074     6.369
    18   6 C        3.761    -0.113    22.714     6.794
    19   6 C        3.761    -0.115    22.746     6.799
    20   6 C        3.759    -0.114    22.738     6.798
    21   6 C        3.337     0.488    17.246     6.574
    22   6 C        2.977    -0.016    28.411     8.743
    23   6 C        2.922    -0.040    28.997     8.831
    24   6 C        2.979    -0.018    28.446     8.749
    25   6 C        2.919    -0.034    28.837     8.806
    26   6 C        2.812     0.208    23.602     7.960
    27   6 C        3.806     0.023    20.183     6.395
    28   6 C        3.899     0.022    20.142     6.380
    29   6 C        3.759    -0.120    22.855     6.816
    30   6 C        3.760    -0.121    22.867     6.817
    31   6 C        3.807    -0.082    22.051     6.685
    32   6 C        3.696     0.074    19.509     6.318
    33   6 C        2.762     0.267    22.492     7.767
    34   6 C        2.761     0.267    22.486     7.765
    35   6 C        3.766    -0.007    20.739     6.491
    36   6 C        3.832    -0.065    21.718     6.631
    37   6 C        3.835    -0.064    21.702     6.628
    38   6 C        3.835     0.041    19.856     6.340
    39   6 C        3.768    -0.010    20.785     6.497
    40   6 C        3.832    -0.065    21.718     6.631
    41   6 C        3.835    -0.064    21.708     6.629
    42   6 C        3.834     0.042    19.852     6.339
    43   6 C        3.337     0.488    17.239     6.572
    44   6 C        3.338     0.487    17.241     6.572
    45   6 C        2.972     0.034    27.238     8.561
    46   6 C        2.926    -0.029    28.717     8.788
    47   6 C        2.922    -0.022    28.553     8.763
    48   6 C        2.918    -0.015    28.385     8.737
    49   6 C        2.917     0.003    27.956     8.670
    50   6 C        2.972     0.034    27.246     8.562
    51   6 C        2.926    -0.031    28.770     8.796
    52   6 C        2.923    -0.023    28.578     8.767
    53   6 C        2.918    -0.020    28.503     8.755
    54   6 C        2.918    -0.017    28.439     8.745
    55   6 C        2.919     0.004    27.946     8.669
    56   6 C        2.917    -0.018    28.468     8.749
    57   8 O        0.856    -0.436    22.406     6.346
    58   8 O        1.705    -0.262    18.337     5.782
    59   8 O        0.859    -0.497    23.710     6.529
    60   8 O        0.860    -0.497    23.723     6.530
    61   9 F        0.791    -0.209    11.324     3.975
    62   9 F        0.791    -0.213    11.368     3.983
    63   9 F        0.791    -0.204    11.274     3.966
    64   9 F        0.791    -0.214    11.380     3.985
    65   9 F        0.791    -0.204    11.280     3.967
    66   9 F        0.791    -0.216    11.399     3.988
    67   9 F        0.791    -0.215    11.391     3.987
    68   9 F        0.791    -0.204    11.281     3.967
    69   9 F        0.791    -0.208    11.320     3.974
    70  16 S        1.103    -0.508   161.929    21.520
    71  16 S        1.081    -0.514   162.212    21.539
    72   1 H        0.926     0.070     2.090     2.261
    73   1 H        0.926     0.070     2.084     2.258
    74   1 H        0.926     0.091     1.871     2.139
    75   1 H        0.859     0.230     0.965     1.539
    76   1 H        0.860     0.216     1.029     1.589
    77   1 H        0.924     0.063     2.163     2.300
    78   1 H        0.925     0.051     2.307     2.375
    79   1 H        0.925     0.044     2.397     2.421
    80   1 H        0.925     0.040     2.447     2.446
    81   1 H        0.925     0.043     2.410     2.428
    82   1 H        0.925     0.048     2.343     2.394
    83   1 H        0.925     0.039     2.468     2.457
    84   1 H        0.925     0.034     2.525     2.485
    85   1 H        0.925     0.055     2.259     2.350
    86   1 H        0.926     0.080     1.982     2.202
    87   1 H        0.860     0.219     1.012     1.576
    88   1 H        0.924     0.069     2.099     2.266
    89   1 H        0.925     0.053     2.283     2.363
    90   1 H        0.925     0.052     2.299     2.371
    91   1 H        0.925     0.044     2.402     2.423
    92   1 H        0.925     0.049     2.326     2.385
    93   1 H        0.925     0.047     2.355     2.400
    94   1 H        0.925     0.047     2.356     2.400
    95   1 H        0.924     0.072     2.061     2.245
    96   1 H        0.924     0.058     2.225     2.333
    97   1 H        0.924     0.060     2.201     2.320
    98   1 H        0.925     0.072     2.066     2.248
    99   1 H        0.924     0.058     2.217     2.328
   100   1 H        0.924     0.067     2.124     2.279
   101   1 H        0.925     0.058     2.224     2.332
   102   1 H        0.925     0.059     2.212     2.326
   103   1 H        0.924     0.060     2.197     2.318
   104   1 H        0.924     0.070     2.082     2.256
   105   1 H        0.925     0.059     2.213     2.326
   106   1 H        0.925     0.060     2.202     2.321
   107   1 H        0.925     0.047     2.363     2.404
   108   1 H        0.925     0.058     2.221     2.331
   109   1 H        0.925     0.060     2.202     2.321
   110   1 H        0.926     0.067     2.122     2.278
   111   1 H        0.926     0.078     2.004     2.214
   112   1 H        0.926     0.081     1.971     2.195
   113   1 H        0.925     0.060     2.203     2.321
   114   1 H        0.925     0.058     2.222     2.331
   115   1 H        0.926     0.059     2.206     2.323
   116   1 H        0.926     0.079     1.990     2.206
   117   1 H        0.926     0.080     1.978     2.199
   118   1 H        0.926     0.084     1.939     2.178
   119   1 H        0.926     0.080     1.975     2.198
   120  44 Ru       7.389    -0.122   311.020    29.664
   121   6 C        1.908    -0.046    32.354     9.186
   122  16 S        2.769    -0.077   144.241    20.214
   123  16 S        2.768    -0.037   142.584    20.097
   124  17 Cl       0.790    -0.505   115.776    16.460
   125   6 C        3.817     0.025    20.141     6.387
   126   6 C        3.890     0.020    20.186     6.387
   127   6 C        3.780     0.015    20.348     6.426
   128   6 C        3.771     0.012    20.402     6.437
   129   6 C        3.853     0.027    20.090     6.375
   130   6 C        3.753    -0.107    22.609     6.780
   131   1 H        0.925     0.070     2.083     2.257
   132   1 H        0.925     0.071     2.075     2.253
   133   1 H        0.925     0.067     2.118     2.276
   134   6 C        3.752    -0.107    22.608     6.780
   135   1 H        0.925     0.076     2.019     2.222
   136   1 H        0.924     0.062     2.172     2.305
   137   1 H        0.925     0.074     2.038     2.232
   138   6 C        3.753    -0.105    22.560     6.773
   139   1 H        0.925     0.063     2.160     2.298
   140   1 H        0.925     0.058     2.222     2.331
   141   1 H        0.924     0.073     2.055     2.242
   142   6 C        3.753    -0.100    22.462     6.758
   143   1 H        0.925     0.055     2.263     2.352
   144   1 H        0.924     0.057     2.230     2.335
   145   1 H        0.925     0.062     2.177     2.307
   146   6 C        3.752    -0.109    22.638     6.785
   147   6 C        3.800     0.033    20.013     6.369
   148   6 C        3.868     0.019    20.208     6.392
   149   6 C        3.828     0.021    20.207     6.396
   150   6 C        3.823     0.015    20.313     6.414
   151   6 C        3.834     0.023    20.162     6.388
   152   6 C        3.753    -0.105    22.559     6.773
   153   1 H        0.925     0.067     2.116     2.275
   154   1 H        0.924     0.078     1.995     2.209
   155   1 H        0.925     0.077     2.012     2.218
   156   6 C        3.753    -0.102    22.507     6.765
   157   1 H        0.925     0.061     2.193     2.316
   158   1 H        0.924     0.079     1.985     2.203
   159   1 H        0.925     0.068     2.112     2.273
   160   6 C        3.753    -0.102    22.512     6.766
   161   1 H        0.925     0.064     2.148     2.292
   162   1 H        0.925     0.073     2.055     2.242
   163   1 H        0.924     0.066     2.132     2.283
   164   6 C        3.753    -0.110    22.664     6.789
   165   1 H        0.925     0.078     2.001     2.212
   166   1 H        0.925     0.065     2.147     2.291
   167   1 H        0.925     0.069     2.098     2.265
   168   6 C        3.753    -0.108    22.631     6.784
   169   1 H        0.925     0.069     2.096     2.264
   170   1 H        0.924     0.081     1.970     2.195
   171   1 H        0.925     0.072     2.067     2.248
   172   6 C        3.745    -0.049    21.531     6.619
   173   1 H        0.925     0.078     1.999     2.211
   174   1 H        0.925     0.085     1.928     2.172
   175   1 H        0.925     0.075     2.036     2.232
   176   6 C        3.745    -0.060    21.731     6.650
   177   1 H        0.925     0.093     1.850     2.127
   178   1 H        0.925     0.083     1.944     2.180
   179   1 H        0.925     0.088     1.896     2.154
   180  16 S        3.671     1.305    98.332    16.690
   181   8 O        0.860    -0.722    29.321     7.260
   182   8 O        0.860    -0.720    29.265     7.253
   183   8 O        0.860    -0.715    29.123     7.235
   184   6 C        2.978    -0.118    30.992     9.132
   185   6 C        1.978    -0.029    31.833     9.112
   186   6 C        2.900     0.017    27.631     8.619
   187   6 C        2.977     0.001    28.005     8.681
   188   1 H        0.925     0.081     1.972     2.196
   189   6 C        2.864     0.153    24.685     8.144
   190   6 C        2.924    -0.023    28.571     8.766
   191   6 C        2.913    -0.034    28.857     8.809
   192   6 C        2.921    -0.019    28.472     8.750
   193   6 C        2.912    -0.068    29.684     8.934
   194   1 H        0.925     0.072     2.065     2.247
   195   1 H        0.924     0.069     2.099     2.266
   196   1 H        0.924     0.059     2.211     2.325
   197   1 H        0.926     0.053     2.288     2.366
   198   1 H        0.926     0.061     2.192     2.315
   199   1 H        0.926     0.097     1.810     2.104
   200   8 O        1.706    -0.251    18.166     5.755
   201   6 C        3.696     0.082    19.384     6.298
   202   1 H        0.923     0.046     2.369     2.407
   203   1 H        0.923     0.047     2.364     2.405
   204   1 H        0.859     0.232     0.959     1.534
   205   7 N        2.761     0.544    13.548     5.467
   206   7 N        2.761     0.541    13.572     5.472
   207   8 O        0.930    -0.417    21.982     6.288
   208   8 O        0.930    -0.414    21.932     6.281
   209   8 O        0.930    -0.418    22.011     6.292
   210   8 O        0.930    -0.418    22.004     6.291
   211   1 H        0.926     0.056     2.252     2.347
   212   6 C        2.901     0.101    25.767     8.323
   213   6 C        2.932    -0.047    29.157     8.855
   214   1 H        0.926     0.092     1.856     2.131
   215   6 C        2.897    -0.074    29.856     8.959
   216   1 H        0.926     0.051     2.312     2.378
   217   6 C        2.939     0.012    27.741     8.638
   218   6 C        3.759    -0.116    22.767     6.803
   219   1 H        0.925     0.052     2.298     2.370
   220   1 H        0.925     0.047     2.363     2.404
   221   1 H        0.925     0.047     2.356     2.401
   222   6 C        3.759    -0.114    22.732     6.797
   223   1 H        0.925     0.053     2.277     2.360
   224   1 H        0.925     0.045     2.377     2.411
   225   1 H        0.925     0.053     2.278     2.360
   226   1 H        0.924     0.064     2.158     2.297
   227   1 H        0.924     0.068     2.106     2.270
   228   1 H        0.926     0.053     2.280     2.361
   229   6 C        2.965    -0.029    28.723     8.791
   230   6 C        2.928    -0.036    28.904     8.817
   231   6 C        2.967     0.027    27.397     8.586
   232   6 C        2.928    -0.036    28.896     8.816
   233   6 C        2.988    -0.030    28.731     8.793
   234   1 H        0.926     0.046     2.375     2.410
   235   1 H        0.926     0.054     2.275     2.359
   236   1 H        0.926     0.054     2.272     2.357
   237   1 H        0.926     0.041     2.437     2.441
   238   6 C        3.758    -0.118    22.809     6.809
   239   1 H        0.925     0.055     2.256     2.349
   240   1 H        0.925     0.058     2.227     2.334
   241   1 H        0.925     0.063     2.167     2.302

 Mol. C6AA /au·bohr⁶  :     723595.281689
 Mol. C8AA /au·bohr⁸  :   19639126.678367
 Mol. α(0) /au        :       1307.792736


Wiberg/Mayer (AO) data.
largest (>0.10) Wiberg bond orders for each atom

 ---------------------------------------------------------------------------
     #   Z sym  total        # sym  WBO       # sym  WBO       # sym  WBO
 ---------------------------------------------------------------------------
     1  44 Ru   6.266 --   121 C    1.213   123 S    0.840   122 S    0.778
                           120 Ru   0.631   126 C    0.526   129 C    0.452
                           125 C    0.379   127 C    0.329   128 C    0.311
                           186 C    0.176   185 C    0.106
     2   7 N    3.508 --    15 C    1.188    11 C    1.146    75 H    0.854
     3   7 N    3.486 --    15 C    1.318    16 C    0.990    76 H    0.881
                            71 S    0.143
     4   7 N    3.514 --    26 C    1.194   212 C    1.154   204 H    0.846
     5   7 N    3.482 --    26 C    1.324    27 C    0.988    87 H    0.868
                            70 S    0.142
     6   7 N    3.523 --    34 C    1.299    35 C    0.976    38 C    0.967
                            59 O    0.192
     7   7 N    3.522 --    33 C    1.298    39 C    0.976    42 C    0.966
                            60 O    0.190
     8   6 C    3.967 --    13 C    1.411     9 C    1.377    72 H    0.965
     9   6 C    3.987 --    10 C    1.427     8 C    1.377    14 C    0.981
    10   6 C    3.986 --     9 C    1.427    11 C    1.336    73 H    0.958
    11   6 C    3.970 --    12 C    1.343    10 C    1.336     2 N    1.146
    12   6 C    3.980 --    13 C    1.422    11 C    1.343    74 H    0.952
    13   6 C    3.970 --    12 C    1.422     8 C    1.411    44 C    0.951
    14   6 C    3.919 --    57 O    1.707    58 O    1.157     9 C    0.981
    15   6 C    3.954 --    71 S    1.374     3 N    1.318     2 N    1.188
    16   6 C    3.961 --     3 N    0.990    17 C    0.948    77 H    0.947
                            34 C    0.934
    17   6 C    3.986 --    20 C    1.000    18 C    0.998    19 C    0.997
                            16 C    0.948
    18   6 C    3.994 --    17 C    0.998    80 H    0.984    78 H    0.983
                            79 H    0.981
    19   6 C    3.994 --    17 C    0.997    81 H    0.985    82 H    0.984
                            83 H    0.980
    20   6 C    3.993 --    17 C    1.000   107 H    0.982    85 H    0.980
                            84 H    0.977
    21   6 C    3.821 --    68 F    0.951    22 C    0.951    69 F    0.946
                            67 F    0.935
    22   6 C    3.971 --   213 C    1.451    25 C    1.386    21 C    0.951
    23   6 C    3.979 --    24 C    1.424   212 C    1.344   199 H    0.945
    24   6 C    3.974 --    23 C    1.424    25 C    1.407    43 C    0.950
    25   6 C    3.965 --    24 C    1.407    22 C    1.386    86 H    0.964
    26   6 C    3.955 --    70 S    1.363     5 N    1.324     4 N    1.194
    27   6 C    3.960 --     5 N    0.988    28 C    0.949    88 H    0.947
                            33 C    0.932
    28   6 C    3.986 --    29 C    0.998    30 C    0.996    31 C    0.987
                            27 C    0.949
    29   6 C    3.993 --    28 C    0.998    91 H    0.984    89 H    0.982
                            90 H    0.981
    30   6 C    3.993 --    28 C    0.996    94 H    0.984    92 H    0.981
                            93 H    0.979
    31   6 C    3.983 --    32 C    0.994    28 C    0.987    96 H    0.966
                            95 H    0.954
    32   6 C    3.912 --    31 C    0.994    97 H    0.970    98 H    0.968
                            58 O    0.924
    33   6 C    3.951 --    60 O    1.604     7 N    1.298    27 C    0.932
    34   6 C    3.951 --    59 O    1.608     6 N    1.299    16 C    0.934
    35   6 C    3.965 --    36 C    1.004     6 N    0.976    99 H    0.963
                           100 H    0.962
    36   6 C    3.992 --    37 C    1.006    35 C    1.004   101 H    0.977
                           102 H    0.976
    37   6 C    3.988 --    36 C    1.006   108 H    0.976   109 H    0.975
                            38 C    0.970
    38   6 C    3.969 --    45 C    0.996    37 C    0.970     6 N    0.967
                           227 H    0.951
    39   6 C    3.964 --    40 C    1.004     7 N    0.976   103 H    0.963
                           104 H    0.960
    40   6 C    3.992 --    41 C    1.006    39 C    1.004   105 H    0.977
                           106 H    0.975
    41   6 C    3.988 --    40 C    1.006   113 H    0.976   114 H    0.976
                            42 C    0.972
    42   6 C    3.970 --    50 C    0.995    41 C    0.972     7 N    0.966
                           226 H    0.951
    43   6 C    3.822 --    63 F    0.951    24 C    0.950    61 F    0.947
                            62 F    0.937
    44   6 C    3.818 --    65 F    0.953    13 C    0.951    64 F    0.940
                            66 F    0.935
    45   6 C    3.984 --    47 C    1.400    46 C    1.382    38 C    0.996
    46   6 C    3.988 --    56 C    1.477    45 C    1.382   110 H    0.965
    47   6 C    3.987 --    48 C    1.458    45 C    1.400   111 H    0.958
    48   6 C    3.984 --    47 C    1.458    49 C    1.366   112 H    0.960
    49   6 C    3.954 --    48 C    1.366    56 C    1.353   206 N    0.992
    50   6 C    3.985 --    52 C    1.401    51 C    1.385    42 C    0.995
    51   6 C    3.989 --    53 C    1.475    50 C    1.385   115 H    0.964
    52   6 C    3.986 --    54 C    1.458    50 C    1.401   116 H    0.955
    53   6 C    3.985 --    51 C    1.475    55 C    1.356   117 H    0.959
    54   6 C    3.984 --    52 C    1.458    55 C    1.366   118 H    0.960
    55   6 C    3.954 --    54 C    1.366    53 C    1.356   205 N    0.989
    56   6 C    3.984 --    46 C    1.477    49 C    1.353   119 H    0.960
    57   8 O    2.011 --    14 C    1.707    58 O    0.176
    58   8 O    2.323 --    14 C    1.157    32 C    0.924    57 O    0.176
    59   8 O    1.945 --    34 C    1.608     6 N    0.192
    60   8 O    1.952 --    33 C    1.604     7 N    0.190
    61   9 F    1.070 --    43 C    0.947
    62   9 F    1.066 --    43 C    0.937
    63   9 F    1.075 --    43 C    0.951
    64   9 F    1.065 --    44 C    0.940
    65   9 F    1.076 --    44 C    0.953
    66   9 F    1.062 --    44 C    0.935
    67   9 F    1.064 --    21 C    0.935
    68   9 F    1.075 --    21 C    0.951
    69   9 F    1.069 --    21 C    0.946
    70  16 S    1.741 --    26 C    1.363     5 N    0.142
    71  16 S    1.724 --    15 C    1.374     3 N    0.143
    72   1 H    0.995 --     8 C    0.965
    73   1 H    0.995 --    10 C    0.958
    74   1 H    0.991 --    12 C    0.952
    75   1 H    0.946 --     2 N    0.854
    76   1 H    0.953 --     3 N    0.881
    77   1 H    0.995 --    16 C    0.947
    78   1 H    0.997 --    18 C    0.983
    79   1 H    0.998 --    18 C    0.981
    80   1 H    0.998 --    18 C    0.984
    81   1 H    0.998 --    19 C    0.985
    82   1 H    0.997 --    19 C    0.984
    83   1 H    0.998 --    19 C    0.980
    84   1 H    0.999 --    20 C    0.977
    85   1 H    0.997 --    20 C    0.980
    86   1 H    0.993 --    25 C    0.964
    87   1 H    0.952 --     5 N    0.868
    88   1 H    0.994 --    27 C    0.947
    89   1 H    0.997 --    29 C    0.982
    90   1 H    0.997 --    29 C    0.981
    91   1 H    0.998 --    29 C    0.984
    92   1 H    0.997 --    30 C    0.981
    93   1 H    0.998 --    30 C    0.979
    94   1 H    0.998 --    30 C    0.984
    95   1 H    0.995 --    31 C    0.954
    96   1 H    0.997 --    31 C    0.966
    97   1 H    0.996 --    32 C    0.970
    98   1 H    0.995 --    32 C    0.968
    99   1 H    0.996 --    35 C    0.963
   100   1 H    0.996 --    35 C    0.962
   101   1 H    0.997 --    36 C    0.977
   102   1 H    0.996 --    36 C    0.976
   103   1 H    0.996 --    39 C    0.963
   104   1 H    0.995 --    39 C    0.960
   105   1 H    0.996 --    40 C    0.977
   106   1 H    0.995 --    40 C    0.975
   107   1 H    0.998 --    20 C    0.982
   108   1 H    0.996 --    37 C    0.976
   109   1 H    0.995 --    37 C    0.975
   110   1 H    0.995 --    46 C    0.965
   111   1 H    0.993 --    47 C    0.958
   112   1 H    0.993 --    48 C    0.960
   113   1 H    0.995 --    41 C    0.976
   114   1 H    0.996 --    41 C    0.976
   115   1 H    0.996 --    51 C    0.964
   116   1 H    0.993 --    52 C    0.955
   117   1 H    0.993 --    53 C    0.959
   118   1 H    0.993 --    54 C    0.960
   119   1 H    0.993 --    56 C    0.960
   120  44 Ru   5.637 --   122 S    0.824   123 S    0.808   124 Cl   0.647
                             1 Ru   0.631   148 C    0.486   151 C    0.448
                           150 C    0.418   149 C    0.412   147 C    0.401
   121   6 C    3.813 --   185 C    2.274     1 Ru   1.213
   122  16 S    2.888 --   172 C    0.969   120 Ru   0.824     1 Ru   0.778
   123  16 S    2.915 --   176 C    0.969     1 Ru   0.840   120 Ru   0.808
   124  17 Cl   0.846 --   120 Ru   0.647
   125   6 C    3.978 --   129 C    1.224   126 C    1.176   130 C    1.007
                             1 Ru   0.379
   126   6 C    3.981 --   125 C    1.176   127 C    1.103   134 C    1.007
                             1 Ru   0.526
   127   6 C    3.979 --   128 C    1.354   126 C    1.103   138 C    1.020
                             1 Ru   0.329
   128   6 C    3.980 --   127 C    1.354   129 C    1.118   142 C    1.022
                             1 Ru   0.311
   129   6 C    3.980 --   125 C    1.224   128 C    1.118   146 C    1.015
                             1 Ru   0.452
   130   6 C    3.988 --   125 C    1.007   132 H    0.965   133 H    0.958
                           131 H    0.955
   131   1 H    0.993 --   130 C    0.955
   132   1 H    0.994 --   130 C    0.965
   133   1 H    0.994 --   130 C    0.958
   134   6 C    3.986 --   126 C    1.007   135 H    0.967   137 H    0.967
                           136 H    0.955
   135   1 H    0.992 --   134 C    0.967
   136   1 H    0.993 --   134 C    0.955
   137   1 H    0.993 --   134 C    0.967
   138   6 C    3.992 --   127 C    1.020   139 H    0.977   140 H    0.962
                           141 H    0.953
   139   1 H    0.995 --   138 C    0.977
   140   1 H    0.994 --   138 C    0.962
   141   1 H    0.994 --   138 C    0.953
   142   6 C    3.992 --   128 C    1.022   145 H    0.974   143 H    0.962
                           144 H    0.952
   143   1 H    0.996 --   142 C    0.962
   144   1 H    0.993 --   142 C    0.952
   145   1 H    0.995 --   142 C    0.974
   146   6 C    3.985 --   129 C    1.015   194 H    0.967   196 H    0.954
                           195 H    0.945
   147   6 C    3.981 --   151 C    1.217   148 C    1.188   152 C    1.020
                           120 Ru   0.401
   148   6 C    3.981 --   147 C    1.188   149 C    1.134   156 C    1.013
                           120 Ru   0.486
   149   6 C    3.980 --   150 C    1.250   148 C    1.134   160 C    1.021
                           120 Ru   0.412
   150   6 C    3.980 --   149 C    1.250   151 C    1.132   164 C    1.019
                           120 Ru   0.418
   151   6 C    3.976 --   147 C    1.217   150 C    1.132   168 C    1.014
                           120 Ru   0.448
   152   6 C    3.988 --   147 C    1.020   153 H    0.978   154 H    0.954
                           155 H    0.953
   153   1 H    0.995 --   152 C    0.978
   154   1 H    0.992 --   152 C    0.954
   155   1 H    0.993 --   152 C    0.953
   156   6 C    3.988 --   148 C    1.013   157 H    0.976   159 H    0.962
                           158 H    0.952
   157   1 H    0.995 --   156 C    0.976
   158   1 H    0.991 --   156 C    0.952
   159   1 H    0.993 --   156 C    0.962
   160   6 C    3.989 --   149 C    1.021   161 H    0.968   162 H    0.956
                           163 H    0.941
   161   1 H    0.995 --   160 C    0.968
   162   1 H    0.993 --   160 C    0.956
   163   1 H    0.994 --   160 C    0.941
   164   6 C    3.987 --   150 C    1.019   166 H    0.973   167 H    0.957
                           165 H    0.953
   165   1 H    0.992 --   164 C    0.953
   166   1 H    0.995 --   164 C    0.973
   167   1 H    0.993 --   164 C    0.957
   168   6 C    3.987 --   151 C    1.014   171 H    0.975   169 H    0.964
                           170 H    0.951
   169   1 H    0.993 --   168 C    0.964
   170   1 H    0.991 --   168 C    0.951
   171   1 H    0.994 --   168 C    0.975
   172   6 C    3.963 --   122 S    0.969   175 H    0.967   173 H    0.966
                           174 H    0.959
   173   1 H    0.991 --   172 C    0.966
   174   1 H    0.990 --   172 C    0.959
   175   1 H    0.992 --   172 C    0.967
   176   6 C    3.958 --   178 H    0.971   123 S    0.969   179 H    0.961
                           177 H    0.953
   177   1 H    0.988 --   176 C    0.953
   178   1 H    0.991 --   176 C    0.971
   179   1 H    0.989 --   176 C    0.961
   180  16 S    4.966 --   183 O    1.387   181 O    1.382   182 O    1.382
                           184 C    0.745
   181   8 O    1.763 --   180 S    1.382
   182   8 O    1.770 --   180 S    1.382
   183   8 O    1.771 --   180 S    1.387
   184   6 C    3.972 --   229 C    1.430   233 C    1.419   180 S    0.745
                           231 C    0.102
   185   6 C    3.974 --   121 C    2.274   186 C    1.461     1 Ru   0.106
   186   6 C    3.942 --   185 C    1.461   187 C    1.227   188 H    0.944
                             1 Ru   0.176
   187   6 C    3.985 --   190 C    1.311   189 C    1.228   186 C    1.227
   188   1 H    0.992 --   186 C    0.944
   189   6 C    3.897 --   193 C    1.369   187 C    1.228   200 O    1.117
   190   6 C    3.978 --   191 C    1.495   187 C    1.311   198 H    0.959
   191   6 C    3.988 --   190 C    1.495   192 C    1.386   211 H    0.965
   192   6 C    3.937 --   193 C    1.447   191 C    1.386   228 H    0.970
   193   6 C    3.984 --   192 C    1.447   189 C    1.369   197 H    0.963
   194   1 H    0.994 --   146 C    0.967
   195   1 H    0.993 --   146 C    0.945
   196   1 H    0.994 --   146 C    0.954
   197   1 H    0.997 --   193 C    0.963
   198   1 H    0.995 --   190 C    0.959
   199   1 H    0.990 --    23 C    0.945
   200   8 O    2.270 --   189 C    1.117   201 C    0.951
   201   6 C    3.931 --   215 C    1.014   203 H    0.954   200 O    0.951
                           202 H    0.950
   202   1 H    0.996 --   201 C    0.950
   203   1 H    0.996 --   201 C    0.954
   204   1 H    0.946 --     4 N    0.846
   205   7 N    3.904 --   208 O    1.434   210 O    1.431    55 C    0.989
   206   7 N    3.904 --   209 O    1.428   207 O    1.427    49 C    0.992
   207   8 O    1.901 --   206 N    1.427   209 O    0.334
   208   8 O    1.905 --   205 N    1.434   210 O    0.340
   209   8 O    1.904 --   206 N    1.428   207 O    0.334
   210   8 O    1.903 --   205 N    1.431   208 O    0.340
   211   1 H    0.996 --   191 C    0.965
   212   6 C    3.972 --    23 C    1.344   213 C    1.326     4 N    1.154
   213   6 C    3.982 --    22 C    1.451   212 C    1.326   214 H    0.949
   214   1 H    0.991 --   213 C    0.949
   215   6 C    3.977 --   217 C    1.879   201 C    1.014   216 H    0.962
   216   1 H    0.997 --   215 C    0.962
   217   6 C    3.988 --   215 C    1.879   222 C    1.029   218 C    1.023
   218   6 C    3.996 --   217 C    1.023   219 H    0.986   221 H    0.972
                           220 H    0.970
   219   1 H    0.997 --   218 C    0.986
   220   1 H    0.998 --   218 C    0.970
   221   1 H    0.998 --   218 C    0.972
   222   6 C    3.995 --   217 C    1.029   224 H    0.985   225 H    0.970
                           223 H    0.969
   223   1 H    0.997 --   222 C    0.969
   224   1 H    0.998 --   222 C    0.985
   225   1 H    0.997 --   222 C    0.970
   226   1 H    0.994 --    42 C    0.951
   227   1 H    0.994 --    38 C    0.951
   228   1 H    0.997 --   192 C    0.970
   229   6 C    3.990 --   230 C    1.437   184 C    1.430   234 H    0.965
                           232 C    0.109
   230   6 C    3.989 --   229 C    1.437   231 C    1.412   235 H    0.967
                           233 C    0.109
   231   6 C    3.988 --   230 C    1.412   232 C    1.402   238 C    1.030
                           184 C    0.102
   232   6 C    3.989 --   233 C    1.450   231 C    1.402   236 H    0.968
                           229 C    0.109
   233   6 C    3.990 --   232 C    1.450   184 C    1.419   237 H    0.967
                           230 C    0.109
   234   1 H    0.998 --   229 C    0.965
   235   1 H    0.996 --   230 C    0.967
   236   1 H    0.996 --   232 C    0.968
   237   1 H    0.998 --   233 C    0.967
   238   6 C    3.994 --   231 C    1.030   239 H    0.982   240 H    0.977
                           241 H    0.963
   239   1 H    0.997 --   238 C    0.982
   240   1 H    0.996 --   238 C    0.977
   241   1 H    0.996 --   238 C    0.963
 ---------------------------------------------------------------------------

Topologies differ in total number of bonds
Writing topology from bond orders to xtbtopo.mol

molecular dipole:
                 x           y           z       tot (Debye)
 q only:        0.818      -2.732       1.572
   full:        0.477      -3.559       2.819      11.604
molecular quadrupole (traceless):
                xx          xy          yy          xz          yz          zz
 q only:      177.918      39.305     -73.107      94.614     -87.370    -104.811
  q+dip:      154.493      58.345     -58.470     100.530     -87.871     -96.024
   full:      156.033      53.397     -57.883      97.277     -86.684     -98.150


           -------------------------------------------------
          | TOTAL ENERGY             -399.632783448382 Eh   |
          | GRADIENT NORM               0.000550029077 Eh/α |
          | HOMO-LUMO GAP               0.614971084607 eV   |
           -------------------------------------------------
           ------------------------------------------------- 
          |                  Meta Dynamics                  |
           ------------------------------------------------- 
 init_shake: metal bond            1         120 not constrained
 init_shake: metal bond            1         121 not constrained
 init_shake: metal bond            1         122 not constrained
 init_shake: metal bond            1         123 not constrained
 init_shake: metal bond            1         125 not constrained
 init_shake: metal bond            1         126 not constrained
 init_shake: metal bond            1         127 not constrained
 init_shake: metal bond            1         128 not constrained
 init_shake: metal bond            1         129 not constrained
 init_shake: metal bond          120         122 not constrained
 init_shake: metal bond          120         123 not constrained
 init_shake: metal bond          120         124 not constrained
 init_shake: metal bond          120         147 not constrained
 init_shake: metal bond          120         148 not constrained
 init_shake: metal bond          120         149 not constrained
 init_shake: metal bond          120         150 not constrained
 init_shake: metal bond          120         151 not constrained
 trajectories on xtb.trj or xtb.trj.<n>

 MD time /ps        :    1.00
 dt /fs             :    2.00
 SCC accuracy       :    1.00
 temperature /K     :  298.15
 max steps          :   500
 block length (av.) :  2500
 dumpstep(trj) /fs  :   20.00    10
 dumpstep(coords)/fs:  100.00    50
 H atoms mass (amu) :     4
 # deg. of freedom  :   482
 SHAKE on. # bonds  :         241  all: T
 Berendsen THERMOSTAT on
 RESTART
 --- metadynamics parameter ---
 kpush  :    0.001
 alpha  :    1.000
Note: The following floating-point exceptions are signalling: IEEE_UNDERFLOW_FLAG
normal termination of xtb
 update :      25
         time (ps)    <Epot>      Ekin   <T>   T     Etot
      0    0.00      0.00000   0.2275    0.    0.  -399.27178
  adding snapshot to metadynamics bias
est. speed in wall clock h for 100 ps : 25.56
  adding snapshot to metadynamics bias
  adding snapshot to metadynamics bias
    200    0.40   -397.45416   0.2074  256.  272.  -399.22737
  adding snapshot to metadynamics bias
  adding snapshot to metadynamics bias
  adding snapshot to metadynamics bias
  adding snapshot to metadynamics bias
    400    0.80   -398.43657   0.2117  262.  277.  -399.21055
  adding snapshot to metadynamics bias
  adding snapshot to metadynamics bias
 average properties 
 Epot               :  -398.63251541026528     
 Epot (accurate SCC):  -399.43154981630107     
 Ekin               :  0.20269696462535491     
 Etot               :  -398.42981844563991     
 T                  :   265.58796415953060     
 thermostating problem
 normal exit of md()

------------------------------------------------------------------------
 * finished run on 2026/09/29 at 11:29:55.892     
------------------------------------------------------------------------
 total:
 * wall-time:     0 d,  0 h, 17 min,  5.768 sec
 *  cpu-time:     0 d,  0 h, 41 min, 24.994 sec
 * ratio c/w:     2.423 speedup
 SCF:
 * wall-time:     0 d,  0 h,  0 min,  0.592 sec
 *  cpu-time:     0 d,  0 h,  0 min,  1.376 sec
 * ratio c/w:     2.325 speedup
 MD:
 * wall-time:     0 d,  0 h, 17 min,  5.138 sec
 *  cpu-time:     0 d,  0 h, 41 min, 23.549 sec
 * ratio c/w:     2.423 speedup

