241
 energy: -399.632783220826 gnorm: 0.000549612366 xtb: 6.7.1 (edcfbbe)
Ru           0.14646824664752        0.97580412373404       -1.51686526091487
N           -3.12121857724643       -1.16059864222309        3.19894609443068
N           -4.71296886931696       -2.22228395203661        2.01626921463738
N            1.44459383051746       -4.36643390503999       -0.57006156820825
N            2.62936836086633       -4.14731818397091        1.37922029406605
N           -7.67149335587657       -0.99923023513930        0.50210582577953
N            5.99098781928581       -2.95803181687514        1.49472184777729
C           -0.50269884143521        1.56433254075884        4.97875519744605
C           -0.13466939799136        0.24737451670369        4.72470723269599
C           -1.03827432789156       -0.63168977013456        4.15288412786100
C           -2.33563152880417       -0.22282380270230        3.82408917474824
C           -2.72091616085811        1.08836178263878        4.11284480692354
C           -1.80130337366525        1.95520511531175        4.68410334719555
C            1.24961630445507       -0.23322194347112        4.99132538416320
C           -4.41990598471003       -1.17079643397871        2.78534468216690
C           -6.02834333419633       -2.52547411954972        1.51627891840567
C           -6.04563141364822       -3.96972178807400        0.94330335793035
C           -7.41686333844322       -4.25729432329497        0.32530939688349
C           -5.80134869192979       -4.95011914710782        2.09519373948143
C           -4.96453829205333       -4.15885958608159       -0.12568227628388
C           -2.12903915720942       -4.80296376824577       -3.80468085307480
C           -0.66283620932634       -4.63281457720109       -3.52739710200865
C            2.03613419349596       -4.41890755990249       -2.96217420331816
C            1.58691767382318       -4.49530584344423       -4.27083810901748
C            0.24106373426894       -4.61565784720068       -4.58339370071875
C            2.65347272848317       -4.36792357205929        0.06096102202354
C            3.85632486937438       -4.02867783517259        2.14065637213342
C            3.57110391146100       -3.88472578939904        3.66353900826150
C            4.90044284281643       -3.78051562133472        4.41598653907960
C            2.82469315951483       -5.13995832366440        4.13050506519543
C            2.71662886526517       -2.63130241313813        3.89955049450956
C            2.46607065718172       -2.23442097182408        5.35588714240844
C            4.66461815615667       -2.82387932210824        1.62160801903583
C           -6.42567442173968       -1.48840841142617        0.45402771678647
C           -8.65666873775674       -1.14394576981736        1.56283824341941
C           -9.81498875286513       -0.24726460390841        1.12568084489016
C           -9.70739969713432       -0.26503435917161       -0.39529318942776
C           -8.18900950417081       -0.22456893177746       -0.61771880443094
C            6.78018350516041       -4.17807135434742        1.46048404601798
C            8.13186804432849       -3.72405022773377        0.91404878949307
C            8.24799192323508       -2.29942840451587        1.44410071667428
C            6.81429228379299       -1.76927394442892        1.29999142441250
C            2.60136989970013       -4.48495616653121       -5.37996630329099
C           -2.18775905435749        3.37150028167737        4.99767872828261
C           -7.69183003579989        1.19721948637717       -0.66852934864703
C           -7.71448054794693        1.86327543010199       -1.89366489942509
C           -7.26086425990601        1.87217118609853        0.46862327866283
C           -6.83684968100126        3.18368846302957        0.38355685103489
C           -6.83393341226129        3.82351205497328       -0.85130674551866
C            6.60567504990132       -1.08335804626240       -0.02572874351930
C            6.93945290272948        0.26627822455248       -0.12999568976959
C            6.11861536317741       -1.75528785726793       -1.14120348964279
C            6.72937211776299        0.95467579212394       -1.30392864366976
C            5.88348486976195       -1.07430584641086       -2.31870925629875
C            6.16125123364478        0.28723272038752       -2.38517891333514
C           -7.28405603618819        3.16757243036987       -1.99466183190942
O            2.24575878274247        0.43619378738341        4.84007593652693
O            1.23842347281912       -1.49873475595028        5.39229577582404
O           -5.64762049441164       -1.15529337195058       -0.43572323707820
O            4.11731620210522       -1.74358286775935        1.41653829299102
F            2.11706534453627       -3.97257809632534       -6.52344247976315
F            3.03413325706956       -5.72482429375729       -5.68605512011576
F            3.69709565471595       -3.77173733728935       -5.08248286771800
F           -2.00281101708279        3.67869784486850        6.29573823946961
F           -3.46560862987237        3.66318002624722        4.72328836674489
F           -1.44708318789024        4.26439757789368        4.30609463161981
F           -2.50950346195939       -6.09637338077224       -3.74862228587772
F           -2.91430530550912       -4.15117465160891       -2.93530964565646
F           -2.48741263658121       -4.37010325335171       -5.02574192809641
S            4.10380725635794       -4.70292977228211       -0.68924313891255
S           -5.58148929406431       -0.05713157146366        3.20036340053927
H            0.20515072124487        2.25587555845682        5.40684978714644
H           -0.73550305450009       -1.64611861178062        3.93617735323744
H           -3.72452638346209        1.41895343017980        3.89859723761186
H           -2.63460588068513       -2.04675703875769        3.00397426636986
H           -3.96587272073996       -2.88519891378162        1.83456470565656
H           -6.73440609037665       -2.46578501890233        2.35207451618029
H           -7.43698369428174       -5.27389274648646       -0.05921902976719
H           -8.20450136259543       -4.16353587142780        1.06838327641814
H           -7.61978742355754       -3.57880626977429       -0.49920981112067
H           -6.57023182993668       -4.85059734345187        2.85835216237623
H           -5.81663646037050       -5.96980756735884        1.71856953738814
H           -4.83137584044849       -4.77598509580216        2.55516659401056
H           -3.96724947170459       -4.21137487305272        0.30674079926244
H           -4.98155400757628       -3.34411658821381       -0.84441639486825
H           -0.09137495912357       -4.68285822670479       -5.60664695473884
H            1.73700332472080       -3.96211203852690        1.84035338868113
H            4.44038922847240       -4.94258083494719        1.98440867225328
H            4.71416490056691       -3.71009672129897        5.48365681189345
H            5.50657975937640       -4.66477126202214        4.23773469530894
H            5.45443215985801       -2.89834364234449        4.10719214196604
H            2.78233860668807       -5.17233328741602        5.21538139584130
H            1.80582359503860       -5.14801187774216        3.75265836715650
H            3.33288356561489       -6.03726486810583        3.78539480077636
H            1.72957287942347       -2.80204542022017        3.46888202995730
H            3.15995974781935       -1.77899055324355        3.38314091976546
H            3.27223014442163       -1.61718228917105        5.76211994265112
H            2.28588991396754       -3.09885195066164        5.99373298628287
H           -8.98778356422227       -2.18296109704335        1.63621940883251
H           -8.23198012635670       -0.83172129717460        2.52021230510290
H           -9.67359690445175        0.76635192295299        1.49839011183516
H          -10.77181897237047       -0.62003308519618        1.48234799205460
H            6.89360582751651       -4.58832514865821        2.46762581301668
H            6.30571458761194       -4.91937289163504        0.81465691816081
H            8.11449466010745       -3.71779797122502       -0.17499628420151
H            8.94305327453410       -4.36517055768369        1.24937614925628
H           -5.13400074520754       -5.08942988731642       -0.66134131649167
H          -10.21088833592678        0.57556386866499       -0.86603012941980
H          -10.11328363002550       -1.19423956918968       -0.79441914606144
H           -8.06230073334274        1.34409823422618       -2.77352833428165
H           -7.22571200235473        1.36601729790250        1.42072959141661
H           -6.49912977629961        3.71826157641192        1.25775081894745
H            8.53546855876697       -2.30871820130616        2.49512563186249
H            8.95908457901899       -1.69593618490429        0.88567608291005
H            7.34237921462421        0.78079136942265        0.72854844815281
H            5.88173031709497       -2.80582465954481       -1.08203739875426
H            6.96168481085885        2.00379185952592       -1.39860661652609
H            5.48299288798930       -1.57899957467461       -3.18444838228696
H           -7.28479188081075        3.69156682383524       -2.93788168243382
Ru          -1.61237324353461        3.11089728783617       -1.23313622375589
C            1.72073027932249        2.05130851669589       -1.45172422407117
S           -0.63100065509365        1.90839684441892        0.52424621145255
S           -0.75474445297618        2.26508153082367       -3.26813027990417
Cl           0.18043578911057        4.75506071716412       -1.11427043221410
C            1.36113225882549       -0.91351184603606       -1.57632220243138
C            0.59763527893779       -0.74798789278726       -2.77985819244641
C           -0.81000128421036       -0.89523820498786       -2.44050601395650
C           -0.90740495834315       -1.02203416431325       -1.04917594141047
C            0.43629238724693       -0.99324075638767       -0.49687938616261
C            2.84489936221050       -1.07970264367923       -1.53253003653548
H            3.10083049911745       -2.06497759509154       -1.92176698527585
H            3.23737899053774       -0.99580989918048       -0.52214651271034
H            3.33044349236631       -0.33476059958825       -2.15836578706329
C            1.14673520144795       -0.78676672401681       -4.17204967804557
H            0.50128626361982       -0.24169882713733       -4.85786988085658
H            1.20698549090995       -1.82200914039095       -4.50973653924398
H            2.14754021491542       -0.35942322510814       -4.21123693777677
C           -1.87700030431449       -1.06160685055845       -3.47050103800598
H           -2.84216020649556       -1.24737055110371       -3.00853909859779
H           -1.62409935562293       -1.90730992638824       -4.10976202730729
H           -1.94410262776736       -0.18011109930305       -4.10895691171601
C           -2.09733584539889       -1.38424250767791       -0.22597239183158
H           -2.13597964759980       -0.78264952823885        0.68031895489432
H           -2.00124156492492       -2.42960419587788        0.07646200384182
H           -3.03135117937861       -1.26471284219526       -0.76788484670753
C            0.75593398732052       -1.24957770755528        0.93909654052441
C           -3.17703650398155        4.75623502749623       -1.19288186630184
C           -3.21889175501394        3.97593897951327        0.00765256455757
C           -3.61697658679588        2.63090354176305       -0.34519510513270
C           -3.73260851663454        2.56698192888123       -1.75915311180309
C           -3.44117565838108        3.88355400548030       -2.28857639505889
C           -3.01674639144237        6.23831029848688       -1.23914240504929
H           -3.11021700640747        6.60988038815778       -2.25518005439455
H           -3.78773172502193        6.69540512373040       -0.61747221404160
H           -2.04721722504128        6.53801103809384       -0.84163295722654
C           -3.18773263516463        4.55347180073960        1.38463416761164
H           -3.16425567741245        3.76847921536134        2.13466300976343
H           -4.08142791471991        5.16309053334609        1.53343325499531
H           -2.32060892021848        5.19972916036209        1.51803964892952
C           -3.96348171787033        1.57752404070599        0.64899575524069
H           -4.43151874007171        0.71978596452684        0.17310629776539
H           -4.64909450091256        1.98140568036924        1.39106060110116
H           -3.07351560055203        1.23831135734242        1.18205219366029
C           -4.28544308756345        1.45019898908583       -2.57965140818229
H           -3.59046004323511        1.17253122636025       -3.36931103001063
H           -4.49862371950731        0.57828744126210       -1.96680220471888
H           -5.21257913857676        1.77846014769527       -3.04810320422198
C           -3.66450942997330        4.31929817424319       -3.70139094325143
H           -2.89235334154453        5.01784361289856       -4.01894542300002
H           -4.62765856721773        4.83135801738079       -3.75813172142423
H           -3.66948082989338        3.46747688135631       -4.37528785173086
C            0.55887622556164        2.83421146277542        1.52799118564804
H           -0.01399837234164        3.50751319262169        2.16057261127774
H            1.23506051946588        3.39400649119119        0.88939524753454
H            1.10170739437464        2.11905399777958        2.14002968165174
C            0.48307154058424        3.29941998922210       -4.09764378202160
H            0.86842957939078        4.03834113204667       -3.40052294165615
H           -0.01434048205194        3.77913861097180       -4.93536624174369
H            1.28037944628549        2.64967073176407       -4.44585749942959
S           -1.12077583293276       -4.42488158550611        2.11348791084576
O            0.08351516544545       -3.80263139751606        2.67401504604258
O           -1.01625400264292       -4.52295881997058        0.65356979068502
O           -2.34459996711114       -3.72418695817270        2.51888294729570
C           -1.17391924905009       -6.05567616259920        2.76172399051852
C            2.84392227039430        2.50855851841509       -1.20205585915194
C            4.04145329221782        3.01878154375982       -0.83770021980003
C            4.62709343635797        2.73185280770679        0.42665635432923
H            4.56841995521851        3.68594660040744       -1.50768330253665
C            5.81750124556908        3.39780358844413        0.83175964969921
C            4.03226625911019        1.81171675843116        1.30738938055555
C            4.55892145212872        1.57347119347333        2.55318400295521
C            5.70859851252235        2.24908993396604        2.94791889684798
C            6.33552777078127        3.14388849371767        2.09894211134286
H            1.83090097094126       -1.29307677244990        1.10190887467347
H            0.30781433433985       -2.19402930663693        1.24901518741981
H            0.33758346390363       -0.47734271719655        1.58635919276486
H            7.22764655517919        3.64734892653922        2.43479952351278
H            3.14932876060280        1.28977873404252        0.97232591120112
H            3.09459970665861       -4.34908598305958       -2.77181782173695
O            6.36641374779273        4.23674742051085       -0.06364517536770
C            7.53656382191049        4.96177372600001        0.27504339509255
H            8.34590814492956        4.26375902940474        0.53985298542617
H            7.34014201920932        5.60575406841277        1.14366336144385
H            0.60434024793933       -4.34229310951046        0.03181784947885
N            5.80457489424331        1.02861297576200       -3.54974987286115
N           -6.34955498664961        5.15889814111305       -0.95865770466074
O           -6.27333630149508        5.65586023802990       -2.06926902621031
O            6.28136422032102        2.13950886860523       -3.69803862998458
O           -6.02698765222188        5.74411916565586        0.06064817089298
O            5.01213739888091        0.52464172031093       -4.32685298338333
H            4.07364585792318        0.88435640030844        3.22557804378109
C            1.12248742372261       -4.44716996682323       -1.90511714808006
C           -0.24113159989434       -4.54753255476116       -2.21568997824408
H           -0.95955982862541       -4.56488112691191       -1.41096967696501
C            7.93055966787757        5.78179667488846       -0.91612749122091
H            7.41965358285538        5.51905332188882       -1.82996147626749
C            8.83776561161687        6.75036914437855       -0.88788252053119
C            9.56614732298659        7.12147925982117        0.37229344421919
H           10.24131069695273        7.95333996675478        0.19641202863026
H            8.86145559692716        7.40600524139835        1.15278539535357
H           10.14454595570178        6.27635243044991        0.74297409828619
C            9.20090389427657        7.52903308251796       -2.11291851538171
H           10.26000615091418        7.40305835630948       -2.33479745896337
H            8.62107547081137        7.20400074935236       -2.97180827549440
H            9.02081201540508        8.59037748642364       -1.94676143947471
H            6.56363377396555       -1.04342327393405        2.08290102437582
H           -7.89284651851428       -0.72106170824609       -1.54837410770559
H            6.12292410639696        2.07513505896150        3.92928290304400
C           -2.12456423829546       -6.41443967661761        3.68710249705523
C           -2.10129935332525       -7.69609673439487        4.21207310363952
C           -1.12492255904297       -8.60441843342271        3.81575486112726
C           -0.16955401868831       -8.20868159481766        2.88207542716030
C           -0.19241964959643       -6.93059574220113        2.35362191967317
H           -2.86738839320108       -5.68985439821387        3.98071389996585
H           -2.84530344196122       -7.99301362401538        4.93579845977385
H            0.59239824714408       -8.90715644663219        2.57091201364381
H            0.53215566593966       -6.60206533664432        1.62509006303485
C           -1.08209546298658       -9.98289803416327        4.39813630054905
H           -2.04922060503407      -10.26281991295219        4.80595140490785
H           -0.78771175273187      -10.70959882730656        3.64527394358805
H           -0.34911319046674      -10.01958327310094        5.20363660511559
