      -----------------------------------------------------------      
     |                   =====================                   |     
     |                           x T B                           |     
     |                   =====================                   |     
     |                         S. Grimme                         |     
     |          Mulliken Center for Theoretical Chemistry        |     
     |                    University of Bonn                     |     
      -----------------------------------------------------------      

   * xtb version 6.7.1 (edcfbbe) compiled by 'runner@sat12-gn217-0cbadaec-b866-44ae-a866-732403219ae3-6E01A8DFFD18.local' on 2026-06-10

   xtb is free software: you can redistribute it and/or modify it under
   the terms of the GNU Lesser General Public License as published by
   the Free Software Foundation, either version 3 of the License, or
   (at your option) any later version.
   
   xtb is distributed in the hope that it will be useful,
   but WITHOUT ANY WARRANTY; without even the implied warranty of
   MERCHANTABILITY or FITNESS FOR A PARTICULAR PURPOSE.  See the
   GNU Lesser General Public License for more details.
   
   Cite this work as:
   * C. Bannwarth, E. Caldeweyher, S. Ehlert, A. Hansen, P. Pracht,
     J. Seibert, S. Spicher, S. Grimme, WIREs Comput. Mol. Sci., 2020, 11,
     e01493. DOI: 10.1002/wcms.1493
   
   for GFN2-xTB:
   * C. Bannwarth, S. Ehlert and S. Grimme., J. Chem. Theory Comput., 2019,
     15, 1652-1671. DOI: 10.1021/acs.jctc.8b01176
   for GFN1-xTB:
   * S. Grimme, C. Bannwarth, P. Shushkov, J. Chem. Theory Comput., 2017,
     13, 1989-2009. DOI: 10.1021/acs.jctc.7b00118
   for GFN0-xTB:
   * P. Pracht, E. Caldeweyher, S. Ehlert, S. Grimme, ChemRxiv, 2019, preprint.
     DOI: 10.26434/chemrxiv.8326202.v1
   for GFN-FF:
   * S. Spicher and S. Grimme, Angew. Chem. Int. Ed., 2020, 59, 15665-15673.
     DOI: 10.1002/anie.202004239
   
   for ALPB and GBSA implicit solvation:
   * S. Ehlert, M. Stahn, S. Spicher, S. Grimme, J. Chem. Theory Comput.,
     2021, 17, 4250-4261. DOI: 10.1021/acs.jctc.1c00471
   
   for ddCOSMO and CPCM-X implicit solvation:
   * M. Stahn, S. Ehlert, S. Grimme, J. Phys. Chem. A,
     2023, XX, XXXX-XXXX. DOI: 10.1021/acs.jpca.3c04382
   
   for DFT-D4:
   * E. Caldeweyher, C. Bannwarth and S. Grimme, J. Chem. Phys., 2017,
     147, 034112. DOI: 10.1063/1.4993215
   * E. Caldeweyher, S. Ehlert, A. Hansen, H. Neugebauer, S. Spicher,
     C. Bannwarth and S. Grimme, J. Chem. Phys., 2019, 150, 154122.
     DOI: 10.1063/1.5090222
   * E. Caldeweyher, J.-M. Mewes, S. Ehlert and S. Grimme, Phys. Chem. Chem. Phys.
     2020, 22, 8499-8512. DOI: 10.1039/D0CP00502A
   
   for sTDA-xTB:
   * S. Grimme and C. Bannwarth, J. Chem. Phys., 2016, 145, 054103.
     DOI: 10.1063/1.4959605
   
   in the mass-spec context:
   * V. Asgeirsson, C. Bauer and S. Grimme, Chem. Sci., 2017, 8, 4879.
     DOI: 10.1039/c7sc00601b
   * J. Koopman and S. Grimme, ACS Omega 2019, 4, 12, 15120-15133.
     DOI: 10.1021/acsomega.9b02011
   
   for metadynamics refer to:
   * S. Grimme, J. Chem. Theory Comput., 2019, 155, 2847-2862
     DOI: 10.1021/acs.jctc.9b00143
   
   for SPH calculations refer to:
   * S. Spicher and S. Grimme, J. Chem. Theory Comput., 2021, 17, 1701-1714
     DOI: 10.1021/acs.jctc.0c01306
   
   for ONIOM refer to:
   * C. Plett, A. Katbashev, S. Ehlert, S. Grimme, M. Bursch,
     Phys. Chem. Chem. Phys., 2023, 25, 17860-17868. DOI: 10.1039/D3CP02178E
   
   for DIPRO refer to:
   * J. Kohn, N. Gildemeister, S. Grimme, D. Fazzi, A. Hansen,
     J. Chem. Phys., 2023, just accepted.
   
   for PTB refer to:
   * S. Grimme, M. Mueller, A. Hansen, J. Chem. Phys., 2023, 158, 124111.
     DOI: 10.1063/5.0137838
   
   with help from (in alphabetical order)
   P. Atkinson, C. Bannwarth, F. Bohle, G. Brandenburg, E. Caldeweyher
   M. Checinski, S. Dohm, S. Ehlert, S. Ehrlich, I. Gerasimov, C. Hölzer
   A. Katbashev, J. Kohn, J. Koopman, C. Lavigne, S. Lehtola, F. März, M. Müller,
   F. Musil, H. Neugebauer, J. Pisarek, C. Plett, P. Pracht, F. Pultar,
   J. Seibert, P. Shushkov, S. Spicher, M. Stahn, M. Steiner, T. Strunk,
   J. Stückrath, T. Rose, and J. Unsleber
   
 * started run on 2026/09/29 at 11:10:40.223     
   ID    Z sym.   atoms
    1   44 Ru     1, 120
    2    7 N      2-7, 205, 206
    3    6 C      8-56, 121, 125-130, 134, 138, 142, 146-152, 156, 160, 164,
                  168, 172, 176, 184-187, 189-193, 201, 212, 213, 215, 217,
                  218, 222, 229-233, 238
    4    8 O      57-60, 181-183, 200, 207-210
    5    9 F      61-69
    6   16 S      70, 71, 122, 123, 180
    7    1 H      72-119, 131-133, 135-137, 139-141, 143-145, 153-155,
                  157-159, 161-163, 165-167, 169-171, 173-175, 177-179, 188,
                  194-199, 202-204, 211, 214, 216, 219-221, 223-228, 234-237,
                  239-241
    8   17 Cl     124
constraining bond 1 120 to    2.7856040 Å, actual value:    2.7856043 Å
constraining bond 1 122 to    2.3679472 Å, actual value:    2.3679474 Å
constraining bond 1 123 to    2.3486910 Å, actual value:    2.3486912 Å
constraining bond 120 122 to    2.3406651 Å, actual value:    2.3406653 Å
constraining bond 120 123 to    2.3608950 Å, actual value:    2.3608952 Å
constraining bond 120 124 to    2.4419555 Å, actual value:    2.4419557 Å
constraining bond 1 121 to    1.9039122 Å, actual value:    1.9039124 Å

           -------------------------------------------------
          |                Calculation Setup                |
           -------------------------------------------------

          program call               : SOURCE_WORKSPACE/.micromamba/part3c/bin/xtb input.xyz --gfn 2 --chrg 0 --uhf 0 --cosmo 2.24 --parallel 4 --opt normal --input preopt.inp
          coordinate file            : input.xyz
          omp threads                :                     4


molecular fragmentation (1/2 indicates fragments):
122222222222222222222222222222222222222222222222222222222222222222222222
222222222222222222222222222222222222222222222221111111111111111111111111
111111111111111111111111111111111112222211111111111111211112222222122211
1111111112212222222222222
# atoms in fragment 1/2:    92   149
 fragment masses (1/2) :      800.50     1312.33
CMA distance (Bohr)    :   9.058
constraining FC (au)   :  0.2500

           -------------------------------------------------
          |                 G F N 2 - x T B                 |
           -------------------------------------------------

        Reference                      10.1021/acs.jctc.8b01176
      * Hamiltonian:
        H0-scaling (s, p, d)           1.850000    2.230000    2.230000
        zeta-weighting                 0.500000
      * Dispersion:
        s8                             2.700000
        a1                             0.520000
        a2                             5.000000
        s9                             5.000000
      * Repulsion:
        kExp                           1.500000    1.000000
        rExp                           1.000000
      * Coulomb:
        alpha                          2.000000
        third order                    shell-resolved
        anisotropic                    true
        a3                             3.000000
        a5                             4.000000
        cn-shift                       1.200000
        cn-exp                         4.000000
        max-rad                        5.000000

      * Solvation model:               COSMO
        Solvent                        2.24
        Parameter file                 internal GFN-xTB/COSMO
        Dielectric constant                2.2400E+00
        Reference state                gsolv [1 M gas/solution]
        Free energy shift                  0.0000E+00 Eh       0.0000E+00 kcal/mol
        Temperature                        2.9815E+02 K
        Density                            1.0000E+00 kg/L
        Solvent mass                       1.8000E+01 g/mol
        vdW Radii scaling                  1.0000E+00
        Surface tension                    1.0000E-05 Eh       1.5569E+01 dyn/cm
        Grid points                               230 per atom
q/qsh data taken from xtbrestart
CAMM data taken from xtbrestart

          ...................................................
          :                      SETUP                      :
          :.................................................:
          :  # basis functions                 682          :
          :  # atomic orbitals                 674          :
          :  # shells                          380          :
          :  # electrons                       714          :
          :  max. iterations                   250          :
          :  Hamiltonian                  GFN2-xTB          :
          :  restarted?                       true          :
          :  GBSA solvation                   true          :
          :  PC potential                    false          :
          :  electronic temp.          300.0000000     K    :
          :  accuracy                    1.0000000          :
          :  -> integral cutoff          0.2500000E+02      :
          :  -> integral neglect         0.1000000E-07      :
          :  -> SCF convergence          0.1000000E-05 Eh   :
          :  -> wf. convergence          0.1000000E-03 e    :
          :  Broyden damping             0.4000000          :
          :  net charge                          0          :
          :  unpaired electrons                  0          :
          ...................................................

 iter      E             dE          RMSdq      gap      omega  full diag
   1   -404.2595084 -0.404260E+03  0.967E-05    0.48       0.0  T
   2   -404.2595097 -0.135150E-05  0.321E-04    0.48      20.1  T
   3   -404.2595083  0.144205E-05  0.734E-05    0.48      87.7  T
   4   -404.2595082  0.321072E-07  0.593E-05    0.48     108.6  T
   5   -404.2595089 -0.614730E-06  0.739E-05    0.48      87.2  T

   *** convergence criteria satisfied after 5 iterations ***

         #    Occupation            Energy/Eh            Energy/eV
      -------------------------------------------------------------
         1        2.0000           -1.0299208             -28.0256
       ...           ...                  ...                  ...
       351        2.0000           -0.3695475             -10.0559
       352        2.0000           -0.3676077             -10.0031
       353        2.0000           -0.3590083              -9.7691
       354        2.0000           -0.3560579              -9.6888
       355        2.0000           -0.3534560              -9.6180
       356        2.0000           -0.3528011              -9.6002
       357        1.9998           -0.3494876              -9.5100 (HOMO)
       358        0.0002           -0.3317112              -9.0263 (LUMO)
       359        0.0000           -0.3271651              -8.9026
       360        0.0000           -0.3253210              -8.8524
       361                         -0.3190228              -8.6811
       362                         -0.3002942              -8.1714
       ...                                ...                  ...
       674                         11.4793257             312.3684
      -------------------------------------------------------------
                  HL-Gap            0.0177764 Eh            0.4837 eV
             Fermi-level           -0.3405821 Eh           -9.2677 eV

 SCC (total)                   0 d,  0 h,  0 min,  0.721 sec
 SCC setup                      ...        0 min,  0.006 sec (  0.845%)
 Dispersion                     ...        0 min,  0.003 sec (  0.482%)
 classical contributions        ...        0 min,  0.001 sec (  0.082%)
 integral evaluation            ...        0 min,  0.020 sec (  2.808%)
 iterations                     ...        0 min,  0.407 sec ( 56.537%)
 molecular gradient             ...        0 min,  0.264 sec ( 36.586%)
 printout                       ...        0 min,  0.019 sec (  2.657%)

         :::::::::::::::::::::::::::::::::::::::::::::::::::::
         ::                     SUMMARY                     ::
         :::::::::::::::::::::::::::::::::::::::::::::::::::::
         :: total energy            -399.581495992625 Eh    ::
         :: total w/o Gsasa/hb      -399.572775494534 Eh    ::
         :: gradient norm              0.138438446122 Eh/a0 ::
         :: HOMO-LUMO gap              0.483720452758 eV    ::
         ::.................................................::
         :: SCC energy              -404.219879898127 Eh    ::
         :: -> isotropic ES            0.593481312630 Eh    ::
         :: -> anisotropic ES         -0.045215397767 Eh    ::
         :: -> anisotropic XC          0.085650618119 Eh    ::
         :: -> dispersion             -0.409087989862 Eh    ::
         :: -> Gsolv                  -0.057731456222 Eh    ::
         ::    -> Gelec               -0.049010958132 Eh    ::
         ::    -> Gsasa               -0.008720498091 Eh    ::
         ::    -> Ghb                  0.000000000000 Eh    ::
         ::    -> Gshift               0.000000000000 Eh    ::
         :: repulsion energy           4.638383905502 Eh    ::
         :: add. restraining           0.000000000000 Eh    ::
         :: total charge               0.000000000710 e     ::
         :::::::::::::::::::::::::::::::::::::::::::::::::::::

      ----------------------------------------------------------- 
     |                   =====================                   |
     |                        A N C O P T                        |
     |                   =====================                   |
     |               Approximate Normal Coordinate               |
     |                Rational Function Optimizer                |
      ----------------------------------------------------------- 
      ----------------------------------------------------------- 
     |                   =====================                   |
     |                        A N C O P T                        |
     |                   =====================                   |
     |               Approximate Normal Coordinate               |
     |                Rational Function Optimizer                |
      ----------------------------------------------------------- 

          ...................................................
          :                      SETUP                      :
          :.................................................:
          :   optimization level            normal          :
          :   max. optcycles                   723          :
          :   ANC micro-cycles                  20          :
          :   degrees of freedom               717          :
          :.................................................:
          :   RF solver                   davidson          :
          :   write xtbopt.log                true          :
          :   linear?                        false          :
          :   energy convergence         0.5000000E-05 Eh   :
          :   grad. convergence          0.1000000E-02 Eh/α :
          :   maxmium RF displ.          1.0000000          :
          :   Hlow (freq-cutoff)         0.1000000E-01      :
          :   Hmax (freq-cutoff)         5.0000000          :
          :   S6 in model hess.         20.0000000          :
          ...................................................

generating ANC from exact Hessian ...
Using Lindh-Hessian (1995)
 Shifting diagonal of input Hessian by    1.2415171140105177E-002
 Lowest  eigenvalues of input Hessian
    0.010000    0.012268    0.012337    0.012365    0.000000    0.000000
    0.000000    0.000000    0.000000    0.000000    0.012441    0.012462
    0.012484    0.012506    0.012543    0.012552    0.012569    0.012607
 Highest eigenvalues
    2.329971    2.495698    2.496846    2.685210    2.974010    3.010470


........................................................................
.............................. CYCLE    1 ..............................
........................................................................

 iter      E             dE          RMSdq      gap      omega  full diag
   1   -404.2595079 -0.404260E+03  0.434E-05    0.48       0.0  T
   2   -404.2595099 -0.203375E-05  0.181E-04    0.48      35.7  T
   3   -404.2595084  0.154529E-05  0.328E-05    0.48     196.4  T
   4   -404.2595082  0.188130E-06  0.271E-05    0.48     237.8  T
   5   -404.2595082 -0.716152E-07  0.164E-05    0.48     392.7  T
     SCC iter.                  ...        0 min,  0.395 sec
     gradient                   ...        0 min,  0.266 sec
 * total energy  :  -399.5814954 Eh     change        0.6088248E-06 Eh
   gradient norm :     0.1384393 Eh/α   predicted     0.0000000E+00 (-100.00%)
   displ. norm   :     0.4162973 α      lambda       -0.3510225E-01
   maximum displ.:     0.0668872 α      in ANC's #274, #468, #391, ...

........................................................................
.............................. CYCLE    2 ..............................
........................................................................

 iter      E             dE          RMSdq      gap      omega  full diag
   1   -404.4316154 -0.404432E+03  0.154E-01    0.60       0.0  T
   2   -404.4309760  0.639345E-03  0.124E-01    0.58       1.0  T
   3   -404.4207485  0.102276E-01  0.212E-01    0.58       1.0  T
   4   -404.4307559 -0.100074E-01  0.922E-02    0.58       1.0  T
   5   -404.4305751  0.180802E-03  0.951E-02    0.57       1.0  T
   6   -404.4320004 -0.142527E-02  0.274E-02    0.57       1.0  T
   7   -404.4322766 -0.276252E-03  0.141E-02    0.57       1.0  T
   8   -404.4323928 -0.116160E-03  0.422E-03    0.57       1.5  T
   9   -404.4323694  0.233991E-04  0.238E-03    0.57       2.7  T
  10   -404.4323832 -0.138426E-04  0.132E-03    0.58       4.9  T
  11   -404.4323894 -0.614611E-05  0.887E-04    0.58       7.3  T
  12   -404.4323858  0.357901E-05  0.507E-04    0.58      12.7  T
  13   -404.4323837  0.205521E-05  0.366E-04    0.58      17.6  T
  14   -404.4323853 -0.159957E-05  0.216E-04    0.58      29.8  T
  15   -404.4323848  0.517245E-06  0.144E-04    0.58      44.7  T
  16   -404.4323857 -0.895576E-06  0.825E-05    0.58      78.0  T
     SCC iter.                  ...        0 min,  1.507 sec
     gradient                   ...        0 min,  0.265 sec
 * total energy  :  -399.6061682 Eh     change       -0.2467281E-01 Eh
   gradient norm :     0.0560926 Eh/α   predicted    -0.2060529E-01 ( -16.49%)
   displ. norm   :     0.4538599 α      lambda       -0.1300166E-01
   maximum displ.:     0.0896117 α      in ANC's #144, #135, #142, ...

........................................................................
.............................. CYCLE    3 ..............................
........................................................................

 iter      E             dE          RMSdq      gap      omega  full diag
   1   -404.5245229 -0.404525E+03  0.132E-01    0.62       0.0  T
   2   -404.5249000 -0.377099E-03  0.112E-01    0.63       1.0  T
   3   -404.5202323  0.466770E-02  0.139E-01    0.63       1.0  T
   4   -404.5242503 -0.401806E-02  0.788E-02    0.63       1.0  T
   5   -404.5251037 -0.853353E-03  0.507E-02    0.63       1.0  T
   6   -404.5248869  0.216806E-03  0.274E-02    0.63       1.0  T
   7   -404.5253820 -0.495128E-03  0.949E-03    0.63       1.0  T
   8   -404.5253954 -0.133854E-04  0.328E-03    0.63       2.0  T
   9   -404.5253799  0.155472E-04  0.200E-03    0.63       3.2  T
  10   -404.5253922 -0.123009E-04  0.121E-03    0.63       5.3  T
  11   -404.5253911  0.108819E-05  0.885E-04    0.63       7.3  T
  12   -404.5253917 -0.660673E-06  0.477E-04    0.63      13.5  T
  13   -404.5253935 -0.176894E-05  0.310E-04    0.63      20.8  T
  14   -404.5253912  0.234117E-05  0.176E-04    0.63      36.6  T
  15   -404.5253926 -0.146647E-05  0.131E-04    0.63      49.1  T
  16   -404.5253922  0.441334E-06  0.706E-05    0.63      91.2  T
     SCC iter.                  ...        0 min,  1.490 sec
     gradient                   ...        0 min,  0.268 sec
 * total energy  :  -399.6144266 Eh     change       -0.8258388E-02 Eh
   gradient norm :     0.0220526 Eh/α   predicted    -0.7839929E-02 (  -5.07%)
   displ. norm   :     0.4518620 α      lambda       -0.4726391E-02
   maximum displ.:     0.0875423 α      in ANC's #75, #14, #47, ...

........................................................................
.............................. CYCLE    4 ..............................
........................................................................

 iter      E             dE          RMSdq      gap      omega  full diag
   1   -404.5450786 -0.404545E+03  0.769E-02    0.62       0.0  T
   2   -404.5450651  0.135469E-04  0.735E-02    0.63       1.0  T
   3   -404.5421095  0.295558E-02  0.110E-01    0.63       1.0  T
   4   -404.5451928 -0.308334E-02  0.415E-02    0.63       1.0  T
   5   -404.5453384 -0.145627E-03  0.374E-02    0.64       1.0  T
   6   -404.5452443  0.941458E-04  0.132E-02    0.64       1.0  T
   7   -404.5454889 -0.244638E-03  0.516E-03    0.64       1.2  T
   8   -404.5454517  0.371988E-04  0.202E-03    0.64       3.2  T
   9   -404.5454577 -0.599813E-05  0.163E-03    0.64       4.0  T
  10   -404.5454588 -0.103237E-05  0.763E-04    0.64       8.4  T
  11   -404.5454608 -0.203564E-05  0.638E-04    0.64      10.1  T
  12   -404.5454616 -0.785618E-06  0.358E-04    0.64      18.0  T
  13   -404.5454608  0.734671E-06  0.169E-04    0.64      38.2  T
     SCC iter.                  ...        0 min,  1.239 sec
     gradient                   ...        0 min,  0.271 sec
 * total energy  :  -399.6173235 Eh     change       -0.2896874E-02 Eh
   gradient norm :     0.0219153 Eh/α   predicted    -0.2845859E-02 (  -1.76%)
   displ. norm   :     0.5343896 α      lambda       -0.4171891E-02
   maximum displ.:     0.1144494 α      in ANC's #14, #75, #47, ...

........................................................................
.............................. CYCLE    5 ..............................
........................................................................

 iter      E             dE          RMSdq      gap      omega  full diag
   1   -404.5455375 -0.404546E+03  0.729E-02    0.61       0.0  T
   2   -404.5453528  0.184705E-03  0.671E-02    0.62       1.0  T
   3   -404.5426686  0.268415E-02  0.110E-01    0.62       1.0  T
   4   -404.5455753 -0.290667E-02  0.410E-02    0.62       1.0  T
   5   -404.5455818 -0.652906E-05  0.136E-02    0.63       1.0  T
   6   -404.5458508 -0.268953E-03  0.156E-02    0.63       1.0  T
   7   -404.5457709  0.798284E-04  0.432E-03    0.63       1.5  T
   8   -404.5457888 -0.178654E-04  0.206E-03    0.63       3.1  T
   9   -404.5457845  0.433371E-05  0.147E-03    0.63       4.4  T
  10   -404.5457885 -0.397500E-05  0.719E-04    0.63       9.0  T
  11   -404.5457888 -0.343484E-06  0.541E-04    0.63      11.9  T
  12   -404.5457907 -0.187492E-05  0.353E-04    0.63      18.2  T
  13   -404.5457902  0.432965E-06  0.177E-04    0.63      36.5  T
     SCC iter.                  ...        0 min,  1.245 sec
     gradient                   ...        0 min,  0.266 sec
 * total energy  :  -399.6198268 Eh     change       -0.2503386E-02 Eh
   gradient norm :     0.0177475 Eh/α   predicted    -0.2681639E-02 (   7.12%)
   displ. norm   :     0.4337144 α      lambda       -0.2038004E-02
   maximum displ.:     0.1169161 α      in ANC's #14, #28, #37, ...

........................................................................
.............................. CYCLE    6 ..............................
........................................................................

 iter      E             dE          RMSdq      gap      omega  full diag
   1   -404.5393787 -0.404539E+03  0.423E-02    0.61       0.0  T
   2   -404.5392278  0.150856E-03  0.323E-02    0.62       1.0  T
   3   -404.5386975  0.530383E-03  0.501E-02    0.62       1.0  T
   4   -404.5388840 -0.186492E-03  0.478E-02    0.62       1.0  T
   5   -404.5391721 -0.288133E-03  0.123E-02    0.62       1.0  T
   6   -404.5392160 -0.439569E-04  0.502E-03    0.62       1.3  T
   7   -404.5392850 -0.689525E-04  0.609E-03    0.62       1.1  T
   8   -404.5392280  0.569517E-04  0.175E-03    0.62       3.7  T
   9   -404.5392468 -0.187539E-04  0.692E-04    0.62       9.3  T
  10   -404.5392507 -0.394028E-05  0.648E-04    0.62       9.9  T
  11   -404.5392481  0.261816E-05  0.330E-04    0.62      19.5  T
  12   -404.5392498 -0.171746E-05  0.205E-04    0.62      31.4  T
  13   -404.5392505 -0.678272E-06  0.138E-04    0.62      46.7  T
  14   -404.5392501  0.455646E-06  0.888E-05    0.62      72.6  T
     SCC iter.                  ...        0 min,  1.276 sec
     gradient                   ...        0 min,  0.270 sec
 * total energy  :  -399.6214454 Eh     change       -0.1618520E-02 Eh
   gradient norm :     0.0127865 Eh/α   predicted    -0.1210742E-02 ( -25.19%)
   displ. norm   :     0.5720839 α      lambda       -0.2046569E-02
   maximum displ.:     0.1688810 α      in ANC's #14, #28, #37, ...

........................................................................
.............................. CYCLE    7 ..............................
........................................................................

 iter      E             dE          RMSdq      gap      omega  full diag
   1   -404.5356098 -0.404536E+03  0.576E-02    0.62       0.0  T
   2   -404.5353246  0.285175E-03  0.407E-02    0.62       1.0  T
   3   -404.5352756  0.489389E-04  0.293E-02    0.62       1.0  T
   4   -404.5336521  0.162354E-02  0.772E-02    0.62       1.0  T
   5   -404.5353549 -0.170282E-02  0.153E-02    0.62       1.0  T
   6   -404.5351494  0.205504E-03  0.120E-02    0.62       1.0  T
   7   -404.5353393 -0.189928E-03  0.474E-03    0.62       1.4  T
   8   -404.5352963  0.430058E-04  0.181E-03    0.62       3.6  T
   9   -404.5353192 -0.228310E-04  0.841E-04    0.62       7.7  T
  10   -404.5353178  0.131983E-05  0.455E-04    0.62      14.1  T
  11   -404.5353181 -0.261499E-06  0.295E-04    0.62      21.9  T
  12   -404.5353200 -0.185019E-05  0.214E-04    0.62      30.1  T
  13   -404.5353202 -0.216917E-06  0.116E-04    0.62      55.6  T
     SCC iter.                  ...        0 min,  1.207 sec
     gradient                   ...        0 min,  0.272 sec
 * total energy  :  -399.6229815 Eh     change       -0.1536187E-02 Eh
   gradient norm :     0.0110319 Eh/α   predicted    -0.1358222E-02 ( -11.58%)
   displ. norm   :     0.5740544 α      lambda       -0.1479225E-02
   maximum displ.:     0.1772066 α      in ANC's #14, #28, #37, ...

........................................................................
.............................. CYCLE    8 ..............................
........................................................................

 iter      E             dE          RMSdq      gap      omega  full diag
   1   -404.5350149 -0.404535E+03  0.559E-02    0.62       0.0  T
   2   -404.5347771  0.237784E-03  0.384E-02    0.62       1.0  T
   3   -404.5340250  0.752143E-03  0.566E-02    0.62       1.0  T
   4   -404.5343456 -0.320643E-03  0.521E-02    0.62       1.0  T
   5   -404.5346929 -0.347276E-03  0.150E-02    0.62       1.0  T
   6   -404.5348625 -0.169589E-03  0.989E-03    0.62       1.0  T
   7   -404.5347618  0.100718E-03  0.432E-03    0.62       1.5  T
   8   -404.5348025 -0.407526E-04  0.129E-03    0.62       5.0  T
   9   -404.5348125 -0.100372E-04  0.775E-04    0.62       8.3  T
  10   -404.5348095  0.300664E-05  0.486E-04    0.62      13.2  T
  11   -404.5348141 -0.454994E-05  0.384E-04    0.62      16.8  T
  12   -404.5348132  0.912899E-06  0.218E-04    0.62      29.6  T
  13   -404.5348150 -0.184569E-05  0.176E-04    0.62      36.7  T
  14   -404.5348134  0.163626E-05  0.907E-05    0.62      71.0  T
  15   -404.5348139 -0.512357E-06  0.467E-05    0.62     137.8  T
     SCC iter.                  ...        0 min,  1.364 sec
     gradient                   ...        0 min,  0.271 sec
 * total energy  :  -399.6240485 Eh     change       -0.1066957E-02 Eh
   gradient norm :     0.0117469 Eh/α   predicted    -0.9833436E-03 (  -7.84%)
   displ. norm   :     0.5702602 α      lambda       -0.1282194E-02
   maximum displ.:     0.1902030 α      in ANC's #28, #14, #37, ...

........................................................................
.............................. CYCLE    9 ..............................
........................................................................

 iter      E             dE          RMSdq      gap      omega  full diag
   1   -404.5378294 -0.404538E+03  0.511E-02    0.62       0.0  T
   2   -404.5376363  0.193065E-03  0.380E-02    0.62       1.0  T
   3   -404.5368819  0.754405E-03  0.541E-02    0.62       1.0  T
   4   -404.5373012 -0.419267E-03  0.494E-02    0.62       1.0  T
   5   -404.5375017 -0.200494E-03  0.235E-02    0.62       1.0  T
   6   -404.5374095  0.921913E-04  0.146E-02    0.62       1.0  T
   7   -404.5376271 -0.217654E-03  0.283E-03    0.62       2.3  T
   8   -404.5376167  0.103837E-04  0.144E-03    0.62       4.5  T
   9   -404.5376276 -0.108977E-04  0.680E-04    0.62       9.5  T
  10   -404.5376252  0.239787E-05  0.438E-04    0.62      14.7  T
  11   -404.5376281 -0.285745E-05  0.336E-04    0.62      19.2  T
  12   -404.5376280  0.463000E-07  0.210E-04    0.62      30.6  T
  13   -404.5376289 -0.845592E-06  0.133E-04    0.62      48.3  T
     SCC iter.                  ...        0 min,  1.210 sec
     gradient                   ...        0 min,  0.269 sec
 * total energy  :  -399.6249360 Eh     change       -0.8874999E-03 Eh
   gradient norm :     0.0100360 Eh/α   predicted    -0.8495811E-03 (  -4.27%)
   displ. norm   :     0.4970056 α      lambda       -0.9452176E-03
   maximum displ.:     0.1911916 α      in ANC's #28, #14, #37, ...

........................................................................
.............................. CYCLE   10 ..............................
........................................................................

 iter      E             dE          RMSdq      gap      omega  full diag
   1   -404.5414646 -0.404541E+03  0.425E-02    0.62       0.0  T
   2   -404.5413509  0.113665E-03  0.309E-02    0.61       1.0  T
   3   -404.5400306  0.132027E-02  0.698E-02    0.61       1.0  T
   4   -404.5413770 -0.134634E-02  0.234E-02    0.61       1.0  T
   5   -404.5413789 -0.189300E-05  0.676E-03    0.61       1.0  T
   6   -404.5414139 -0.349877E-04  0.292E-03    0.61       2.2  T
   7   -404.5413507  0.632106E-04  0.414E-03    0.61       1.6  T
   8   -404.5414012 -0.505758E-04  0.867E-04    0.61       7.4  T
   9   -404.5414006  0.628642E-06  0.511E-04    0.61      12.6  T
  10   -404.5413999  0.711709E-06  0.327E-04    0.61      19.7  T
     SCC iter.                  ...        0 min,  0.936 sec
     gradient                   ...        0 min,  0.273 sec
 * total energy  :  -399.6256135 Eh     change       -0.6774596E-03 Eh
   gradient norm :     0.0076548 Eh/α   predicted    -0.5893512E-03 ( -13.01%)
   displ. norm   :     0.5100737 α      lambda       -0.8171719E-03
   maximum displ.:     0.2142815 α      in ANC's #28, #14, #33, ...

........................................................................
.............................. CYCLE   11 ..............................
........................................................................

 iter      E             dE          RMSdq      gap      omega  full diag
   1   -404.5421711 -0.404542E+03  0.454E-02    0.60       0.0  T
   2   -404.5419016  0.269556E-03  0.431E-02    0.60       1.0  T
   3   -404.5403580  0.154355E-02  0.851E-02    0.60       1.0  T
   4   -404.5422567 -0.189870E-02  0.277E-02    0.60       1.0  T
   5   -404.5418652  0.391538E-03  0.227E-02    0.60       1.0  T
   6   -404.5422624 -0.397239E-03  0.746E-03    0.60       1.0  T
   7   -404.5422250  0.374725E-04  0.234E-03    0.60       2.8  T
   8   -404.5422374 -0.124606E-04  0.119E-03    0.60       5.4  T
   9   -404.5422330  0.441700E-05  0.606E-04    0.60      10.6  T
  10   -404.5422324  0.600534E-06  0.412E-04    0.60      15.7  T
  11   -404.5422348 -0.243500E-05  0.330E-04    0.60      19.5  T
  12   -404.5422341  0.722315E-06  0.197E-04    0.60      32.7  T
     SCC iter.                  ...        0 min,  1.110 sec
     gradient                   ...        0 min,  0.270 sec
 * total energy  :  -399.6261045 Eh     change       -0.4910310E-03 Eh
   gradient norm :     0.0087301 Eh/α   predicted    -0.5148920E-03 (   4.86%)
   displ. norm   :     0.4259762 α      lambda       -0.5874241E-03
   maximum displ.:     0.1843336 α      in ANC's #28, #14, #33, ...

........................................................................
.............................. CYCLE   12 ..............................
........................................................................

 iter      E             dE          RMSdq      gap      omega  full diag
   1   -404.5402424 -0.404540E+03  0.363E-02    0.59       0.0  T
   2   -404.5401488  0.935499E-04  0.272E-02    0.58       1.0  T
   3   -404.5394810  0.667831E-03  0.549E-02    0.58       1.0  T
   4   -404.5401314 -0.650429E-03  0.290E-02    0.58       1.0  T
   5   -404.5401142  0.172738E-04  0.841E-03    0.58       1.0  T
   6   -404.5402788 -0.164622E-03  0.806E-03    0.58       1.0  T
   7   -404.5402265  0.523006E-04  0.205E-03    0.58       3.1  T
   8   -404.5402267 -0.219396E-06  0.933E-04    0.58       6.9  T
   9   -404.5402255  0.116987E-05  0.384E-04    0.58      16.8  T
  10   -404.5402264 -0.839288E-06  0.208E-04    0.58      31.0  T
     SCC iter.                  ...        0 min,  0.936 sec
     gradient                   ...        0 min,  0.268 sec
 * total energy  :  -399.6265199 Eh     change       -0.4154455E-03 Eh
   gradient norm :     0.0072791 Eh/α   predicted    -0.3470312E-03 ( -16.47%)
   displ. norm   :     0.3963341 α      lambda       -0.4545980E-03
   maximum displ.:     0.1716398 α      in ANC's #28, #14, #33, ...

........................................................................
.............................. CYCLE   13 ..............................
........................................................................

 iter      E             dE          RMSdq      gap      omega  full diag
   1   -404.5394778 -0.404539E+03  0.331E-02    0.58       0.0  T
   2   -404.5394855 -0.761842E-05  0.217E-02    0.58       1.0  T
   3   -404.5393047  0.180775E-03  0.317E-02    0.58       1.0  T
   4   -404.5390132  0.291534E-03  0.449E-02    0.58       1.0  T
   5   -404.5394240 -0.410890E-03  0.711E-03    0.58       1.0  T
   6   -404.5395488 -0.124794E-03  0.655E-03    0.58       1.0  T
   7   -404.5394825  0.662966E-04  0.223E-03    0.58       2.9  T
   8   -404.5395016 -0.190935E-04  0.822E-04    0.58       7.8  T
   9   -404.5394985  0.316370E-05  0.472E-04    0.58      13.6  T
  10   -404.5394970  0.148795E-05  0.333E-04    0.58      19.3  T
  11   -404.5394979 -0.862733E-06  0.250E-04    0.58      25.8  T
  12   -404.5394967  0.117341E-05  0.156E-04    0.58      41.2  T
  13   -404.5394961  0.563407E-06  0.107E-04    0.58      60.2  T
     SCC iter.                  ...        0 min,  1.168 sec
     gradient                   ...        0 min,  0.271 sec
 * total energy  :  -399.6268598 Eh     change       -0.3398725E-03 Eh
   gradient norm :     0.0059761 Eh/α   predicted    -0.2630068E-03 ( -22.62%)
   displ. norm   :     0.4283769 α      lambda       -0.4127374E-03
   maximum displ.:     0.1782712 α      in ANC's #28, #14, #33, ...

........................................................................
.............................. CYCLE   14 ..............................
........................................................................

 iter      E             dE          RMSdq      gap      omega  full diag
   1   -404.5376155 -0.404538E+03  0.388E-02    0.57       0.0  T
   2   -404.5374323  0.183253E-03  0.283E-02    0.57       1.0  T
   3   -404.5376451 -0.212862E-03  0.303E-02    0.57       1.0  T
   4   -404.5367521  0.892995E-03  0.399E-02    0.58       1.0  T
   5   -404.5375355 -0.783341E-03  0.716E-03    0.58       1.0  T
   6   -404.5375629 -0.274668E-04  0.706E-03    0.58       1.0  T
   7   -404.5375892 -0.263110E-04  0.363E-03    0.58       1.8  T
   8   -404.5375838  0.539669E-05  0.103E-03    0.58       6.3  T
   9   -404.5375810  0.283348E-05  0.378E-04    0.58      17.0  T
  10   -404.5375824 -0.141491E-05  0.234E-04    0.58      27.6  T
  11   -404.5375823  0.162544E-06  0.154E-04    0.58      41.9  T
  12   -404.5375823 -0.443475E-07  0.109E-04    0.58      58.9  T
     SCC iter.                  ...        0 min,  1.091 sec
     gradient                   ...        0 min,  0.268 sec
 * total energy  :  -399.6271543 Eh     change       -0.2945164E-03 Eh
   gradient norm :     0.0055561 Eh/α   predicted    -0.2442412E-03 ( -17.07%)
   displ. norm   :     0.3639516 α      lambda       -0.2963441E-03
   maximum displ.:     0.1342059 α      in ANC's #28, #14, #33, ...

........................................................................
.............................. CYCLE   15 ..............................
........................................................................

 iter      E             dE          RMSdq      gap      omega  full diag
   1   -404.5399634 -0.404540E+03  0.310E-02    0.58       0.0  T
   2   -404.5399246  0.387280E-04  0.220E-02    0.58       1.0  T
   3   -404.5396598  0.264853E-03  0.435E-02    0.58       1.0  T
   4   -404.5396244  0.353691E-04  0.338E-02    0.58       1.0  T
   5   -404.5399368 -0.312378E-03  0.441E-03    0.58       1.5  T
   6   -404.5399863 -0.495446E-04  0.470E-03    0.58       1.4  T
   7   -404.5399287  0.576340E-04  0.238E-03    0.58       2.7  T
   8   -404.5399540 -0.252687E-04  0.620E-04    0.58      10.4  T
   9   -404.5399522  0.180225E-05  0.419E-04    0.58      15.4  T
  10   -404.5399515  0.706887E-06  0.284E-04    0.58      22.7  T
  11   -404.5399519 -0.384617E-06  0.199E-04    0.58      32.3  T
     SCC iter.                  ...        0 min,  1.022 sec
     gradient                   ...        0 min,  0.272 sec
 * total energy  :  -399.6273689 Eh     change       -0.2145964E-03 Eh
   gradient norm :     0.0060697 Eh/α   predicted    -0.1678029E-03 ( -21.81%)
   displ. norm   :     0.3986889 α      lambda       -0.2749489E-03
   maximum displ.:     0.1481674 α      in ANC's #14, #28, #20, ...

........................................................................
.............................. CYCLE   16 ..............................
........................................................................

 iter      E             dE          RMSdq      gap      omega  full diag
   1   -404.5394212 -0.404539E+03  0.330E-02    0.59       0.0  T
   2   -404.5393975  0.236730E-04  0.211E-02    0.59       1.0  T
   3   -404.5391486  0.248930E-03  0.409E-02    0.59       1.0  T
   4   -404.5390321  0.116412E-03  0.360E-02    0.59       1.0  T
   5   -404.5394150 -0.382839E-03  0.369E-03    0.59       1.7  T
   6   -404.5394021  0.129193E-04  0.177E-03    0.59       3.6  T
   7   -404.5394323 -0.302610E-04  0.260E-03    0.59       2.5  T
   8   -404.5394045  0.278182E-04  0.829E-04    0.59       7.8  T
   9   -404.5394132 -0.871211E-05  0.416E-04    0.59      15.5  T
  10   -404.5394118  0.136376E-05  0.229E-04    0.59      28.2  T
  11   -404.5394119 -0.792277E-07  0.161E-04    0.59      40.1  T
  12   -404.5394117  0.218814E-06  0.117E-04    0.59      55.2  T
     SCC iter.                  ...        0 min,  1.085 sec
     gradient                   ...        0 min,  0.270 sec
 * total energy  :  -399.6275723 Eh     change       -0.2033413E-03 Eh
   gradient norm :     0.0056551 Eh/α   predicted    -0.1593283E-03 ( -21.64%)
   displ. norm   :     0.4151503 α      lambda       -0.3185231E-03
   maximum displ.:     0.1404319 α      in ANC's #14, #20, #28, ...

........................................................................
.............................. CYCLE   17 ..............................
........................................................................

 iter      E             dE          RMSdq      gap      omega  full diag
   1   -404.5450395 -0.404545E+03  0.356E-02    0.60       0.0  T
   2   -404.5448895  0.150016E-03  0.274E-02    0.60       1.0  T
   3   -404.5440353  0.854109E-03  0.681E-02    0.60       1.0  T
   4   -404.5448809 -0.845548E-03  0.243E-02    0.60       1.0  T
   5   -404.5449564 -0.754714E-04  0.439E-03    0.60       1.5  T
   6   -404.5450124 -0.559944E-04  0.529E-03    0.60       1.2  T
   7   -404.5449516  0.608033E-04  0.253E-03    0.60       2.5  T
   8   -404.5449751 -0.235871E-04  0.627E-04    0.60      10.3  T
   9   -404.5449763 -0.115528E-05  0.318E-04    0.60      20.3  T
  10   -404.5449756  0.686090E-06  0.209E-04    0.60      30.8  T
  11   -404.5449755  0.790151E-07  0.157E-04    0.60      41.0  T
     SCC iter.                  ...        0 min,  1.008 sec
     gradient                   ...        0 min,  0.272 sec
 * total energy  :  -399.6277785 Eh     change       -0.2062497E-03 Eh
   gradient norm :     0.0063118 Eh/α   predicted    -0.1867190E-03 (  -9.47%)
   displ. norm   :     0.3790435 α      lambda       -0.2415189E-03
   maximum displ.:     0.1486290 α      in ANC's #14, #20, #28, ...

........................................................................
.............................. CYCLE   18 ..............................
........................................................................

 iter      E             dE          RMSdq      gap      omega  full diag
   1   -404.5422595 -0.404542E+03  0.335E-02    0.60       0.0  T
   2   -404.5423491 -0.895831E-04  0.226E-02    0.60       1.0  T
   3   -404.5419419  0.407212E-03  0.266E-02    0.60       1.0  T
   4   -404.5422508 -0.308903E-03  0.342E-02    0.60       1.0  T
   5   -404.5422884 -0.375383E-04  0.451E-03    0.60       1.4  T
   6   -404.5422566  0.317220E-04  0.640E-03    0.60       1.0  T
   7   -404.5422849 -0.282955E-04  0.176E-03    0.60       3.7  T
   8   -404.5422895 -0.452932E-05  0.533E-04    0.60      12.1  T
   9   -404.5422885  0.100012E-05  0.359E-04    0.60      17.9  T
  10   -404.5422886 -0.943669E-07  0.197E-04    0.60      32.7  T
  11   -404.5422884  0.120950E-06  0.147E-04    0.60      44.0  T
     SCC iter.                  ...        0 min,  0.999 sec
     gradient                   ...        0 min,  0.273 sec
 * total energy  :  -399.6279503 Eh     change       -0.1717964E-03 Eh
   gradient norm :     0.0052324 Eh/α   predicted    -0.1381109E-03 ( -19.61%)
   displ. norm   :     0.3395636 α      lambda       -0.2286675E-03
   maximum displ.:     0.1195413 α      in ANC's #14, #20, #37, ...

........................................................................
.............................. CYCLE   19 ..............................
........................................................................

 iter      E             dE          RMSdq      gap      omega  full diag
   1   -404.5432941 -0.404543E+03  0.301E-02    0.60       0.0  T
   2   -404.5433799 -0.857967E-04  0.201E-02    0.60       1.0  T
   3   -404.5429087  0.471139E-03  0.268E-02    0.60       1.0  T
   4   -404.5433052 -0.396503E-03  0.296E-02    0.60       1.0  T
   5   -404.5433167 -0.114330E-04  0.759E-03    0.60       1.0  T
   6   -404.5432892  0.274561E-04  0.450E-03    0.60       1.4  T
   7   -404.5433073 -0.180553E-04  0.105E-03    0.60       6.2  T
   8   -404.5433157 -0.844354E-05  0.512E-04    0.60      12.6  T
   9   -404.5433124  0.333614E-05  0.201E-04    0.60      32.1  T
  10   -404.5433126 -0.176497E-06  0.144E-04    0.60      44.6  T
  11   -404.5433124  0.161961E-06  0.874E-05    0.60      73.7  T
     SCC iter.                  ...        0 min,  0.997 sec
     gradient                   ...        0 min,  0.271 sec
 * total energy  :  -399.6281209 Eh     change       -0.1706112E-03 Eh
   gradient norm :     0.0051495 Eh/α   predicted    -0.1275181E-03 ( -25.26%)
   displ. norm   :     0.4066984 α      lambda       -0.2382859E-03
   maximum displ.:     0.1500783 α      in ANC's #14, #20, #37, ...

........................................................................
.............................. CYCLE   20 ..............................
........................................................................

 iter      E             dE          RMSdq      gap      omega  full diag
   1   -404.5402216 -0.404540E+03  0.373E-02    0.60       0.0  T
   2   -404.5401806  0.409942E-04  0.268E-02    0.60       1.0  T
   3   -404.5399293  0.251323E-03  0.420E-02    0.60       1.0  T
   4   -404.5396748  0.254541E-03  0.445E-02    0.60       1.0  T
   5   -404.5401984 -0.523670E-03  0.752E-03    0.60       1.0  T
   6   -404.5402285 -0.300879E-04  0.271E-03    0.60       2.4  T
   7   -404.5401810  0.474980E-04  0.290E-03    0.60       2.2  T
   8   -404.5402151 -0.341064E-04  0.516E-04    0.60      12.5  T
   9   -404.5402127  0.248406E-05  0.362E-04    0.60      17.8  T
  10   -404.5402132 -0.561045E-06  0.251E-04    0.60      25.7  T
  11   -404.5402142 -0.984265E-06  0.178E-04    0.60      36.2  T
     SCC iter.                  ...        0 min,  1.021 sec
     gradient                   ...        0 min,  0.271 sec
 * total energy  :  -399.6282869 Eh     change       -0.1659614E-03 Eh
   gradient norm :     0.0056397 Eh/α   predicted    -0.1388530E-03 ( -16.33%)
   displ. norm   :     0.3478406 α      lambda       -0.2137238E-03
   maximum displ.:     0.1109847 α      in ANC's #14, #20, #40, ...
 * RMSD in coord.:     0.4204649 α      energy gain  -0.4679090E-01 Eh

generating ANC from exact Hessian ...
Using Lindh-Hessian (1995)
 Shifting diagonal of input Hessian by    1.4872108887398506E-002
 Lowest  eigenvalues of input Hessian
    0.010000    0.014577    0.014797    0.014819    0.000000    0.000000
    0.000000    0.000000    0.000000    0.000000    0.014903    0.014915
    0.014927    0.014949    0.014960    0.014995    0.015024    0.015039
 Highest eigenvalues
    2.399206    2.618982    2.619120    2.744913    3.227433    3.305201


........................................................................
.............................. CYCLE   21 ..............................
........................................................................

 iter      E             dE          RMSdq      gap      omega  full diag
   1   -404.5415116 -0.404542E+03  0.321E-02    0.60       0.0  T
   2   -404.5416265 -0.114862E-03  0.216E-02    0.60       1.0  T
   3   -404.5411729  0.453599E-03  0.278E-02    0.60       1.0  T
   4   -404.5414341 -0.261270E-03  0.340E-02    0.60       1.0  T
   5   -404.5415711 -0.136981E-03  0.158E-02    0.60       1.0  T
   6   -404.5415298  0.412921E-04  0.453E-03    0.60       1.4  T
   7   -404.5415639 -0.341101E-04  0.123E-03    0.60       5.2  T
   8   -404.5415739 -0.996180E-05  0.594E-04    0.60      10.8  T
   9   -404.5415681  0.574654E-05  0.250E-04    0.60      25.8  T
  10   -404.5415688 -0.693235E-06  0.152E-04    0.60      42.3  T
  11   -404.5415692 -0.398597E-06  0.113E-04    0.60      56.8  T
     SCC iter.                  ...        0 min,  1.009 sec
     gradient                   ...        0 min,  0.271 sec
 * total energy  :  -399.6284340 Eh     change       -0.1470790E-03 Eh
   gradient norm :     0.0057091 Eh/α   predicted     0.0000000E+00 (-100.00%)
   displ. norm   :     0.0561647 α      lambda       -0.9937867E-04
   maximum displ.:     0.0198269 α      in ANC's #1, #95, #8, ...

........................................................................
.............................. CYCLE   22 ..............................
........................................................................

 iter      E             dE          RMSdq      gap      omega  full diag
   1   -404.5430294 -0.404543E+03  0.973E-03    0.60       0.0  T
   2   -404.5429579  0.715349E-04  0.106E-02    0.60       1.0  T
   3   -404.5430337 -0.758724E-04  0.121E-02    0.60       1.0  T
   4   -404.5429894  0.443251E-04  0.731E-03    0.60       1.0  T
   5   -404.5429695  0.199510E-04  0.509E-03    0.60       1.3  T
   6   -404.5430381 -0.686294E-04  0.278E-03    0.60       2.3  T
   7   -404.5430167  0.214081E-04  0.466E-04    0.60      13.8  T
   8   -404.5430172 -0.541523E-06  0.294E-04    0.60      21.9  T
   9   -404.5430182 -0.974850E-06  0.136E-04    0.60      47.2  T
     SCC iter.                  ...        0 min,  0.827 sec
     gradient                   ...        0 min,  0.270 sec
 * total energy  :  -399.6285130 Eh     change       -0.7904692E-04 Eh
   gradient norm :     0.0030646 Eh/α   predicted    -0.5280950E-04 ( -33.19%)
   displ. norm   :     0.1692747 α      lambda       -0.2120666E-03
   maximum displ.:     0.0368371 α      in ANC's #95, #102, #46, ...

........................................................................
.............................. CYCLE   23 ..............................
........................................................................

 iter      E             dE          RMSdq      gap      omega  full diag
   1   -404.5454513 -0.404545E+03  0.196E-02    0.60       0.0  T
   2   -404.5453694  0.819348E-04  0.148E-02    0.60       1.0  T
   3   -404.5452133  0.156112E-03  0.386E-02    0.60       1.0  T
   4   -404.5454247 -0.211401E-03  0.117E-02    0.60       1.0  T
   5   -404.5453527  0.719065E-04  0.656E-03    0.60       1.0  T
   6   -404.5454561 -0.103323E-03  0.339E-03    0.60       1.9  T
   7   -404.5454320  0.240762E-04  0.130E-03    0.60       5.0  T
   8   -404.5454310  0.967629E-06  0.449E-04    0.60      14.3  T
   9   -404.5454346 -0.359283E-05  0.325E-04    0.60      19.8  T
  10   -404.5454338  0.841046E-06  0.155E-04    0.60      41.5  T
     SCC iter.                  ...        0 min,  0.921 sec
     gradient                   ...        0 min,  0.267 sec
 * total energy  :  -399.6286331 Eh     change       -0.1201083E-03 Eh
   gradient norm :     0.0047654 Eh/α   predicted    -0.1091045E-03 (  -9.16%)
   displ. norm   :     0.1331484 α      lambda       -0.1040526E-03
   maximum displ.:     0.0357215 α      in ANC's #102, #95, #46, ...

........................................................................
.............................. CYCLE   24 ..............................
........................................................................

 iter      E             dE          RMSdq      gap      omega  full diag
   1   -404.5447188 -0.404545E+03  0.143E-02    0.60       0.0  T
   2   -404.5447220 -0.326752E-05  0.104E-02    0.60       1.0  T
   3   -404.5447521 -0.301025E-04  0.851E-03    0.60       1.0  T
   4   -404.5446052  0.146909E-03  0.160E-02    0.60       1.0  T
   5   -404.5447387 -0.133485E-03  0.424E-03    0.60       1.5  T
   6   -404.5447586 -0.198938E-04  0.223E-03    0.60       2.9  T
   7   -404.5447335  0.251437E-04  0.913E-04    0.60       7.1  T
   8   -404.5447418 -0.839304E-05  0.352E-04    0.60      18.3  T
   9   -404.5447404  0.147210E-05  0.150E-04    0.60      42.8  T
  10   -404.5447397  0.706657E-06  0.110E-04    0.60      58.4  T
  11   -404.5447407 -0.107107E-05  0.947E-05    0.60      68.0  T
  12   -404.5447403  0.387679E-06  0.546E-05    0.60     117.9  T
     SCC iter.                  ...        0 min,  1.053 sec
     gradient                   ...        0 min,  0.273 sec
 * total energy  :  -399.6287180 Eh     change       -0.8483388E-04 Eh
   gradient norm :     0.0052832 Eh/α   predicted    -0.5296718E-04 ( -37.56%)
   displ. norm   :     0.3805822 α      lambda       -0.2691777E-03
   maximum displ.:     0.1123615 α      in ANC's #102, #95, #46, ...

........................................................................
.............................. CYCLE   25 ..............................
........................................................................

 iter      E             dE          RMSdq      gap      omega  full diag
   1   -404.5409808 -0.404541E+03  0.376E-02    0.59       0.0  T
   2   -404.5409921 -0.112971E-04  0.254E-02    0.59       1.0  T
   3   -404.5409575  0.345814E-04  0.299E-02    0.59       1.0  T
   4   -404.5402349  0.722665E-03  0.523E-02    0.59       1.0  T
   5   -404.5409368 -0.701897E-03  0.101E-02    0.59       1.0  T
   6   -404.5410933 -0.156529E-03  0.752E-03    0.59       1.0  T
   7   -404.5410325  0.607997E-04  0.119E-03    0.59       5.4  T
   8   -404.5410408 -0.829419E-05  0.654E-04    0.59       9.8  T
   9   -404.5410375  0.331702E-05  0.352E-04    0.59      18.3  T
  10   -404.5410370  0.498235E-06  0.206E-04    0.59      31.2  T
  11   -404.5410387 -0.176547E-05  0.166E-04    0.59      38.7  T
  12   -404.5410377  0.104487E-05  0.107E-04    0.59      60.4  T
  13   -404.5410384 -0.701157E-06  0.822E-05    0.59      78.4  T
     SCC iter.                  ...        0 min,  1.162 sec
     gradient                   ...        0 min,  0.266 sec
 * total energy  :  -399.6289066 Eh     change       -0.1886877E-03 Eh
   gradient norm :     0.0072101 Eh/α   predicted    -0.1541085E-03 ( -18.33%)
   displ. norm   :     0.3024120 α      lambda       -0.2087104E-03
   maximum displ.:     0.0944893 α      in ANC's #102, #95, #26, ...

........................................................................
.............................. CYCLE   26 ..............................
........................................................................

 iter      E             dE          RMSdq      gap      omega  full diag
   1   -404.5387017 -0.404539E+03  0.292E-02    0.59       0.0  T
   2   -404.5387521 -0.504479E-04  0.192E-02    0.59       1.0  T
   3   -404.5378217  0.930406E-03  0.564E-02    0.59       1.0  T
   4   -404.5387083 -0.886607E-03  0.173E-02    0.59       1.0  T
   5   -404.5387462 -0.378795E-04  0.198E-03    0.59       3.3  T
   6   -404.5387365  0.972283E-05  0.128E-03    0.59       5.0  T
   7   -404.5387621 -0.256494E-04  0.180E-03    0.59       3.6  T
   8   -404.5387428  0.193026E-04  0.530E-04    0.59      12.1  T
   9   -404.5387449 -0.201137E-05  0.222E-04    0.59      29.0  T
  10   -404.5387441  0.742785E-06  0.127E-04    0.59      50.6  T
  11   -404.5387448 -0.724254E-06  0.896E-05    0.59      71.9  T
     SCC iter.                  ...        0 min,  0.989 sec
     gradient                   ...        0 min,  0.272 sec
 * total energy  :  -399.6290624 Eh     change       -0.1557855E-03 Eh
   gradient norm :     0.0091824 Eh/α   predicted    -0.1138994E-03 ( -26.89%)
   displ. norm   :     0.3443431 α      lambda       -0.3733380E-03
   maximum displ.:     0.1056534 α      in ANC's #102, #95, #26, ...

........................................................................
.............................. CYCLE   27 ..............................
........................................................................

 iter      E             dE          RMSdq      gap      omega  full diag
   1   -404.5386397 -0.404539E+03  0.350E-02    0.59       0.0  T
   2   -404.5386986 -0.588798E-04  0.247E-02    0.59       1.0  T
   3   -404.5370652  0.163344E-02  0.743E-02    0.59       1.0  T
   4   -404.5386027 -0.153755E-02  0.192E-02    0.59       1.0  T
   5   -404.5387335 -0.130809E-03  0.779E-03    0.59       1.0  T
   6   -404.5386351  0.984666E-04  0.442E-03    0.59       1.5  T
   7   -404.5386794 -0.443521E-04  0.102E-03    0.59       6.3  T
   8   -404.5386816 -0.214346E-05  0.520E-04    0.59      12.4  T
   9   -404.5386791  0.241609E-05  0.296E-04    0.59      21.7  T
  10   -404.5386788  0.321967E-06  0.150E-04    0.59      43.0  T
  11   -404.5386795 -0.669513E-06  0.101E-04    0.59      63.9  T
     SCC iter.                  ...        0 min,  1.029 sec
     gradient                   ...        0 min,  0.268 sec
 * total energy  :  -399.6293436 Eh     change       -0.2812084E-03 Eh
   gradient norm :     0.0096146 Eh/α   predicted    -0.2088032E-03 ( -25.75%)
   displ. norm   :     0.3685211 α      lambda       -0.4355148E-03
   maximum displ.:     0.1085063 α      in ANC's #102, #26, #95, ...

........................................................................
.............................. CYCLE   28 ..............................
........................................................................

 iter      E             dE          RMSdq      gap      omega  full diag
   1   -404.5413144 -0.404541E+03  0.385E-02    0.59       0.0  T
   2   -404.5413400 -0.255073E-04  0.264E-02    0.59       1.0  T
   3   -404.5400162  0.132374E-02  0.678E-02    0.59       1.0  T
   4   -404.5411695 -0.115332E-02  0.295E-02    0.59       1.0  T
   5   -404.5413353 -0.165779E-03  0.685E-03    0.59       1.0  T
   6   -404.5412466  0.887069E-04  0.475E-03    0.59       1.4  T
   7   -404.5413077 -0.611300E-04  0.132E-03    0.59       4.9  T
   8   -404.5413044  0.338386E-05  0.583E-04    0.59      11.1  T
   9   -404.5413024  0.197042E-05  0.401E-04    0.59      16.1  T
  10   -404.5413032 -0.782337E-06  0.238E-04    0.59      27.1  T
  11   -404.5413036 -0.411498E-06  0.188E-04    0.59      34.3  T
     SCC iter.                  ...        0 min,  1.014 sec
     gradient                   ...        0 min,  0.272 sec
 * total energy  :  -399.6296701 Eh     change       -0.3264880E-03 Eh
   gradient norm :     0.0090607 Eh/α   predicted    -0.2473298E-03 ( -24.25%)
   displ. norm   :     0.5832099 α      lambda       -0.5170656E-03
   maximum displ.:     0.1853597 α      in ANC's #102, #95, #26, ...

........................................................................
.............................. CYCLE   29 ..............................
........................................................................

 iter      E             dE          RMSdq      gap      omega  full diag
   1   -404.5387914 -0.404539E+03  0.584E-02    0.60       0.0  T
   2   -404.5387592  0.322066E-04  0.364E-02    0.59       1.0  T
   3   -404.5387007  0.585108E-04  0.353E-02    0.59       1.0  T
   4   -404.5387000  0.700507E-06  0.192E-02    0.59       1.0  T
   5   -404.5386785  0.214984E-04  0.157E-02    0.59       1.0  T
   6   -404.5387098 -0.313152E-04  0.383E-03    0.59       1.7  T
   7   -404.5387725 -0.627368E-04  0.297E-03    0.59       2.2  T
   8   -404.5387445  0.279884E-04  0.766E-04    0.59       8.4  T
   9   -404.5387533 -0.875433E-05  0.507E-04    0.59      12.7  T
  10   -404.5387510  0.232589E-05  0.212E-04    0.59      30.3  T
  11   -404.5387524 -0.143600E-05  0.143E-04    0.59      45.1  T
  12   -404.5387516  0.808364E-06  0.116E-04    0.59      55.7  T
  13   -404.5387524 -0.762318E-06  0.650E-05    0.59      99.1  T
     SCC iter.                  ...        0 min,  1.167 sec
     gradient                   ...        0 min,  0.271 sec
 * total energy  :  -399.6300034 Eh     change       -0.3332519E-03 Eh
   gradient norm :     0.0138265 Eh/α   predicted    -0.3464665E-03 (   3.97%)
   displ. norm   :     0.3831434 α      lambda       -0.8765652E-03
   maximum displ.:     0.0856941 α      in ANC's #22, #102, #26, ...

........................................................................
.............................. CYCLE   30 ..............................
........................................................................

 iter      E             dE          RMSdq      gap      omega  full diag
   1   -404.5519222 -0.404552E+03  0.466E-02    0.61       0.0  T
   2   -404.5517424  0.179788E-03  0.336E-02    0.60       1.0  T
   3   -404.5505935  0.114887E-02  0.711E-02    0.60       1.0  T
   4   -404.5513700 -0.776469E-03  0.431E-02    0.60       1.0  T
   5   -404.5518807 -0.510704E-03  0.141E-02    0.60       1.0  T
   6   -404.5516603  0.220394E-03  0.108E-02    0.60       1.0  T
   7   -404.5518019 -0.141637E-03  0.207E-03    0.60       3.1  T
   8   -404.5517931  0.878859E-05  0.983E-04    0.60       6.6  T
   9   -404.5518037 -0.105494E-04  0.716E-04    0.60       9.0  T
  10   -404.5518015  0.219305E-05  0.271E-04    0.60      23.7  T
  11   -404.5518020 -0.463995E-06  0.194E-04    0.60      33.2  T
  12   -404.5518022 -0.275173E-06  0.121E-04    0.60      53.2  T
     SCC iter.                  ...        0 min,  1.117 sec
     gradient                   ...        0 min,  0.271 sec
 * total energy  :  -399.6302310 Eh     change       -0.2275753E-03 Eh
   gradient norm :     0.0140927 Eh/α   predicted    -0.5026244E-03 ( 120.86%)
   displ. norm   :     0.4179024 α      lambda       -0.7547878E-03
   maximum displ.:     0.1357505 α      in ANC's #102, #95, #26, ...

........................................................................
.............................. CYCLE   31 ..............................
........................................................................

 iter      E             dE          RMSdq      gap      omega  full diag
   1   -404.5442397 -0.404544E+03  0.445E-02    0.61       0.0  T
   2   -404.5443046 -0.649769E-04  0.276E-02    0.61       1.0  T
   3   -404.5436779  0.626751E-03  0.452E-02    0.61       1.0  T
   4   -404.5439005 -0.222634E-03  0.486E-02    0.61       1.0  T
   5   -404.5442906 -0.390055E-03  0.877E-03    0.61       1.0  T
   6   -404.5441896  0.101023E-03  0.722E-03    0.61       1.0  T
   7   -404.5442897 -0.100134E-03  0.204E-03    0.61       3.2  T
   8   -404.5442711  0.185470E-04  0.726E-04    0.61       8.9  T
   9   -404.5442731 -0.199891E-05  0.586E-04    0.61      11.0  T
  10   -404.5442718  0.132534E-05  0.268E-04    0.61      24.0  T
  11   -404.5442731 -0.124063E-05  0.204E-04    0.61      31.5  T
  12   -404.5442720  0.103864E-05  0.122E-04    0.61      52.7  T
  13   -404.5442721 -0.124961E-06  0.817E-05    0.61      78.9  T
  14   -404.5442720  0.154933E-06  0.572E-05    0.61     112.7  T
     SCC iter.                  ...        0 min,  1.239 sec
     gradient                   ...        0 min,  0.272 sec
 * total energy  :  -399.6307068 Eh     change       -0.4758805E-03 Eh
   gradient norm :     0.0103181 Eh/α   predicted    -0.4433123E-03 (  -6.84%)
   displ. norm   :     0.2511916 α      lambda       -0.3323174E-03
   maximum displ.:     0.0713593 α      in ANC's #102, #45, #46, ...

........................................................................
.............................. CYCLE   32 ..............................
........................................................................

 iter      E             dE          RMSdq      gap      omega  full diag
   1   -404.5417167 -0.404542E+03  0.266E-02    0.60       0.0  T
   2   -404.5417513 -0.346035E-04  0.165E-02    0.60       1.0  T
   3   -404.5416002  0.151173E-03  0.302E-02    0.60       1.0  T
   4   -404.5415415  0.586394E-04  0.269E-02    0.60       1.0  T
   5   -404.5417811 -0.239559E-03  0.280E-03    0.60       2.3  T
   6   -404.5417305  0.505807E-04  0.303E-03    0.60       2.1  T
   7   -404.5417726 -0.421285E-04  0.113E-03    0.60       5.7  T
   8   -404.5417618  0.108554E-04  0.352E-04    0.60      18.3  T
   9   -404.5417617  0.977724E-07  0.190E-04    0.60      33.9  T
  10   -404.5417617  0.325324E-07  0.116E-04    0.60      55.6  T
     SCC iter.                  ...        0 min,  0.919 sec
     gradient                   ...        0 min,  0.275 sec
 * total energy  :  -399.6309679 Eh     change       -0.2610762E-03 Eh
   gradient norm :     0.0081513 Eh/α   predicted    -0.1766658E-03 ( -32.33%)
   displ. norm   :     0.3578128 α      lambda       -0.4688554E-03
   maximum displ.:     0.0934357 α      in ANC's #102, #45, #22, ...

........................................................................
.............................. CYCLE   33 ..............................
........................................................................

 iter      E             dE          RMSdq      gap      omega  full diag
   1   -404.5429468 -0.404543E+03  0.378E-02    0.60       0.0  T
   2   -404.5430076 -0.607785E-04  0.260E-02    0.60       1.0  T
   3   -404.5426549  0.352670E-03  0.498E-02    0.60       1.0  T
   4   -404.5424181  0.236804E-03  0.453E-02    0.60       1.0  T
   5   -404.5430388 -0.620668E-03  0.452E-03    0.60       1.4  T
   6   -404.5430693 -0.304660E-04  0.284E-03    0.60       2.3  T
   7   -404.5430244  0.448369E-04  0.222E-03    0.60       2.9  T
   8   -404.5430487 -0.242829E-04  0.532E-04    0.60      12.1  T
   9   -404.5430444  0.436754E-05  0.302E-04    0.60      21.3  T
  10   -404.5430445 -0.126697E-06  0.170E-04    0.60      37.9  T
  11   -404.5430440  0.512644E-06  0.130E-04    0.60      49.4  T
     SCC iter.                  ...        0 min,  1.025 sec
     gradient                   ...        0 min,  0.270 sec
 * total energy  :  -399.6312938 Eh     change       -0.3259315E-03 Eh
   gradient norm :     0.0063996 Eh/α   predicted    -0.2644430E-03 ( -18.87%)
   displ. norm   :     0.5800675 α      lambda       -0.3589423E-03
   maximum displ.:     0.1699703 α      in ANC's #102, #45, #26, ...

........................................................................
.............................. CYCLE   34 ..............................
........................................................................

 iter      E             dE          RMSdq      gap      omega  full diag
   1   -404.5388967 -0.404539E+03  0.595E-02    0.60       0.0  T
   2   -404.5388667  0.299887E-04  0.375E-02    0.61       1.0  T
   3   -404.5375014  0.136530E-02  0.843E-02    0.61       1.0  T
   4   -404.5381661 -0.664705E-03  0.526E-02    0.61       1.0  T
   5   -404.5389151 -0.748985E-03  0.509E-03    0.61       1.3  T
   6   -404.5388870  0.280733E-04  0.206E-03    0.61       3.1  T
   7   -404.5389320 -0.449273E-04  0.311E-03    0.61       2.1  T
   8   -404.5389014  0.305907E-04  0.620E-04    0.61      10.4  T
   9   -404.5389075 -0.615434E-05  0.371E-04    0.61      17.4  T
  10   -404.5389061  0.142623E-05  0.162E-04    0.61      39.8  T
  11   -404.5389057  0.388916E-06  0.122E-04    0.61      52.8  T
  12   -404.5389059 -0.174954E-06  0.865E-05    0.61      74.4  T
     SCC iter.                  ...        0 min,  1.087 sec
     gradient                   ...        0 min,  0.266 sec
 * total energy  :  -399.6314551 Eh     change       -0.1612853E-03 Eh
   gradient norm :     0.0117190 Eh/α   predicted    -0.2398594E-03 (  48.72%)
   displ. norm   :     0.2766388 α      lambda       -0.5361882E-03
   maximum displ.:     0.0664929 α      in ANC's #96, #22, #16, ...

........................................................................
.............................. CYCLE   35 ..............................
........................................................................

 iter      E             dE          RMSdq      gap      omega  full diag
   1   -404.5488282 -0.404549E+03  0.308E-02    0.61       0.0  T
   2   -404.5488135  0.147240E-04  0.200E-02    0.61       1.0  T
   3   -404.5487163  0.971839E-04  0.393E-02    0.61       1.0  T
   4   -404.5486225  0.938152E-04  0.277E-02    0.61       1.0  T
   5   -404.5487476 -0.125156E-03  0.111E-02    0.61       1.0  T
   6   -404.5489064 -0.158794E-03  0.460E-03    0.61       1.4  T
   7   -404.5488757  0.307385E-04  0.118E-03    0.61       5.5  T
   8   -404.5488725  0.322849E-05  0.505E-04    0.61      12.8  T
   9   -404.5488732 -0.767630E-06  0.435E-04    0.61      14.8  T
  10   -404.5488727  0.561539E-06  0.137E-04    0.61      47.1  T
     SCC iter.                  ...        0 min,  0.935 sec
     gradient                   ...        0 min,  0.272 sec
 * total energy  :  -399.6317109 Eh     change       -0.2557464E-03 Eh
   gradient norm :     0.0062777 Eh/α   predicted    -0.2886142E-03 (  12.85%)
   displ. norm   :     0.3201801 α      lambda       -0.2120285E-03
   maximum displ.:     0.0877094 α      in ANC's #102, #45, #6, ...

........................................................................
.............................. CYCLE   36 ..............................
........................................................................

 iter      E             dE          RMSdq      gap      omega  full diag
   1   -404.5470968 -0.404547E+03  0.362E-02    0.61       0.0  T
   2   -404.5471771 -0.802770E-04  0.234E-02    0.61       1.0  T
   3   -404.5468531  0.324003E-03  0.327E-02    0.61       1.0  T
   4   -404.5465286  0.324501E-03  0.527E-02    0.61       1.0  T
   5   -404.5471416 -0.613022E-03  0.502E-03    0.61       1.3  T
   6   -404.5471707 -0.290887E-04  0.246E-03    0.61       2.6  T
   7   -404.5471289  0.418604E-04  0.229E-03    0.61       2.8  T
   8   -404.5471571 -0.282319E-04  0.627E-04    0.61      10.3  T
   9   -404.5471520  0.511348E-05  0.278E-04    0.61      23.2  T
  10   -404.5471520  0.843499E-08  0.200E-04    0.61      32.2  T
  11   -404.5471520  0.137163E-09  0.170E-04    0.61      37.9  T
     SCC iter.                  ...        0 min,  1.018 sec
     gradient                   ...        0 min,  0.273 sec
 * total energy  :  -399.6318483 Eh     change       -0.1373961E-03 Eh
   gradient norm :     0.0040215 Eh/α   predicted    -0.1168863E-03 ( -14.93%)
   displ. norm   :     0.2967396 α      lambda       -0.1399014E-03
   maximum displ.:     0.0756926 α      in ANC's #102, #16, #6, ...

........................................................................
.............................. CYCLE   37 ..............................
........................................................................

 iter      E             dE          RMSdq      gap      omega  full diag
   1   -404.5461909 -0.404546E+03  0.313E-02    0.61       0.0  T
   2   -404.5461588  0.321362E-04  0.190E-02    0.61       1.0  T
   3   -404.5461615 -0.270164E-05  0.227E-02    0.61       1.0  T
   4   -404.5458494  0.312084E-03  0.310E-02    0.61       1.0  T
   5   -404.5461586 -0.309238E-03  0.190E-03    0.61       3.4  T
   6   -404.5461952 -0.365433E-04  0.267E-03    0.61       2.4  T
   7   -404.5461642  0.309558E-04  0.111E-03    0.61       5.8  T
   8   -404.5461716 -0.734363E-05  0.335E-04    0.61      19.2  T
   9   -404.5461727 -0.112851E-05  0.168E-04    0.61      38.3  T
  10   -404.5461722  0.489430E-06  0.111E-04    0.61      58.3  T
  11   -404.5461723 -0.902370E-07  0.546E-05    0.61     117.9  T
     SCC iter.                  ...        0 min,  0.993 sec
     gradient                   ...        0 min,  0.269 sec
 * total energy  :  -399.6319371 Eh     change       -0.8886483E-04 Eh
   gradient norm :     0.0042912 Eh/α   predicted    -0.7611173E-04 ( -14.35%)
   displ. norm   :     0.1631645 α      lambda       -0.1152818E-03
   maximum displ.:     0.0463513 α      in ANC's #16, #6, #3, ...

........................................................................
.............................. CYCLE   38 ..............................
........................................................................

 iter      E             dE          RMSdq      gap      omega  full diag
   1   -404.5485955 -0.404549E+03  0.182E-02    0.61       0.0  T
   2   -404.5485497  0.458005E-04  0.120E-02    0.61       1.0  T
   3   -404.5486060 -0.562890E-04  0.123E-02    0.61       1.0  T
   4   -404.5483233  0.282644E-03  0.212E-02    0.61       1.0  T
   5   -404.5485346 -0.211307E-03  0.495E-03    0.61       1.3  T
   6   -404.5485894 -0.547429E-04  0.263E-03    0.61       2.4  T
   7   -404.5485650  0.243944E-04  0.884E-04    0.61       7.3  T
   8   -404.5485686 -0.366935E-05  0.307E-04    0.61      21.0  T
   9   -404.5485702 -0.158203E-05  0.170E-04    0.61      37.8  T
  10   -404.5485692  0.105179E-05  0.119E-04    0.61      54.2  T
  11   -404.5485697 -0.556145E-06  0.530E-05    0.61     121.5  T
  12   -404.5485695  0.279850E-06  0.402E-05    0.61     160.2  T
     SCC iter.                  ...        0 min,  1.076 sec
     gradient                   ...        0 min,  0.276 sec
 * total energy  :  -399.6320061 Eh     change       -0.6901495E-04 Eh
   gradient norm :     0.0037116 Eh/α   predicted    -0.5917792E-04 ( -14.25%)
   displ. norm   :     0.2304867 α      lambda       -0.7176362E-04
   maximum displ.:     0.0620615 α      in ANC's #16, #6, #22, ...

........................................................................
.............................. CYCLE   39 ..............................
........................................................................

 iter      E             dE          RMSdq      gap      omega  full diag
   1   -404.5474085 -0.404547E+03  0.238E-02    0.61       0.0  T
   2   -404.5473419  0.666244E-04  0.153E-02    0.61       1.0  T
   3   -404.5473690 -0.270723E-04  0.288E-02    0.61       1.0  T
   4   -404.5471380  0.230988E-03  0.263E-02    0.61       1.0  T
   5   -404.5473236 -0.185586E-03  0.536E-03    0.61       1.2  T
   6   -404.5473892 -0.656246E-04  0.199E-03    0.61       3.2  T
   7   -404.5473755  0.136822E-04  0.583E-04    0.61      11.1  T
   8   -404.5473760 -0.507454E-06  0.245E-04    0.61      26.3  T
   9   -404.5473764 -0.361518E-06  0.128E-04    0.61      50.3  T
     SCC iter.                  ...        0 min,  0.847 sec
     gradient                   ...        0 min,  0.270 sec
 * total energy  :  -399.6320567 Eh     change       -0.5054394E-04 Eh
   gradient norm :     0.0028311 Eh/α   predicted    -0.3778979E-04 ( -25.23%)
   displ. norm   :     0.1761218 α      lambda       -0.5892317E-04
   maximum displ.:     0.0498734 α      in ANC's #16, #6, #46, ...

........................................................................
.............................. CYCLE   40 ..............................
........................................................................

 iter      E             dE          RMSdq      gap      omega  full diag
   1   -404.5476361 -0.404548E+03  0.176E-02    0.61       0.0  T
   2   -404.5475660  0.700963E-04  0.117E-02    0.61       1.0  T
   3   -404.5476541 -0.880803E-04  0.198E-02    0.61       1.0  T
   4   -404.5474052  0.248889E-03  0.211E-02    0.61       1.0  T
   5   -404.5475474 -0.142203E-03  0.569E-03    0.61       1.1  T
   6   -404.5476097 -0.622741E-04  0.222E-03    0.61       2.9  T
   7   -404.5475944  0.153007E-04  0.523E-04    0.61      12.3  T
   8   -404.5475954 -0.992682E-06  0.269E-04    0.61      24.0  T
   9   -404.5475962 -0.822461E-06  0.132E-04    0.61      48.7  T
     SCC iter.                  ...        0 min,  0.837 sec
     gradient                   ...        0 min,  0.272 sec
 * total energy  :  -399.6320963 Eh     change       -0.3958925E-04 Eh
   gradient norm :     0.0018918 Eh/α   predicted    -0.3037679E-04 ( -23.27%)
   displ. norm   :     0.2391180 α      lambda       -0.4246119E-04
   maximum displ.:     0.0677902 α      in ANC's #16, #6, #46, ...

........................................................................
.............................. CYCLE   41 ..............................
........................................................................

 iter      E             dE          RMSdq      gap      omega  full diag
   1   -404.5478162 -0.404548E+03  0.235E-02    0.61       0.0  T
   2   -404.5477579  0.582720E-04  0.154E-02    0.61       1.0  T
   3   -404.5478287 -0.707736E-04  0.155E-02    0.61       1.0  T
   4   -404.5475365  0.292159E-03  0.169E-02    0.61       1.0  T
   5   -404.5477718 -0.235280E-03  0.364E-03    0.61       1.8  T
   6   -404.5477732 -0.135810E-05  0.355E-03    0.61       1.8  T
   7   -404.5477609  0.122962E-04  0.851E-04    0.61       7.6  T
   8   -404.5477653 -0.445725E-05  0.372E-04    0.61      17.3  T
   9   -404.5477662 -0.825242E-06  0.163E-04    0.61      39.4  T
  10   -404.5477654  0.751830E-06  0.118E-04    0.61      54.7  T
     SCC iter.                  ...        0 min,  0.911 sec
     gradient                   ...        0 min,  0.271 sec
 * total energy  :  -399.6321287 Eh     change       -0.3237690E-04 Eh
   gradient norm :     0.0031008 Eh/α   predicted    -0.2177084E-04 ( -32.76%)
   displ. norm   :     0.1373091 α      lambda       -0.4185242E-04
   maximum displ.:     0.0379949 α      in ANC's #16, #6, #3, ...

........................................................................
.............................. CYCLE   42 ..............................
........................................................................

 iter      E             dE          RMSdq      gap      omega  full diag
   1   -404.5474211 -0.404547E+03  0.131E-02    0.61       0.0  T
   2   -404.5474108  0.102667E-04  0.821E-03    0.61       1.0  T
   3   -404.5473895  0.213115E-04  0.867E-03    0.61       1.0  T
   4   -404.5473982 -0.863894E-05  0.121E-02    0.61       1.0  T
   5   -404.5473997 -0.148377E-05  0.145E-03    0.61       4.5  T
   6   -404.5473975  0.217092E-05  0.738E-04    0.61       8.7  T
   7   -404.5474110 -0.135048E-04  0.874E-04    0.61       7.4  T
   8   -404.5474020  0.899384E-05  0.211E-04    0.61      30.5  T
   9   -404.5474037 -0.172600E-05  0.878E-05    0.61      73.3  T
  10   -404.5474038 -0.128923E-06  0.559E-05    0.61     115.1  T
  11   -404.5474041 -0.260043E-06  0.420E-05    0.61     153.2  T
     SCC iter.                  ...        0 min,  0.966 sec
     gradient                   ...        0 min,  0.275 sec
 * total energy  :  -399.6321581 Eh     change       -0.2946447E-04 Eh
   gradient norm :     0.0025293 Eh/α   predicted    -0.2132246E-04 ( -27.63%)
   displ. norm   :     0.1247155 α      lambda       -0.5107194E-04
   maximum displ.:     0.0309792 α      in ANC's #59, #3, #38, ...
 * RMSD in coord.:     0.3453890 α      energy gain  -0.3871235E-02 Eh

generating ANC from exact Hessian ...
Using Lindh-Hessian (1995)
 Shifting diagonal of input Hessian by    1.4774140653752366E-002
 Lowest  eigenvalues of input Hessian
    0.010000    0.014566    0.014700    0.014721    0.000000    0.000000
    0.000000    0.000000    0.000000    0.000000    0.014808    0.014816
    0.014827    0.014856    0.014867    0.014897    0.014928    0.014947
 Highest eigenvalues
    2.398639    2.619894    2.621112    2.742729    3.230207    3.292990


........................................................................
.............................. CYCLE   43 ..............................
........................................................................

 iter      E             dE          RMSdq      gap      omega  full diag
   1   -404.5495399 -0.404550E+03  0.114E-02    0.61       0.0  T
   2   -404.5495619 -0.220054E-04  0.754E-03    0.61       1.0  T
   3   -404.5493316  0.230301E-03  0.181E-02    0.61       1.0  T
   4   -404.5495377 -0.206058E-03  0.853E-03    0.61       1.0  T
   5   -404.5495542 -0.165207E-04  0.551E-03    0.61       1.2  T
   6   -404.5495204  0.337985E-04  0.122E-03    0.61       5.3  T
   7   -404.5495342 -0.137914E-04  0.506E-04    0.61      12.7  T
   8   -404.5495331  0.111009E-05  0.227E-04    0.61      28.3  T
   9   -404.5495334 -0.307020E-06  0.137E-04    0.61      47.1  T
  10   -404.5495339 -0.468760E-06  0.951E-05    0.61      67.7  T
     SCC iter.                  ...        0 min,  0.919 sec
     gradient                   ...        0 min,  0.269 sec
 * total energy  :  -399.6321878 Eh     change       -0.2967010E-04 Eh
   gradient norm :     0.0023492 Eh/α   predicted     0.0000000E+00 (-100.00%)
   displ. norm   :     0.0226452 α      lambda       -0.1675766E-04
   maximum displ.:     0.0075408 α      in ANC's #106, #45, #13, ...

........................................................................
.............................. CYCLE   44 ..............................
........................................................................

 iter      E             dE          RMSdq      gap      omega  full diag
   1   -404.5486060 -0.404549E+03  0.279E-03    0.61       0.0  T
   2   -404.5486117 -0.569031E-05  0.199E-03    0.61       3.2  T
   3   -404.5486079  0.380136E-05  0.486E-03    0.61       1.3  T
   4   -404.5486071  0.789439E-06  0.211E-03    0.61       3.0  T
   5   -404.5486205 -0.134170E-04  0.760E-04    0.61       8.5  T
   6   -404.5486085  0.120404E-04  0.536E-04    0.61      12.0  T
   7   -404.5486144 -0.587419E-05  0.137E-04    0.61      47.1  T
   8   -404.5486137  0.676708E-06  0.652E-05    0.61      98.8  T
   9   -404.5486139 -0.247552E-06  0.392E-05    0.61     164.3  T
     SCC iter.                  ...        0 min,  0.788 sec
     gradient                   ...        0 min,  0.270 sec
 * total energy  :  -399.6322020 Eh     change       -0.1422423E-04 Eh
   gradient norm :     0.0011249 Eh/α   predicted    -0.8566488E-05 ( -39.78%)
   displ. norm   :     0.1290605 α      lambda       -0.4222718E-04
   maximum displ.:     0.0451077 α      in ANC's #106, #45, #13, ...

........................................................................
.............................. CYCLE   45 ..............................
........................................................................

 iter      E             dE          RMSdq      gap      omega  full diag
   1   -404.5454612 -0.404545E+03  0.141E-02    0.61       0.0  T
   2   -404.5454972 -0.359789E-04  0.942E-03    0.61       1.0  T
   3   -404.5453457  0.151510E-03  0.224E-02    0.61       1.0  T
   4   -404.5454473 -0.101588E-03  0.120E-02    0.61       1.0  T
   5   -404.5455414 -0.941531E-04  0.482E-03    0.61       1.3  T
   6   -404.5454858  0.556120E-04  0.165E-03    0.61       3.9  T
   7   -404.5455037 -0.178595E-04  0.480E-04    0.61      13.4  T
   8   -404.5455013  0.234593E-05  0.294E-04    0.61      21.9  T
   9   -404.5455029 -0.156712E-05  0.186E-04    0.61      34.7  T
  10   -404.5455017  0.121796E-05  0.112E-04    0.61      57.5  T
  11   -404.5455019 -0.281049E-06  0.732E-05    0.61      88.0  T
  12   -404.5455021 -0.135305E-06  0.429E-05    0.61     150.1  T
     SCC iter.                  ...        0 min,  1.078 sec
     gradient                   ...        0 min,  0.267 sec
 * total energy  :  -399.6322180 Eh     change       -0.1593523E-04 Eh
   gradient norm :     0.0044361 Eh/α   predicted    -0.2127160E-04 (  33.49%)
   displ. norm   :     0.0232548 α      lambda       -0.2537172E-04
   maximum displ.:     0.0078116 α      in ANC's #13, #106, #45, ...

........................................................................
.............................. CYCLE   46 ..............................
........................................................................

 iter      E             dE          RMSdq      gap      omega  full diag
   1   -404.5465639 -0.404547E+03  0.324E-03    0.61       0.0  T
   2   -404.5465720 -0.809716E-05  0.221E-03    0.61       2.9  T
   3   -404.5465336  0.384229E-04  0.382E-03    0.61       1.7  T
   4   -404.5465809 -0.473232E-04  0.290E-03    0.61       2.2  T
   5   -404.5465775  0.339848E-05  0.181E-03    0.61       3.6  T
   6   -404.5465651  0.123793E-04  0.452E-04    0.61      14.3  T
   7   -404.5465672 -0.207633E-05  0.111E-04    0.61      57.8  T
   8   -404.5465670  0.230880E-06  0.528E-05    0.61     121.9  T
   9   -404.5465673 -0.345079E-06  0.312E-05    0.61     206.2  T
     SCC iter.                  ...        0 min,  0.799 sec
     gradient                   ...        0 min,  0.274 sec
 * total energy  :  -399.6322358 Eh     change       -0.1784209E-04 Eh
   gradient norm :     0.0030736 Eh/α   predicted    -0.1270245E-04 ( -28.81%)
   displ. norm   :     0.0443610 α      lambda       -0.2893698E-04
   maximum displ.:     0.0163439 α      in ANC's #13, #106, #3, ...

........................................................................
.............................. CYCLE   47 ..............................
........................................................................

 iter      E             dE          RMSdq      gap      omega  full diag
   1   -404.5485522 -0.404549E+03  0.491E-03    0.61       0.0  T
   2   -404.5485544 -0.218376E-05  0.314E-03    0.61       2.1  T
   3   -404.5485445  0.992613E-05  0.380E-03    0.61       1.7  T
   4   -404.5485536 -0.915729E-05  0.506E-03    0.61       1.3  T
   5   -404.5485607 -0.703695E-05  0.109E-03    0.61       5.9  T
   6   -404.5485450  0.157147E-04  0.938E-04    0.61       6.9  T
   7   -404.5485563 -0.113093E-04  0.259E-04    0.61      24.8  T
   8   -404.5485540  0.227701E-05  0.882E-05    0.61      73.0  T
   9   -404.5485543 -0.360799E-06  0.437E-05    0.61     147.5  T
  10   -404.5485543  0.338595E-07  0.295E-05    0.61     218.1  T
     SCC iter.                  ...        0 min,  0.870 sec
     gradient                   ...        0 min,  0.272 sec
 * total energy  :  -399.6322553 Eh     change       -0.1946533E-04 Eh
   gradient norm :     0.0010363 Eh/α   predicted    -0.1449906E-04 ( -25.51%)
   displ. norm   :     0.1342951 α      lambda       -0.2122211E-04
   maximum displ.:     0.0499886 α      in ANC's #13, #106, #45, ...

........................................................................
.............................. CYCLE   48 ..............................
........................................................................

 iter      E             dE          RMSdq      gap      omega  full diag
   1   -404.5497293 -0.404550E+03  0.124E-02    0.61       0.0  T
   2   -404.5497376 -0.829528E-05  0.789E-03    0.61       1.0  T
   3   -404.5496231  0.114507E-03  0.193E-02    0.61       1.0  T
   4   -404.5496989 -0.758208E-04  0.101E-02    0.61       1.0  T
   5   -404.5497642 -0.653053E-04  0.312E-03    0.61       2.1  T
   6   -404.5497263  0.379271E-04  0.113E-03    0.61       5.7  T
   7   -404.5497381 -0.118087E-04  0.301E-04    0.61      21.4  T
   8   -404.5497368  0.130699E-05  0.156E-04    0.61      41.4  T
   9   -404.5497371 -0.396611E-06  0.972E-05    0.61      66.3  T
  10   -404.5497371  0.451372E-07  0.739E-05    0.61      87.2  T
     SCC iter.                  ...        0 min,  0.901 sec
     gradient                   ...        0 min,  0.269 sec
 * total energy  :  -399.6322778 Eh     change       -0.2250310E-04 Eh
   gradient norm :     0.0022021 Eh/α   predicted    -0.1072455E-04 ( -52.34%)
   displ. norm   :     0.1532756 α      lambda       -0.2902433E-04
   maximum displ.:     0.0587350 α      in ANC's #13, #106, #45, ...

........................................................................
.............................. CYCLE   49 ..............................
........................................................................

 iter      E             dE          RMSdq      gap      omega  full diag
   1   -404.5493229 -0.404549E+03  0.142E-02    0.61       0.0  T
   2   -404.5493314 -0.848566E-05  0.963E-03    0.61       1.0  T
   3   -404.5492954  0.360445E-04  0.153E-02    0.61       1.0  T
   4   -404.5492126  0.827786E-04  0.194E-02    0.61       1.0  T
   5   -404.5493465 -0.133963E-03  0.178E-03    0.61       3.6  T
   6   -404.5493180  0.285410E-04  0.160E-03    0.61       4.0  T
   7   -404.5493368 -0.188036E-04  0.337E-04    0.61      19.1  T
   8   -404.5493344  0.242734E-05  0.163E-04    0.61      39.6  T
   9   -404.5493349 -0.530113E-06  0.837E-05    0.61      77.0  T
  10   -404.5493349 -0.105123E-07  0.591E-05    0.61     109.0  T
     SCC iter.                  ...        0 min,  0.906 sec
     gradient                   ...        0 min,  0.272 sec
 * total energy  :  -399.6323009 Eh     change       -0.2311308E-04 Eh
   gradient norm :     0.0020471 Eh/α   predicted    -0.1486751E-04 ( -35.67%)
   displ. norm   :     0.2811333 α      lambda       -0.4327154E-04
   maximum displ.:     0.1109159 α      in ANC's #13, #106, #3, ...

........................................................................
.............................. CYCLE   50 ..............................
........................................................................

 iter      E             dE          RMSdq      gap      omega  full diag
   1   -404.5480127 -0.404548E+03  0.254E-02    0.60       0.0  T
   2   -404.5480117  0.985748E-06  0.160E-02    0.60       1.0  T
   3   -404.5476141  0.397630E-03  0.394E-02    0.60       1.0  T
   4   -404.5478971 -0.283089E-03  0.192E-02    0.60       1.0  T
   5   -404.5480444 -0.147245E-03  0.486E-03    0.60       1.3  T
   6   -404.5479872  0.571593E-04  0.182E-03    0.60       3.5  T
   7   -404.5480137 -0.264779E-04  0.792E-04    0.60       8.1  T
   8   -404.5480084  0.529174E-05  0.316E-04    0.60      20.4  T
   9   -404.5480084  0.525627E-07  0.207E-04    0.60      31.1  T
  10   -404.5480089 -0.571928E-06  0.133E-04    0.60      48.5  T
     SCC iter.                  ...        0 min,  0.916 sec
     gradient                   ...        0 min,  0.275 sec
 * total energy  :  -399.6323242 Eh     change       -0.2337083E-04 Eh
   gradient norm :     0.0015375 Eh/α   predicted    -0.2334727E-04 (  -0.10%)
   displ. norm   :     0.1479341 α      lambda       -0.1772493E-04
   maximum displ.:     0.0633954 α      in ANC's #13, #3, #106, ...

........................................................................
.............................. CYCLE   51 ..............................
........................................................................

 iter      E             dE          RMSdq      gap      omega  full diag
   1   -404.5480451 -0.404548E+03  0.150E-02    0.60       0.0  T
   2   -404.5480280  0.171126E-04  0.123E-02    0.60       1.0  T
   3   -404.5480564 -0.283979E-04  0.845E-03    0.60       1.0  T
   4   -404.5478760  0.180396E-03  0.166E-02    0.60       1.0  T
   5   -404.5480378 -0.161752E-03  0.395E-03    0.60       1.6  T
   6   -404.5480595 -0.217662E-04  0.290E-03    0.60       2.2  T
   7   -404.5480358  0.236988E-04  0.488E-04    0.60      13.2  T
   8   -404.5480392 -0.335464E-05  0.228E-04    0.60      28.3  T
   9   -404.5480398 -0.631031E-06  0.100E-04    0.60      64.2  T
  10   -404.5480398  0.397268E-07  0.866E-05    0.60      74.4  T
     SCC iter.                  ...        0 min,  0.896 sec
     gradient                   ...        0 min,  0.274 sec
 * total energy  :  -399.6323407 Eh     change       -0.1643598E-04 Eh
   gradient norm :     0.0012880 Eh/α   predicted    -0.8955119E-05 ( -45.52%)
   displ. norm   :     0.1874143 α      lambda       -0.2811818E-04
   maximum displ.:     0.0807160 α      in ANC's #13, #3, #45, ...

........................................................................
.............................. CYCLE   52 ..............................
........................................................................

 iter      E             dE          RMSdq      gap      omega  full diag
   1   -404.5487833 -0.404549E+03  0.171E-02    0.60       0.0  T
   2   -404.5487626  0.207600E-04  0.116E-02    0.60       1.0  T
   3   -404.5487340  0.285874E-04  0.137E-02    0.60       1.0  T
   4   -404.5486003  0.133717E-03  0.263E-02    0.60       1.0  T
   5   -404.5487311 -0.130830E-03  0.229E-03    0.60       2.8  T
   6   -404.5487735 -0.423923E-04  0.226E-03    0.60       2.8  T
   7   -404.5487507  0.227556E-04  0.553E-04    0.60      11.6  T
   8   -404.5487550 -0.423643E-05  0.253E-04    0.60      25.4  T
   9   -404.5487541  0.861634E-06  0.141E-04    0.60      45.7  T
  10   -404.5487546 -0.534108E-06  0.749E-05    0.60      86.0  T
     SCC iter.                  ...        0 min,  0.915 sec
     gradient                   ...        0 min,  0.272 sec
 * total energy  :  -399.6323693 Eh     change       -0.2862250E-04 Eh
   gradient norm :     0.0018773 Eh/α   predicted    -0.1427949E-04 ( -50.11%)
   displ. norm   :     0.2455150 α      lambda       -0.2915297E-04
   maximum displ.:     0.1084882 α      in ANC's #13, #3, #45, ...

........................................................................
.............................. CYCLE   53 ..............................
........................................................................

 iter      E             dE          RMSdq      gap      omega  full diag
   1   -404.5488792 -0.404549E+03  0.227E-02    0.60       0.0  T
   2   -404.5488066  0.726209E-04  0.158E-02    0.60       1.0  T
   3   -404.5488281 -0.215056E-04  0.187E-02    0.60       1.0  T
   4   -404.5484493  0.378839E-03  0.349E-02    0.60       1.0  T
   5   -404.5488210 -0.371722E-03  0.305E-03    0.60       2.1  T
   6   -404.5488337 -0.127169E-04  0.108E-03    0.60       6.0  T
   7   -404.5488083  0.254590E-04  0.167E-03    0.60       3.9  T
   8   -404.5488271 -0.188464E-04  0.351E-04    0.60      18.4  T
   9   -404.5488265  0.637052E-06  0.173E-04    0.60      37.2  T
  10   -404.5488271 -0.627419E-06  0.111E-04    0.60      58.1  T
     SCC iter.                  ...        0 min,  0.934 sec
     gradient                   ...        0 min,  0.271 sec
 * total energy  :  -399.6323912 Eh     change       -0.2184942E-04 Eh
   gradient norm :     0.0021446 Eh/α   predicted    -0.1496784E-04 ( -31.50%)
   displ. norm   :     0.1471079 α      lambda       -0.2532160E-04
   maximum displ.:     0.0650930 α      in ANC's #13, #3, #45, ...

........................................................................
.............................. CYCLE   54 ..............................
........................................................................

 iter      E             dE          RMSdq      gap      omega  full diag
   1   -404.5485275 -0.404549E+03  0.134E-02    0.60       0.0  T
   2   -404.5485300 -0.250569E-05  0.913E-03    0.60       1.0  T
   3   -404.5485054  0.246119E-04  0.111E-02    0.60       1.0  T
   4   -404.5484307  0.747692E-04  0.208E-02    0.60       1.0  T
   5   -404.5485085 -0.777910E-04  0.216E-03    0.60       3.0  T
   6   -404.5485438 -0.353264E-04  0.171E-03    0.60       3.8  T
   7   -404.5485251  0.186439E-04  0.432E-04    0.60      14.9  T
   8   -404.5485290 -0.382146E-05  0.178E-04    0.60      36.3  T
   9   -404.5485284  0.550882E-06  0.902E-05    0.60      71.4  T
  10   -404.5485283  0.949668E-07  0.542E-05    0.60     118.9  T
     SCC iter.                  ...        0 min,  0.902 sec
     gradient                   ...        0 min,  0.273 sec
 * total energy  :  -399.6324092 Eh     change       -0.1807866E-04 Eh
   gradient norm :     0.0015831 Eh/α   predicted    -0.1293510E-04 ( -28.45%)
   displ. norm   :     0.2450945 α      lambda       -0.2856935E-04
   maximum displ.:     0.1067097 α      in ANC's #13, #3, #45, ...

........................................................................
.............................. CYCLE   55 ..............................
........................................................................

 iter      E             dE          RMSdq      gap      omega  full diag
   1   -404.5487809 -0.404549E+03  0.208E-02    0.60       0.0  T
   2   -404.5487687  0.122394E-04  0.141E-02    0.60       1.0  T
   3   -404.5488101 -0.414012E-04  0.136E-02    0.60       1.0  T
   4   -404.5484581  0.351968E-03  0.264E-02    0.60       1.0  T
   5   -404.5487387 -0.280585E-03  0.537E-03    0.60       1.2  T
   6   -404.5488028 -0.641053E-04  0.273E-03    0.60       2.4  T
   7   -404.5487802  0.226149E-04  0.627E-04    0.60      10.3  T
   8   -404.5487839 -0.371408E-05  0.283E-04    0.60      22.8  T
   9   -404.5487836  0.302926E-06  0.155E-04    0.60      41.6  T
  10   -404.5487833  0.258771E-06  0.988E-05    0.60      65.2  T
     SCC iter.                  ...        0 min,  0.910 sec
     gradient                   ...        0 min,  0.273 sec
 * total energy  :  -399.6324353 Eh     change       -0.2610941E-04 Eh
   gradient norm :     0.0015384 Eh/α   predicted    -0.1466666E-04 ( -43.83%)
   displ. norm   :     0.2994251 α      lambda       -0.2900782E-04
   maximum displ.:     0.1360353 α      in ANC's #13, #3, #45, ...

........................................................................
.............................. CYCLE   56 ..............................
........................................................................

 iter      E             dE          RMSdq      gap      omega  full diag
   1   -404.5478243 -0.404548E+03  0.253E-02    0.60       0.0  T
   2   -404.5477918  0.325125E-04  0.175E-02    0.60       1.0  T
   3   -404.5476759  0.115908E-03  0.331E-02    0.60       1.0  T
   4   -404.5475067  0.169168E-03  0.322E-02    0.60       1.0  T
   5   -404.5478191 -0.312349E-03  0.241E-03    0.60       2.7  T
   6   -404.5478340 -0.149583E-04  0.105E-03    0.60       6.1  T
   7   -404.5478120  0.220242E-04  0.138E-03    0.60       4.7  T
   8   -404.5478275 -0.155225E-04  0.339E-04    0.60      19.0  T
   9   -404.5478260  0.155093E-05  0.148E-04    0.60      43.7  T
  10   -404.5478260  0.207161E-07  0.100E-04    0.60      64.2  T
  11   -404.5478267 -0.738901E-06  0.747E-05    0.60      86.2  T
     SCC iter.                  ...        0 min,  0.992 sec
     gradient                   ...        0 min,  0.270 sec
 * total energy  :  -399.6324619 Eh     change       -0.2651209E-04 Eh
   gradient norm :     0.0025107 Eh/α   predicted    -0.1508965E-04 ( -43.08%)
   displ. norm   :     0.2079199 α      lambda       -0.4059756E-04
   maximum displ.:     0.0922056 α      in ANC's #13, #3, #45, ...

........................................................................
.............................. CYCLE   57 ..............................
........................................................................

 iter      E             dE          RMSdq      gap      omega  full diag
   1   -404.5478277 -0.404548E+03  0.167E-02    0.60       0.0  T
   2   -404.5478210  0.671297E-05  0.122E-02    0.60       1.0  T
   3   -404.5477150  0.105984E-03  0.255E-02    0.60       1.0  T
   4   -404.5477063  0.876343E-05  0.191E-02    0.60       1.0  T
   5   -404.5478567 -0.150416E-03  0.258E-03    0.60       2.5  T
   6   -404.5478123  0.443481E-04  0.235E-03    0.60       2.7  T
   7   -404.5478388 -0.264639E-04  0.402E-04    0.60      16.0  T
   8   -404.5478354  0.343553E-05  0.257E-04    0.60      25.0  T
   9   -404.5478368 -0.145204E-05  0.113E-04    0.60      57.2  T
  10   -404.5478370 -0.189896E-06  0.741E-05    0.60      86.9  T
  11   -404.5478370  0.640944E-07  0.550E-05    0.60     117.2  T
     SCC iter.                  ...        0 min,  0.993 sec
     gradient                   ...        0 min,  0.273 sec
 * total energy  :  -399.6324879 Eh     change       -0.2605614E-04 Eh
   gradient norm :     0.0021674 Eh/α   predicted    -0.2118129E-04 ( -18.71%)
   displ. norm   :     0.1656708 α      lambda       -0.2983984E-04
   maximum displ.:     0.0706868 α      in ANC's #13, #3, #45, ...

........................................................................
.............................. CYCLE   58 ..............................
........................................................................

 iter      E             dE          RMSdq      gap      omega  full diag
   1   -404.5488367 -0.404549E+03  0.124E-02    0.60       0.0  T
   2   -404.5488263  0.104288E-04  0.969E-03    0.60       1.0  T
   3   -404.5487901  0.362411E-04  0.160E-02    0.60       1.0  T
   4   -404.5487442  0.458743E-04  0.161E-02    0.60       1.0  T
   5   -404.5488531 -0.108903E-03  0.260E-03    0.60       2.5  T
   6   -404.5488104  0.427002E-04  0.221E-03    0.60       2.9  T
   7   -404.5488353 -0.249322E-04  0.324E-04    0.60      19.9  T
   8   -404.5488328  0.254783E-05  0.198E-04    0.60      32.5  T
   9   -404.5488338 -0.103641E-05  0.102E-04    0.60      62.9  T
  10   -404.5488338  0.660139E-07  0.797E-05    0.60      80.8  T
  11   -404.5488338 -0.574328E-07  0.536E-05    0.60     120.1  T
     SCC iter.                  ...        0 min,  0.985 sec
     gradient                   ...        0 min,  0.271 sec
 * total energy  :  -399.6325102 Eh     change       -0.2229309E-04 Eh
   gradient norm :     0.0019453 Eh/α   predicted    -0.1533172E-04 ( -31.23%)
   displ. norm   :     0.5684748 α      lambda       -0.4280506E-04
   maximum displ.:     0.2612749 α      in ANC's #13, #3, #45, ...

........................................................................
.............................. CYCLE   59 ..............................
........................................................................

 iter      E             dE          RMSdq      gap      omega  full diag
   1   -404.5469790 -0.404547E+03  0.452E-02    0.60       0.0  T
   2   -404.5469634  0.155754E-04  0.321E-02    0.60       1.0  T
   3   -404.5464076  0.555777E-03  0.531E-02    0.60       1.0  T
   4   -404.5458551  0.552551E-03  0.631E-02    0.60       1.0  T
   5   -404.5470306 -0.117556E-02  0.944E-03    0.60       1.0  T
   6   -404.5468991  0.131558E-03  0.581E-03    0.60       1.1  T
   7   -404.5469693 -0.702496E-04  0.871E-04    0.60       7.4  T
   8   -404.5469667  0.268845E-05  0.512E-04    0.60      12.6  T
   9   -404.5469678 -0.119585E-05  0.247E-04    0.60      26.1  T
  10   -404.5469682 -0.383203E-06  0.146E-04    0.60      44.1  T
  11   -404.5469678  0.397582E-06  0.116E-04    0.60      55.6  T
     SCC iter.                  ...        0 min,  1.021 sec
     gradient                   ...        0 min,  0.277 sec
 * total energy  :  -399.6325430 Eh     change       -0.3277661E-04 Eh
   gradient norm :     0.0024333 Eh/α   predicted    -0.2447768E-04 ( -25.32%)
   displ. norm   :     0.0942433 α      lambda       -0.3106672E-04
   maximum displ.:     0.0451142 α      in ANC's #106, #95, #102, ...

........................................................................
.............................. CYCLE   60 ..............................
........................................................................

 iter      E             dE          RMSdq      gap      omega  full diag
   1   -404.5493514 -0.404549E+03  0.839E-03    0.60       0.0  T
   2   -404.5493186  0.327632E-04  0.615E-03    0.60       1.0  T
   3   -404.5493554 -0.367742E-04  0.457E-03    0.60       1.4  T
   4   -404.5491986  0.156752E-03  0.943E-03    0.60       1.0  T
   5   -404.5493188 -0.120148E-03  0.117E-03    0.60       5.5  T
   6   -404.5493207 -0.190705E-05  0.109E-03    0.60       5.9  T
   7   -404.5493231 -0.237012E-05  0.806E-04    0.60       8.0  T
   8   -404.5493214  0.165761E-05  0.182E-04    0.60      35.4  T
   9   -404.5493220 -0.552839E-06  0.809E-05    0.60      79.7  T
  10   -404.5493219  0.484922E-07  0.459E-05    0.60     140.4  T
     SCC iter.                  ...        0 min,  0.883 sec
     gradient                   ...        0 min,  0.276 sec
 * total energy  :  -399.6325603 Eh     change       -0.1727661E-04 Eh
   gradient norm :     0.0022142 Eh/α   predicted    -0.1567465E-04 (  -9.27%)
   displ. norm   :     0.1476394 α      lambda       -0.2178333E-04
   maximum displ.:     0.0697145 α      in ANC's #13, #3, #45, ...

........................................................................
.............................. CYCLE   61 ..............................
........................................................................

 iter      E             dE          RMSdq      gap      omega  full diag
   1   -404.5491022 -0.404549E+03  0.120E-02    0.60       0.0  T
   2   -404.5490773  0.248890E-04  0.833E-03    0.60       1.0  T
   3   -404.5490980 -0.207221E-04  0.795E-03    0.60       1.0  T
   4   -404.5489657  0.132325E-03  0.174E-02    0.60       1.0  T
   5   -404.5490491 -0.834701E-04  0.291E-03    0.60       2.2  T
   6   -404.5490928 -0.436860E-04  0.182E-03    0.60       3.5  T
   7   -404.5490786  0.142229E-04  0.357E-04    0.60      18.0  T
   8   -404.5490797 -0.105483E-05  0.211E-04    0.60      30.5  T
   9   -404.5490789  0.737079E-06  0.103E-04    0.60      62.3  T
  10   -404.5490792 -0.268450E-06  0.665E-05    0.60      96.8  T
     SCC iter.                  ...        0 min,  0.897 sec
     gradient                   ...        0 min,  0.273 sec
 * total energy  :  -399.6325757 Eh     change       -0.1547746E-04 Eh
   gradient norm :     0.0014575 Eh/α   predicted    -0.1113159E-04 ( -28.08%)
   displ. norm   :     0.2979766 α      lambda       -0.1602870E-04
   maximum displ.:     0.1398923 α      in ANC's #13, #3, #45, ...

........................................................................
.............................. CYCLE   62 ..............................
........................................................................

 iter      E             dE          RMSdq      gap      omega  full diag
   1   -404.5482285 -0.404548E+03  0.224E-02    0.60       0.0  T
   2   -404.5482431 -0.145430E-04  0.152E-02    0.60       1.0  T
   3   -404.5481612  0.818934E-04  0.144E-02    0.60       1.0  T
   4   -404.5481459  0.152987E-04  0.305E-02    0.60       1.0  T
   5   -404.5482419 -0.960514E-04  0.333E-03    0.60       1.9  T
   6   -404.5482046  0.372664E-04  0.258E-03    0.60       2.5  T
   7   -404.5482323 -0.276537E-04  0.693E-04    0.60       9.3  T
   8   -404.5482279  0.441020E-05  0.259E-04    0.60      24.9  T
   9   -404.5482287 -0.849964E-06  0.132E-04    0.60      48.7  T
  10   -404.5482286  0.122722E-06  0.842E-05    0.60      76.5  T
     SCC iter.                  ...        0 min,  0.910 sec
     gradient                   ...        0 min,  0.272 sec
 * total energy  :  -399.6325879 Eh     change       -0.1216581E-04 Eh
   gradient norm :     0.0012830 Eh/α   predicted    -0.8333658E-05 ( -31.50%)
   displ. norm   :     0.0539994 α      lambda       -0.6807826E-05
   maximum displ.:     0.0212791 α      in ANC's #13, #3, #18, ...

........................................................................
.............................. CYCLE   63 ..............................
........................................................................

 iter      E             dE          RMSdq      gap      omega  full diag
   1   -404.5489642 -0.404549E+03  0.403E-03    0.60       0.0  T
   2   -404.5489598  0.440082E-05  0.321E-03    0.60       2.0  T
   3   -404.5489673 -0.741522E-05  0.386E-03    0.60       1.7  T
   4   -404.5489537  0.135627E-04  0.482E-03    0.60       1.3  T
   5   -404.5489707 -0.169746E-04  0.963E-04    0.60       6.7  T
   6   -404.5489612  0.945209E-05  0.625E-04    0.60      10.3  T
   7   -404.5489700 -0.880832E-05  0.298E-04    0.60      21.6  T
   8   -404.5489665  0.357297E-05  0.989E-05    0.60      65.1  T
   9   -404.5489671 -0.658191E-06  0.347E-05    0.60     185.8  T
  10   -404.5489671  0.186236E-08  0.190E-05    0.60     338.9  T
     SCC iter.                  ...        0 min,  0.870 sec
     gradient                   ...        0 min,  0.271 sec
 * total energy  :  -399.6325952 Eh     change       -0.7325819E-05 Eh
   gradient norm :     0.0009472 Eh/α   predicted    -0.3411779E-05 ( -53.43%)
   displ. norm   :     0.2429928 α      lambda       -0.1115915E-04
   maximum displ.:     0.1143338 α      in ANC's #13, #3, #6, ...

........................................................................
.............................. CYCLE   64 ..............................
........................................................................

 iter      E             dE          RMSdq      gap      omega  full diag
   1   -404.5488106 -0.404549E+03  0.166E-02    0.60       0.0  T
   2   -404.5487856  0.250454E-04  0.128E-02    0.60       1.0  T
   3   -404.5487912 -0.559542E-05  0.151E-02    0.60       1.0  T
   4   -404.5486128  0.178446E-03  0.243E-02    0.60       1.0  T
   5   -404.5488095 -0.196785E-03  0.302E-03    0.60       2.1  T
   6   -404.5488020  0.749299E-05  0.674E-04    0.60       9.6  T
   7   -404.5488180 -0.159893E-04  0.125E-03    0.60       5.1  T
   8   -404.5488042  0.138530E-04  0.315E-04    0.60      20.5  T
   9   -404.5488069 -0.276478E-05  0.876E-05    0.60      73.5  T
  10   -404.5488068  0.154354E-06  0.601E-05    0.60     107.2  T
  11   -404.5488070 -0.173802E-06  0.405E-05    0.60     159.0  T
     SCC iter.                  ...        0 min,  0.987 sec
     gradient                   ...        0 min,  0.274 sec
 * total energy  :  -399.6326043 Eh     change       -0.9045627E-05 Eh
   gradient norm :     0.0011186 Eh/α   predicted    -0.5730876E-05 ( -36.64%)
   displ. norm   :     0.1096401 α      lambda       -0.6583961E-05
   maximum displ.:     0.0494081 α      in ANC's #13, #3, #6, ...

........................................................................
.............................. CYCLE   65 ..............................
........................................................................

 iter      E             dE          RMSdq      gap      omega  full diag
   1   -404.5492730 -0.404549E+03  0.693E-03    0.60       0.0  T
   2   -404.5492827 -0.965001E-05  0.523E-03    0.60       1.2  T
   3   -404.5492523  0.303229E-04  0.537E-03    0.60       1.2  T
   4   -404.5492945 -0.421362E-04  0.940E-03    0.60       1.0  T
   5   -404.5492859  0.855931E-05  0.214E-03    0.60       3.0  T
   6   -404.5492626  0.232875E-04  0.168E-03    0.60       3.8  T
   7   -404.5492798 -0.171841E-04  0.238E-04    0.60      27.1  T
   8   -404.5492781  0.169248E-05  0.149E-04    0.60      43.2  T
   9   -404.5492785 -0.343901E-06  0.553E-05    0.60     116.4  T
  10   -404.5492783  0.205819E-06  0.374E-05    0.60     172.5  T
     SCC iter.                  ...        0 min,  0.893 sec
     gradient                   ...        0 min,  0.272 sec
 * total energy  :  -399.6326107 Eh     change       -0.6437500E-05 Eh
   gradient norm :     0.0012374 Eh/α   predicted    -0.3311934E-05 ( -48.55%)
   displ. norm   :     0.1036767 α      lambda        0.4889315E-06
   maximum displ.:     0.0467202 α      in ANC's #13, #3, #6, ...

........................................................................
.............................. CYCLE   66 ..............................
........................................................................

 iter      E             dE          RMSdq      gap      omega  full diag
   1   -404.5496768 -0.404550E+03  0.656E-03    0.60       0.0  T
   2   -404.5496851 -0.826760E-05  0.493E-03    0.60       1.3  T
   3   -404.5496600  0.250351E-04  0.474E-03    0.60       1.4  T
   4   -404.5496996 -0.395502E-04  0.915E-03    0.60       1.0  T
   5   -404.5496876  0.120317E-04  0.202E-03    0.60       3.2  T
   6   -404.5496673  0.202244E-04  0.155E-03    0.60       4.1  T
   7   -404.5496832 -0.158518E-04  0.233E-04    0.60      27.6  T
   8   -404.5496815  0.173098E-05  0.143E-04    0.60      44.9  T
   9   -404.5496818 -0.335780E-06  0.555E-05    0.60     116.0  T
  10   -404.5496816  0.205506E-06  0.379E-05    0.60     170.1  T
     SCC iter.                  ...        0 min,  0.877 sec
     gradient                   ...        0 min,  0.270 sec
 * total energy  :  -399.6326104 Eh     change        0.3160416E-06 Eh
   gradient norm :     0.0021018 Eh/α   predicted     0.2408744E-06 ( -23.78%)
   displ. norm   :     0.0439470 α      lambda       -0.8724650E-05
   maximum displ.:     0.0175709 α      in ANC's #13, #3, #4, ...
 * RMSD in coord.:     0.2202758 α      energy gain  -0.4522707E-03 Eh

generating ANC from exact Hessian ...
Using Lindh-Hessian (1995)
 Shifting diagonal of input Hessian by    1.4850594858096677E-002
 Lowest  eigenvalues of input Hessian
    0.010000    0.014581    0.014778    0.000000    0.000000    0.014820
    0.000000    0.000000    0.000000    0.000000    0.014884    0.014893
    0.014903    0.014933    0.014949    0.014967    0.015004    0.015011
 Highest eigenvalues
    2.398483    2.620158    2.620478    2.741887    3.231618    3.289035


........................................................................
.............................. CYCLE   67 ..............................
........................................................................

 iter      E             dE          RMSdq      gap      omega  full diag
   1   -404.5496668 -0.404550E+03  0.323E-03    0.60       0.0  T
   2   -404.5496483  0.184864E-04  0.266E-03    0.60       2.4  T
   3   -404.5496729 -0.246582E-04  0.207E-03    0.60       3.1  T
   4   -404.5496156  0.573112E-04  0.392E-03    0.60       1.6  T
   5   -404.5496468 -0.312032E-04  0.125E-03    0.60       5.1  T
   6   -404.5496542 -0.732101E-05  0.999E-04    0.60       6.5  T
   7   -404.5496548 -0.616492E-06  0.198E-04    0.60      32.6  T
   8   -404.5496545  0.269155E-06  0.950E-05    0.60      67.8  T
     SCC iter.                  ...        0 min,  0.718 sec
     gradient                   ...        0 min,  0.273 sec
 * total energy  :  -399.6326177 Eh     change       -0.7337632E-05 Eh
   gradient norm :     0.0013880 Eh/α   predicted     0.0000000E+00 (-100.00%)
   displ. norm   :     0.0222582 α      lambda       -0.1934891E-05
   maximum displ.:     0.0096785 α      in ANC's #1, #4, #41, ...

........................................................................
.............................. CYCLE   68 ..............................
........................................................................

 iter      E             dE          RMSdq      gap      omega  full diag
   1   -404.5486418 -0.404549E+03  0.409E-03    0.60       0.0  T
   2   -404.5486339  0.791986E-05  0.358E-03    0.60       1.8  T
   3   -404.5486469 -0.130029E-04  0.189E-03    0.60       3.4  T
   4   -404.5485977  0.491966E-04  0.342E-03    0.60       1.9  T
   5   -404.5486374 -0.397364E-04  0.101E-03    0.60       6.4  T
   6   -404.5486337  0.371560E-05  0.736E-04    0.60       8.7  T
   7   -404.5486305  0.321209E-05  0.529E-04    0.60      12.2  T
   8   -404.5486327 -0.217728E-05  0.154E-04    0.60      41.9  T
   9   -404.5486323  0.400151E-06  0.101E-04    0.60      63.7  T
  10   -404.5486323 -0.661968E-07  0.707E-05    0.60      91.1  T
     SCC iter.                  ...        0 min,  0.868 sec
     gradient                   ...        0 min,  0.269 sec
 * total energy  :  -399.6326234 Eh     change       -0.5702703E-05 Eh
   gradient norm :     0.0005381 Eh/α   predicted    -0.3425070E-05 ( -39.94%)
   displ. norm   :     0.0407349 α      lambda       -0.6914265E-05
   maximum displ.:     0.0168906 α      in ANC's #4, #1, #45, ...

........................................................................
.............................. CYCLE   69 ..............................
........................................................................

 iter      E             dE          RMSdq      gap      omega  full diag
   1   -404.5478535 -0.404548E+03  0.543E-03    0.60       0.0  T
   2   -404.5478290  0.245762E-04  0.447E-03    0.60       1.4  T
   3   -404.5478498 -0.208146E-04  0.444E-03    0.60       1.5  T
   4   -404.5478159  0.338440E-04  0.633E-03    0.60       1.0  T
   5   -404.5478362 -0.202593E-04  0.126E-03    0.60       5.1  T
   6   -404.5478490 -0.128294E-04  0.936E-04    0.60       6.9  T
   7   -404.5478356  0.134088E-04  0.605E-04    0.60      10.7  T
   8   -404.5478418 -0.615599E-05  0.186E-04    0.60      34.7  T
   9   -404.5478417  0.956230E-07  0.951E-05    0.60      67.7  T
  10   -404.5478417 -0.851389E-07  0.735E-05    0.60      87.6  T
     SCC iter.                  ...        0 min,  0.868 sec
     gradient                   ...        0 min,  0.274 sec
 * total energy  :  -399.6326273 Eh     change       -0.3847255E-05 Eh
   gradient norm :     0.0013931 Eh/α   predicted    -0.3498915E-05 (  -9.05%)
   displ. norm   :     0.0435779 α      lambda       -0.6680079E-05
   maximum displ.:     0.0209390 α      in ANC's #4, #45, #2, ...

........................................................................
.............................. CYCLE   70 ..............................
........................................................................

 iter      E             dE          RMSdq      gap      omega  full diag
   1   -404.5481679 -0.404548E+03  0.484E-03    0.60       0.0  T
   2   -404.5481849 -0.169980E-04  0.406E-03    0.60       1.6  T
   3   -404.5481389  0.459916E-04  0.412E-03    0.60       1.6  T
   4   -404.5481980 -0.590645E-04  0.545E-03    0.60       1.2  T
   5   -404.5481841  0.138960E-04  0.279E-03    0.60       2.3  T
   6   -404.5481674  0.166839E-04  0.764E-04    0.60       8.4  T
   7   -404.5481713 -0.385662E-05  0.188E-04    0.60      34.2  T
   8   -404.5481714 -0.160092E-06  0.114E-04    0.60      56.3  T
   9   -404.5481716 -0.191729E-06  0.526E-05    0.60     122.4  T
     SCC iter.                  ...        0 min,  0.791 sec
     gradient                   ...        0 min,  0.273 sec
 * total energy  :  -399.6326349 Eh     change       -0.7620581E-05 Eh
   gradient norm :     0.0010790 Eh/α   predicted    -0.3343090E-05 ( -56.13%)
   displ. norm   :     0.1009944 α      lambda       -0.1072232E-04
   maximum displ.:     0.0527513 α      in ANC's #4, #45, #14, ...

........................................................................
.............................. CYCLE   71 ..............................
........................................................................

 iter      E             dE          RMSdq      gap      omega  full diag
   1   -404.5489352 -0.404549E+03  0.104E-02    0.60       0.0  T
   2   -404.5489542 -0.190007E-04  0.709E-03    0.60       1.0  T
   3   -404.5488684  0.858556E-04  0.103E-02    0.60       1.0  T
   4   -404.5489489 -0.805050E-04  0.122E-02    0.60       1.0  T
   5   -404.5489577 -0.879024E-05  0.316E-03    0.60       2.0  T
   6   -404.5489226  0.350299E-04  0.172E-03    0.60       3.7  T
   7   -404.5489379 -0.152995E-04  0.333E-04    0.60      19.3  T
   8   -404.5489394 -0.150358E-05  0.236E-04    0.60      27.3  T
   9   -404.5489387  0.732930E-06  0.129E-04    0.60      50.0  T
  10   -404.5489386  0.900966E-07  0.822E-05    0.60      78.3  T
     SCC iter.                  ...        0 min,  0.894 sec
     gradient                   ...        0 min,  0.271 sec
 * total energy  :  -399.6326424 Eh     change       -0.7533543E-05 Eh
   gradient norm :     0.0011355 Eh/α   predicted    -0.5388758E-05 ( -28.47%)
   displ. norm   :     0.1058445 α      lambda       -0.1044490E-04
   maximum displ.:     0.0581610 α      in ANC's #4, #45, #14, ...

........................................................................
.............................. CYCLE   72 ..............................
........................................................................

 iter      E             dE          RMSdq      gap      omega  full diag
   1   -404.5492485 -0.404549E+03  0.986E-03    0.60       0.0  T
   2   -404.5492213  0.271635E-04  0.657E-03    0.60       1.0  T
   3   -404.5492022  0.191026E-04  0.126E-02    0.60       1.0  T
   4   -404.5491920  0.102410E-04  0.116E-02    0.60       1.0  T
   5   -404.5492425 -0.505330E-04  0.265E-03    0.60       2.4  T
   6   -404.5492090  0.334631E-04  0.173E-03    0.60       3.7  T
   7   -404.5492304 -0.213823E-04  0.364E-04    0.60      17.7  T
   8   -404.5492273  0.317048E-05  0.185E-04    0.60      34.9  T
   9   -404.5492290 -0.172937E-05  0.813E-05    0.60      79.3  T
  10   -404.5492291 -0.102733E-06  0.544E-05    0.60     118.5  T
  11   -404.5492291 -0.315769E-07  0.395E-05    0.60     163.0  T
     SCC iter.                  ...        0 min,  0.985 sec
     gradient                   ...        0 min,  0.274 sec
 * total energy  :  -399.6326498 Eh     change       -0.7374505E-05 Eh
   gradient norm :     0.0013596 Eh/α   predicted    -0.5249070E-05 ( -28.82%)
   displ. norm   :     0.0652598 α      lambda       -0.7647599E-05
   maximum displ.:     0.0379724 α      in ANC's #4, #45, #14, ...

........................................................................
.............................. CYCLE   73 ..............................
........................................................................

 iter      E             dE          RMSdq      gap      omega  full diag
   1   -404.5489759 -0.404549E+03  0.623E-03    0.60       0.0  T
   2   -404.5489811 -0.517273E-05  0.447E-03    0.60       1.4  T
   3   -404.5489454  0.356619E-04  0.715E-03    0.60       1.0  T
   4   -404.5489921 -0.467155E-04  0.799E-03    0.60       1.0  T
   5   -404.5489875  0.464983E-05  0.138E-03    0.60       4.7  T
   6   -404.5489711  0.163672E-04  0.924E-04    0.60       7.0  T
   7   -404.5489808 -0.968191E-05  0.184E-04    0.60      35.0  T
   8   -404.5489801  0.657360E-06  0.960E-05    0.60      67.1  T
   9   -404.5489804 -0.323889E-06  0.544E-05    0.60     118.5  T
     SCC iter.                  ...        0 min,  0.794 sec
     gradient                   ...        0 min,  0.270 sec
 * total energy  :  -399.6326584 Eh     change       -0.8592899E-05 Eh
   gradient norm :     0.0009126 Eh/α   predicted    -0.3831649E-05 ( -55.41%)
   displ. norm   :     0.2301298 α      lambda       -0.2281069E-04
   maximum displ.:     0.1370300 α      in ANC's #4, #45, #14, ...

........................................................................
.............................. CYCLE   74 ..............................
........................................................................

 iter      E             dE          RMSdq      gap      omega  full diag
   1   -404.5478438 -0.404548E+03  0.209E-02    0.60       0.0  T
   2   -404.5478657 -0.219346E-04  0.135E-02    0.60       1.0  T
   3   -404.5474800  0.385751E-03  0.355E-02    0.60       1.0  T
   4   -404.5478572 -0.377170E-03  0.148E-02    0.60       1.0  T
   5   -404.5478650 -0.781182E-05  0.253E-03    0.60       2.5  T
   6   -404.5478887 -0.237199E-04  0.180E-03    0.60       3.6  T
   7   -404.5478633  0.253861E-04  0.101E-03    0.60       6.4  T
   8   -404.5478762 -0.129387E-04  0.385E-04    0.60      16.7  T
   9   -404.5478732  0.303633E-05  0.190E-04    0.60      33.9  T
  10   -404.5478735 -0.303238E-06  0.133E-04    0.60      48.5  T
  11   -404.5478739 -0.394831E-06  0.988E-05    0.60      65.2  T
     SCC iter.                  ...        0 min,  0.998 sec
     gradient                   ...        0 min,  0.274 sec
 * total energy  :  -399.6326763 Eh     change       -0.1791822E-04 Eh
   gradient norm :     0.0017200 Eh/α   predicted    -0.1168089E-04 ( -34.81%)
   displ. norm   :     0.1391139 α      lambda       -0.1122565E-04
   maximum displ.:     0.0853139 α      in ANC's #4, #45, #14, ...

........................................................................
.............................. CYCLE   75 ..............................
........................................................................

 iter      E             dE          RMSdq      gap      omega  full diag
   1   -404.5480610 -0.404548E+03  0.134E-02    0.60       0.0  T
   2   -404.5480134  0.475213E-04  0.101E-02    0.60       1.0  T
   3   -404.5480539 -0.404396E-04  0.121E-02    0.60       1.0  T
   4   -404.5478721  0.181813E-03  0.208E-02    0.60       1.0  T
   5   -404.5479930 -0.120931E-03  0.327E-03    0.60       2.0  T
   6   -404.5480430 -0.500343E-04  0.231E-03    0.60       2.8  T
   7   -404.5480258  0.172529E-04  0.513E-04    0.60      12.5  T
   8   -404.5480276 -0.179100E-05  0.277E-04    0.60      23.2  T
   9   -404.5480275  0.694686E-07  0.149E-04    0.60      43.4  T
  10   -404.5480268  0.676777E-06  0.116E-04    0.60      55.7  T
     SCC iter.                  ...        0 min,  0.906 sec
     gradient                   ...        0 min,  0.268 sec
 * total energy  :  -399.6326873 Eh     change       -0.1102461E-04 Eh
   gradient norm :     0.0015803 Eh/α   predicted    -0.5664122E-05 ( -48.62%)
   displ. norm   :     0.2185666 α      lambda       -0.1653931E-04
   maximum displ.:     0.1367800 α      in ANC's #4, #45, #14, ...

........................................................................
.............................. CYCLE   76 ..............................
........................................................................

 iter      E             dE          RMSdq      gap      omega  full diag
   1   -404.5484712 -0.404548E+03  0.199E-02    0.61       0.0  T
   2   -404.5484299  0.413306E-04  0.131E-02    0.61       1.0  T
   3   -404.5485118 -0.818792E-04  0.135E-02    0.61       1.0  T
   4   -404.5481502  0.361563E-03  0.213E-02    0.61       1.0  T
   5   -404.5484248 -0.274569E-03  0.455E-03    0.61       1.4  T
   6   -404.5484645 -0.397506E-04  0.293E-03    0.61       2.2  T
   7   -404.5484514  0.130920E-04  0.462E-04    0.61      13.9  T
   8   -404.5484518 -0.368106E-06  0.298E-04    0.61      21.6  T
   9   -404.5484520 -0.184703E-06  0.161E-04    0.61      39.9  T
     SCC iter.                  ...        0 min,  0.845 sec
     gradient                   ...        0 min,  0.268 sec
 * total energy  :  -399.6327065 Eh     change       -0.1915036E-04 Eh
   gradient norm :     0.0011051 Eh/α   predicted    -0.8445969E-05 ( -55.90%)
   displ. norm   :     0.2352423 α      lambda       -0.1687116E-04
   maximum displ.:     0.1481487 α      in ANC's #4, #8, #45, ...

........................................................................
.............................. CYCLE   77 ..............................
........................................................................

 iter      E             dE          RMSdq      gap      omega  full diag
   1   -404.5487376 -0.404549E+03  0.211E-02    0.61       0.0  T
   2   -404.5487898 -0.521431E-04  0.141E-02    0.61       1.0  T
   3   -404.5482940  0.495824E-03  0.351E-02    0.61       1.0  T
   4   -404.5487254 -0.431450E-03  0.180E-02    0.61       1.0  T
   5   -404.5488091 -0.836893E-04  0.592E-03    0.61       1.1  T
   6   -404.5487582  0.509399E-04  0.138E-03    0.61       4.7  T
   7   -404.5487610 -0.280905E-05  0.648E-04    0.61       9.9  T
   8   -404.5487652 -0.417938E-05  0.287E-04    0.61      22.4  T
   9   -404.5487643  0.833159E-06  0.179E-04    0.61      35.9  T
  10   -404.5487634  0.878424E-06  0.114E-04    0.61      56.4  T
     SCC iter.                  ...        0 min,  0.920 sec
     gradient                   ...        0 min,  0.273 sec
 * total energy  :  -399.6327226 Eh     change       -0.1615199E-04 Eh
   gradient norm :     0.0009900 Eh/α   predicted    -0.8643857E-05 ( -46.48%)
   displ. norm   :     0.1957687 α      lambda       -0.9794677E-05
   maximum displ.:     0.1240732 α      in ANC's #4, #8, #45, ...

........................................................................
.............................. CYCLE   78 ..............................
........................................................................

 iter      E             dE          RMSdq      gap      omega  full diag
   1   -404.5485949 -0.404549E+03  0.184E-02    0.61       0.0  T
   2   -404.5485674  0.274374E-04  0.116E-02    0.61       1.0  T
   3   -404.5486366 -0.691361E-04  0.106E-02    0.61       1.0  T
   4   -404.5483502  0.286406E-03  0.157E-02    0.61       1.0  T
   5   -404.5485883 -0.238128E-03  0.182E-03    0.61       3.5  T
   6   -404.5485847  0.359606E-05  0.155E-03    0.61       4.2  T
   7   -404.5485867 -0.199395E-05  0.883E-04    0.61       7.3  T
   8   -404.5485840  0.273361E-05  0.310E-04    0.61      20.7  T
   9   -404.5485857 -0.169929E-05  0.136E-04    0.61      47.3  T
  10   -404.5485853  0.320152E-06  0.108E-04    0.61      59.8  T
  11   -404.5485859 -0.548242E-06  0.697E-05    0.61      92.4  T
     SCC iter.                  ...        0 min,  0.979 sec
     gradient                   ...        0 min,  0.269 sec
 * total energy  :  -399.6327319 Eh     change       -0.9249922E-05 Eh
   gradient norm :     0.0010757 Eh/α   predicted    -0.4984097E-05 ( -46.12%)
   displ. norm   :     0.1396022 α      lambda       -0.6979086E-05
   maximum displ.:     0.0899408 α      in ANC's #4, #8, #45, ...

........................................................................
.............................. CYCLE   79 ..............................
........................................................................

 iter      E             dE          RMSdq      gap      omega  full diag
   1   -404.5486937 -0.404549E+03  0.125E-02    0.61       0.0  T
   2   -404.5486925  0.128367E-05  0.745E-03    0.61       1.0  T
   3   -404.5486718  0.206490E-04  0.904E-03    0.61       1.0  T
   4   -404.5486880 -0.161520E-04  0.106E-02    0.61       1.0  T
   5   -404.5486892 -0.128539E-05  0.125E-03    0.61       5.2  T
   6   -404.5486967 -0.740219E-05  0.374E-04    0.61      17.2  T
   7   -404.5486881  0.853696E-05  0.593E-04    0.61      10.9  T
   8   -404.5486946 -0.650924E-05  0.162E-04    0.61      39.8  T
   9   -404.5486944  0.269679E-06  0.875E-05    0.61      73.6  T
  10   -404.5486939  0.414597E-06  0.563E-05    0.61     114.4  T
     SCC iter.                  ...        0 min,  0.879 sec
     gradient                   ...        0 min,  0.271 sec
 * total energy  :  -399.6327387 Eh     change       -0.6765382E-05 Eh
   gradient norm :     0.0008939 Eh/α   predicted    -0.3522830E-05 ( -47.93%)
   displ. norm   :     0.1690559 α      lambda       -0.9873981E-05
   maximum displ.:     0.1090870 α      in ANC's #4, #8, #45, ...

........................................................................
.............................. CYCLE   80 ..............................
........................................................................

 iter      E             dE          RMSdq      gap      omega  full diag
   1   -404.5488244 -0.404549E+03  0.155E-02    0.61       0.0  T
   2   -404.5488621 -0.376293E-04  0.973E-03    0.61       1.0  T
   3   -404.5486326  0.229508E-03  0.192E-02    0.61       1.0  T
   4   -404.5488577 -0.225096E-03  0.142E-02    0.61       1.0  T
   5   -404.5488770 -0.193937E-04  0.578E-03    0.61       1.1  T
   6   -404.5488424  0.346274E-04  0.662E-04    0.61       9.7  T
   7   -404.5488434 -0.101242E-05  0.406E-04    0.61      15.9  T
   8   -404.5488462 -0.277097E-05  0.171E-04    0.61      37.6  T
   9   -404.5488448  0.143802E-05  0.870E-05    0.61      74.1  T
  10   -404.5488449 -0.139163E-06  0.564E-05    0.61     114.3  T
  11   -404.5488450 -0.516297E-07  0.456E-05    0.61     141.2  T
     SCC iter.                  ...        0 min,  0.977 sec
     gradient                   ...        0 min,  0.275 sec
 * total energy  :  -399.6327460 Eh     change       -0.7303588E-05 Eh
   gradient norm :     0.0011994 Eh/α   predicted    -0.5004499E-05 ( -31.48%)
   displ. norm   :     0.1051760 α      lambda       -0.6832771E-05
   maximum displ.:     0.0680022 α      in ANC's #4, #8, #45, ...

........................................................................
.............................. CYCLE   81 ..............................
........................................................................

 iter      E             dE          RMSdq      gap      omega  full diag
   1   -404.5484716 -0.404548E+03  0.960E-03    0.61       0.0  T
   2   -404.5484992 -0.276084E-04  0.628E-03    0.61       1.0  T
   3   -404.5483633  0.135872E-03  0.105E-02    0.61       1.0  T
   4   -404.5485410 -0.177710E-03  0.745E-03    0.61       1.0  T
   5   -404.5484823  0.587908E-04  0.991E-04    0.61       6.5  T
   6   -404.5484852 -0.290964E-05  0.155E-03    0.61       4.2  T
   7   -404.5484850  0.208048E-06  0.215E-04    0.61      29.9  T
   8   -404.5484850 -0.859299E-07  0.137E-04    0.61      47.0  T
     SCC iter.                  ...        0 min,  0.743 sec
     gradient                   ...        0 min,  0.276 sec
 * total energy  :  -399.6327523 Eh     change       -0.6329897E-05 Eh
   gradient norm :     0.0008129 Eh/α   predicted    -0.3436572E-05 ( -45.71%)
   displ. norm   :     0.0863572 α      lambda       -0.5954516E-05
   maximum displ.:     0.0529057 α      in ANC's #4, #8, #10, ...

........................................................................
.............................. CYCLE   82 ..............................
........................................................................

 iter      E             dE          RMSdq      gap      omega  full diag
   1   -404.5489189 -0.404549E+03  0.771E-03    0.61       0.0  T
   2   -404.5488784  0.404563E-04  0.621E-03    0.61       1.0  T
   3   -404.5489524 -0.739856E-04  0.824E-03    0.61       1.0  T
   4   -404.5488500  0.102388E-03  0.892E-03    0.61       1.0  T
   5   -404.5488576 -0.754166E-05  0.472E-03    0.61       1.4  T
   6   -404.5489040 -0.464591E-04  0.125E-03    0.61       5.2  T
   7   -404.5489082 -0.412034E-05  0.382E-04    0.61      16.8  T
   8   -404.5489072  0.916363E-06  0.150E-04    0.61      43.0  T
   9   -404.5489072  0.861252E-08  0.894E-05    0.61      72.1  T
     SCC iter.                  ...        0 min,  0.822 sec
     gradient                   ...        0 min,  0.272 sec
 * total energy  :  -399.6327583 Eh     change       -0.6048316E-05 Eh
   gradient norm :     0.0008787 Eh/α   predicted    -0.2991559E-05 ( -50.54%)
   displ. norm   :     0.1147471 α      lambda       -0.6565097E-05
   maximum displ.:     0.0709988 α      in ANC's #4, #8, #10, ...

........................................................................
.............................. CYCLE   83 ..............................
........................................................................

 iter      E             dE          RMSdq      gap      omega  full diag
   1   -404.5484921 -0.404548E+03  0.933E-03    0.61       0.0  T
   2   -404.5484843  0.776390E-05  0.563E-03    0.61       1.1  T
   3   -404.5485307 -0.464040E-04  0.735E-03    0.61       1.0  T
   4   -404.5484327  0.980186E-04  0.706E-03    0.61       1.0  T
   5   -404.5484792 -0.464895E-04  0.219E-03    0.61       2.9  T
   6   -404.5484957 -0.165244E-04  0.873E-04    0.61       7.4  T
   7   -404.5484902  0.552983E-05  0.293E-04    0.61      22.0  T
   8   -404.5484912 -0.969621E-06  0.114E-04    0.61      56.7  T
   9   -404.5484913 -0.137521E-06  0.912E-05    0.61      70.6  T
     SCC iter.                  ...        0 min,  0.819 sec
     gradient                   ...        0 min,  0.271 sec
 * total energy  :  -399.6327658 Eh     change       -0.7460481E-05 Eh
   gradient norm :     0.0007861 Eh/α   predicted    -0.3304842E-05 ( -55.70%)
   displ. norm   :     0.1372158 α      lambda       -0.6601919E-05
   maximum displ.:     0.0822637 α      in ANC's #4, #10, #8, ...

........................................................................
.............................. CYCLE   84 ..............................
........................................................................

 iter      E             dE          RMSdq      gap      omega  full diag
   1   -404.5485615 -0.404549E+03  0.106E-02    0.61       0.0  T
   2   -404.5485697 -0.824231E-05  0.646E-03    0.61       1.0  T
   3   -404.5484602  0.109497E-03  0.162E-02    0.61       1.0  T
   4   -404.5485667 -0.106454E-03  0.589E-03    0.61       1.1  T
   5   -404.5485639  0.277299E-05  0.585E-04    0.61      11.0  T
   6   -404.5485721 -0.824906E-05  0.661E-04    0.61       9.7  T
   7   -404.5485622  0.992997E-05  0.515E-04    0.61      12.5  T
   8   -404.5485677 -0.545863E-05  0.115E-04    0.61      55.9  T
   9   -404.5485670  0.695541E-06  0.613E-05    0.61     105.1  T
  10   -404.5485671 -0.181090E-06  0.389E-05    0.61     165.5  T
     SCC iter.                  ...        0 min,  0.887 sec
     gradient                   ...        0 min,  0.270 sec
 * total energy  :  -399.6327728 Eh     change       -0.6950226E-05 Eh
   gradient norm :     0.0007613 Eh/α   predicted    -0.3331285E-05 ( -52.07%)
   displ. norm   :     0.1556609 α      lambda       -0.6655689E-05
   maximum displ.:     0.0961647 α      in ANC's #4, #10, #8, ...

........................................................................
.............................. CYCLE   85 ..............................
........................................................................

 iter      E             dE          RMSdq      gap      omega  full diag
   1   -404.5482067 -0.404548E+03  0.125E-02    0.61       0.0  T
   2   -404.5481984  0.832495E-05  0.849E-03    0.61       1.0  T
   3   -404.5482580 -0.596032E-04  0.107E-02    0.61       1.0  T
   4   -404.5480583  0.199728E-03  0.119E-02    0.61       1.0  T
   5   -404.5482307 -0.172481E-03  0.175E-03    0.61       3.7  T
   6   -404.5482109  0.198435E-04  0.140E-03    0.61       4.6  T
   7   -404.5482127 -0.180324E-05  0.472E-04    0.61      13.6  T
   8   -404.5482142 -0.145638E-05  0.134E-04    0.61      48.0  T
   9   -404.5482142 -0.539536E-07  0.915E-05    0.61      70.4  T
  10   -404.5482145 -0.282117E-06  0.469E-05    0.61     137.3  T
     SCC iter.                  ...        0 min,  0.902 sec
     gradient                   ...        0 min,  0.275 sec
 * total energy  :  -399.6327792 Eh     change       -0.6468862E-05 Eh
   gradient norm :     0.0008321 Eh/α   predicted    -0.3365422E-05 ( -47.98%)
   displ. norm   :     0.0810250 α      lambda       -0.3960648E-05
   maximum displ.:     0.0502999 α      in ANC's #4, #10, #8, ...

........................................................................
.............................. CYCLE   86 ..............................
........................................................................

 iter      E             dE          RMSdq      gap      omega  full diag
   1   -404.5484352 -0.404548E+03  0.629E-03    0.61       0.0  T
   2   -404.5484352  0.322044E-07  0.447E-03    0.61       1.4  T
   3   -404.5483479  0.873343E-04  0.120E-02    0.61       1.0  T
   4   -404.5484271 -0.792329E-04  0.487E-03    0.61       1.3  T
   5   -404.5484350 -0.783933E-05  0.141E-03    0.61       4.6  T
   6   -404.5484173  0.176620E-04  0.698E-04    0.61       9.2  T
   7   -404.5484240 -0.674454E-05  0.198E-04    0.61      32.6  T
   8   -404.5484242 -0.170883E-06  0.951E-05    0.61      67.7  T
   9   -404.5484239  0.298317E-06  0.546E-05    0.61     118.0  T
     SCC iter.                  ...        0 min,  0.802 sec
     gradient                   ...        0 min,  0.271 sec
 * total energy  :  -399.6327834 Eh     change       -0.4178397E-05 Eh
   gradient norm :     0.0005401 Eh/α   predicted    -0.1989164E-05 ( -52.39%)
   displ. norm   :     0.0936292 α      lambda       -0.4488950E-05
   maximum displ.:     0.0585429 α      in ANC's #4, #10, #45, ...

   *** GEOMETRY OPTIMIZATION CONVERGED AFTER 86 ITERATIONS ***

------------------------------------------------------------------------
 total energy gain   :        -0.0512874 Eh      -32.1833 kcal/mol
 total RMSD          :         0.7755608 a0        0.4104 Å
 total power (kW/mol):        -1.5657567 (step)   -1.2114 (real)
------------------------------------------------------------------------

 ANCopt (total)                0 d,  0 h,  1 min, 51.159 sec
 optimizer setup                ...        0 min,  0.001 sec (  0.000%)
 model hessian                  ...        0 min,  0.581 sec (  0.523%)
 ANC generation                 ...        0 min,  0.143 sec (  0.129%)
 coordinate transformation      ...        0 min,  0.015 sec (  0.013%)
 single point calculation       ...        1 min, 50.322 sec ( 99.247%)
 optimization log               ...        0 min,  0.024 sec (  0.021%)
 hessian update                 ...        0 min,  0.009 sec (  0.008%)
 rational function              ...        0 min,  0.055 sec (  0.050%)

================
 final structure:
================
241
 xtb: 6.7.1 (edcfbbe)
Ru           0.14646824664752        0.97580412373404       -1.51686526091487
N           -3.12121857724643       -1.16059864222309        3.19894609443068
N           -4.71296886931696       -2.22228395203661        2.01626921463738
N            1.44459383051746       -4.36643390503999       -0.57006156820825
N            2.62936836086633       -4.14731818397091        1.37922029406605
N           -7.67149335587657       -0.99923023513930        0.50210582577953
N            5.99098781928581       -2.95803181687514        1.49472184777729
C           -0.50269884143521        1.56433254075884        4.97875519744605
C           -0.13466939799136        0.24737451670369        4.72470723269599
C           -1.03827432789156       -0.63168977013456        4.15288412786100
C           -2.33563152880417       -0.22282380270230        3.82408917474824
C           -2.72091616085811        1.08836178263878        4.11284480692354
C           -1.80130337366525        1.95520511531175        4.68410334719555
C            1.24961630445507       -0.23322194347112        4.99132538416320
C           -4.41990598471003       -1.17079643397871        2.78534468216690
C           -6.02834333419633       -2.52547411954972        1.51627891840567
C           -6.04563141364822       -3.96972178807400        0.94330335793035
C           -7.41686333844322       -4.25729432329497        0.32530939688349
C           -5.80134869192979       -4.95011914710782        2.09519373948143
C           -4.96453829205333       -4.15885958608159       -0.12568227628388
C           -2.12903915720942       -4.80296376824577       -3.80468085307480
C           -0.66283620932634       -4.63281457720109       -3.52739710200865
C            2.03613419349596       -4.41890755990249       -2.96217420331816
C            1.58691767382318       -4.49530584344423       -4.27083810901748
C            0.24106373426894       -4.61565784720068       -4.58339370071875
C            2.65347272848317       -4.36792357205929        0.06096102202354
C            3.85632486937438       -4.02867783517259        2.14065637213342
C            3.57110391146100       -3.88472578939904        3.66353900826150
C            4.90044284281643       -3.78051562133472        4.41598653907960
C            2.82469315951483       -5.13995832366440        4.13050506519543
C            2.71662886526517       -2.63130241313813        3.89955049450956
C            2.46607065718172       -2.23442097182408        5.35588714240844
C            4.66461815615667       -2.82387932210824        1.62160801903583
C           -6.42567442173968       -1.48840841142617        0.45402771678647
C           -8.65666873775674       -1.14394576981736        1.56283824341941
C           -9.81498875286513       -0.24726460390841        1.12568084489016
C           -9.70739969713432       -0.26503435917161       -0.39529318942776
C           -8.18900950417081       -0.22456893177746       -0.61771880443094
C            6.78018350516041       -4.17807135434742        1.46048404601798
C            8.13186804432849       -3.72405022773377        0.91404878949307
C            8.24799192323508       -2.29942840451587        1.44410071667428
C            6.81429228379299       -1.76927394442892        1.29999142441250
C            2.60136989970013       -4.48495616653121       -5.37996630329099
C           -2.18775905435749        3.37150028167737        4.99767872828261
C           -7.69183003579989        1.19721948637717       -0.66852934864703
C           -7.71448054794693        1.86327543010199       -1.89366489942509
C           -7.26086425990601        1.87217118609853        0.46862327866283
C           -6.83684968100126        3.18368846302957        0.38355685103489
C           -6.83393341226129        3.82351205497328       -0.85130674551866
C            6.60567504990132       -1.08335804626240       -0.02572874351930
C            6.93945290272948        0.26627822455248       -0.12999568976959
C            6.11861536317741       -1.75528785726793       -1.14120348964279
C            6.72937211776299        0.95467579212394       -1.30392864366976
C            5.88348486976195       -1.07430584641086       -2.31870925629875
C            6.16125123364478        0.28723272038752       -2.38517891333514
C           -7.28405603618819        3.16757243036987       -1.99466183190942
O            2.24575878274247        0.43619378738341        4.84007593652693
O            1.23842347281912       -1.49873475595028        5.39229577582404
O           -5.64762049441164       -1.15529337195058       -0.43572323707820
O            4.11731620210522       -1.74358286775935        1.41653829299102
F            2.11706534453627       -3.97257809632534       -6.52344247976315
F            3.03413325706956       -5.72482429375729       -5.68605512011576
F            3.69709565471595       -3.77173733728935       -5.08248286771800
F           -2.00281101708279        3.67869784486850        6.29573823946961
F           -3.46560862987237        3.66318002624722        4.72328836674489
F           -1.44708318789024        4.26439757789368        4.30609463161981
F           -2.50950346195939       -6.09637338077224       -3.74862228587772
F           -2.91430530550912       -4.15117465160891       -2.93530964565646
F           -2.48741263658121       -4.37010325335171       -5.02574192809641
S            4.10380725635794       -4.70292977228211       -0.68924313891255
S           -5.58148929406431       -0.05713157146366        3.20036340053927
H            0.20515072124487        2.25587555845682        5.40684978714644
H           -0.73550305450009       -1.64611861178062        3.93617735323744
H           -3.72452638346209        1.41895343017980        3.89859723761186
H           -2.63460588068513       -2.04675703875769        3.00397426636986
H           -3.96587272073996       -2.88519891378162        1.83456470565656
H           -6.73440609037665       -2.46578501890233        2.35207451618029
H           -7.43698369428174       -5.27389274648646       -0.05921902976719
H           -8.20450136259543       -4.16353587142780        1.06838327641814
H           -7.61978742355754       -3.57880626977429       -0.49920981112067
H           -6.57023182993668       -4.85059734345187        2.85835216237623
H           -5.81663646037050       -5.96980756735884        1.71856953738814
H           -4.83137584044849       -4.77598509580216        2.55516659401056
H           -3.96724947170459       -4.21137487305272        0.30674079926244
H           -4.98155400757628       -3.34411658821381       -0.84441639486825
H           -0.09137495912357       -4.68285822670479       -5.60664695473884
H            1.73700332472080       -3.96211203852690        1.84035338868113
H            4.44038922847240       -4.94258083494719        1.98440867225328
H            4.71416490056691       -3.71009672129897        5.48365681189345
H            5.50657975937640       -4.66477126202214        4.23773469530894
H            5.45443215985801       -2.89834364234449        4.10719214196604
H            2.78233860668807       -5.17233328741602        5.21538139584130
H            1.80582359503860       -5.14801187774216        3.75265836715650
H            3.33288356561489       -6.03726486810583        3.78539480077636
H            1.72957287942347       -2.80204542022017        3.46888202995730
H            3.15995974781935       -1.77899055324355        3.38314091976546
H            3.27223014442163       -1.61718228917105        5.76211994265112
H            2.28588991396754       -3.09885195066164        5.99373298628287
H           -8.98778356422227       -2.18296109704335        1.63621940883251
H           -8.23198012635670       -0.83172129717460        2.52021230510290
H           -9.67359690445175        0.76635192295299        1.49839011183516
H          -10.77181897237047       -0.62003308519618        1.48234799205460
H            6.89360582751651       -4.58832514865821        2.46762581301668
H            6.30571458761194       -4.91937289163504        0.81465691816081
H            8.11449466010745       -3.71779797122502       -0.17499628420151
H            8.94305327453410       -4.36517055768369        1.24937614925628
H           -5.13400074520754       -5.08942988731642       -0.66134131649167
H          -10.21088833592678        0.57556386866499       -0.86603012941980
H          -10.11328363002550       -1.19423956918968       -0.79441914606144
H           -8.06230073334274        1.34409823422618       -2.77352833428165
H           -7.22571200235473        1.36601729790250        1.42072959141661
H           -6.49912977629961        3.71826157641192        1.25775081894745
H            8.53546855876697       -2.30871820130616        2.49512563186249
H            8.95908457901899       -1.69593618490429        0.88567608291005
H            7.34237921462421        0.78079136942265        0.72854844815281
H            5.88173031709497       -2.80582465954481       -1.08203739875426
H            6.96168481085885        2.00379185952592       -1.39860661652609
H            5.48299288798930       -1.57899957467461       -3.18444838228696
H           -7.28479188081075        3.69156682383524       -2.93788168243382
Ru          -1.61237324353461        3.11089728783617       -1.23313622375589
C            1.72073027932249        2.05130851669589       -1.45172422407117
S           -0.63100065509365        1.90839684441892        0.52424621145255
S           -0.75474445297618        2.26508153082367       -3.26813027990417
Cl           0.18043578911057        4.75506071716412       -1.11427043221410
C            1.36113225882549       -0.91351184603606       -1.57632220243138
C            0.59763527893779       -0.74798789278726       -2.77985819244641
C           -0.81000128421036       -0.89523820498786       -2.44050601395650
C           -0.90740495834315       -1.02203416431325       -1.04917594141047
C            0.43629238724693       -0.99324075638767       -0.49687938616261
C            2.84489936221050       -1.07970264367923       -1.53253003653548
H            3.10083049911745       -2.06497759509154       -1.92176698527585
H            3.23737899053774       -0.99580989918048       -0.52214651271034
H            3.33044349236631       -0.33476059958825       -2.15836578706329
C            1.14673520144795       -0.78676672401681       -4.17204967804557
H            0.50128626361982       -0.24169882713733       -4.85786988085658
H            1.20698549090995       -1.82200914039095       -4.50973653924398
H            2.14754021491542       -0.35942322510814       -4.21123693777677
C           -1.87700030431449       -1.06160685055845       -3.47050103800598
H           -2.84216020649556       -1.24737055110371       -3.00853909859779
H           -1.62409935562293       -1.90730992638824       -4.10976202730729
H           -1.94410262776736       -0.18011109930305       -4.10895691171601
C           -2.09733584539889       -1.38424250767791       -0.22597239183158
H           -2.13597964759980       -0.78264952823885        0.68031895489432
H           -2.00124156492492       -2.42960419587788        0.07646200384182
H           -3.03135117937861       -1.26471284219526       -0.76788484670753
C            0.75593398732052       -1.24957770755528        0.93909654052441
C           -3.17703650398155        4.75623502749623       -1.19288186630184
C           -3.21889175501394        3.97593897951327        0.00765256455757
C           -3.61697658679588        2.63090354176305       -0.34519510513270
C           -3.73260851663454        2.56698192888123       -1.75915311180309
C           -3.44117565838108        3.88355400548030       -2.28857639505889
C           -3.01674639144237        6.23831029848688       -1.23914240504929
H           -3.11021700640747        6.60988038815778       -2.25518005439455
H           -3.78773172502193        6.69540512373040       -0.61747221404160
H           -2.04721722504128        6.53801103809384       -0.84163295722654
C           -3.18773263516463        4.55347180073960        1.38463416761164
H           -3.16425567741245        3.76847921536134        2.13466300976343
H           -4.08142791471991        5.16309053334609        1.53343325499531
H           -2.32060892021848        5.19972916036209        1.51803964892952
C           -3.96348171787033        1.57752404070599        0.64899575524069
H           -4.43151874007171        0.71978596452684        0.17310629776539
H           -4.64909450091256        1.98140568036924        1.39106060110116
H           -3.07351560055203        1.23831135734242        1.18205219366029
C           -4.28544308756345        1.45019898908583       -2.57965140818229
H           -3.59046004323511        1.17253122636025       -3.36931103001063
H           -4.49862371950731        0.57828744126210       -1.96680220471888
H           -5.21257913857676        1.77846014769527       -3.04810320422198
C           -3.66450942997330        4.31929817424319       -3.70139094325143
H           -2.89235334154453        5.01784361289856       -4.01894542300002
H           -4.62765856721773        4.83135801738079       -3.75813172142423
H           -3.66948082989338        3.46747688135631       -4.37528785173086
C            0.55887622556164        2.83421146277542        1.52799118564804
H           -0.01399837234164        3.50751319262169        2.16057261127774
H            1.23506051946588        3.39400649119119        0.88939524753454
H            1.10170739437464        2.11905399777958        2.14002968165174
C            0.48307154058424        3.29941998922210       -4.09764378202160
H            0.86842957939078        4.03834113204667       -3.40052294165615
H           -0.01434048205194        3.77913861097180       -4.93536624174369
H            1.28037944628549        2.64967073176407       -4.44585749942959
S           -1.12077583293276       -4.42488158550611        2.11348791084576
O            0.08351516544545       -3.80263139751606        2.67401504604258
O           -1.01625400264292       -4.52295881997058        0.65356979068502
O           -2.34459996711114       -3.72418695817270        2.51888294729570
C           -1.17391924905009       -6.05567616259920        2.76172399051852
C            2.84392227039430        2.50855851841509       -1.20205585915194
C            4.04145329221782        3.01878154375982       -0.83770021980003
C            4.62709343635797        2.73185280770679        0.42665635432923
H            4.56841995521851        3.68594660040744       -1.50768330253665
C            5.81750124556908        3.39780358844413        0.83175964969921
C            4.03226625911019        1.81171675843116        1.30738938055555
C            4.55892145212872        1.57347119347333        2.55318400295521
C            5.70859851252235        2.24908993396604        2.94791889684798
C            6.33552777078127        3.14388849371767        2.09894211134286
H            1.83090097094126       -1.29307677244990        1.10190887467347
H            0.30781433433985       -2.19402930663693        1.24901518741981
H            0.33758346390363       -0.47734271719655        1.58635919276486
H            7.22764655517919        3.64734892653922        2.43479952351278
H            3.14932876060280        1.28977873404252        0.97232591120112
H            3.09459970665861       -4.34908598305958       -2.77181782173695
O            6.36641374779273        4.23674742051085       -0.06364517536770
C            7.53656382191049        4.96177372600001        0.27504339509255
H            8.34590814492956        4.26375902940474        0.53985298542617
H            7.34014201920932        5.60575406841277        1.14366336144385
H            0.60434024793933       -4.34229310951046        0.03181784947885
N            5.80457489424331        1.02861297576200       -3.54974987286115
N           -6.34955498664961        5.15889814111305       -0.95865770466074
O           -6.27333630149508        5.65586023802990       -2.06926902621031
O            6.28136422032102        2.13950886860523       -3.69803862998458
O           -6.02698765222188        5.74411916565586        0.06064817089298
O            5.01213739888091        0.52464172031093       -4.32685298338333
H            4.07364585792318        0.88435640030844        3.22557804378109
C            1.12248742372261       -4.44716996682323       -1.90511714808006
C           -0.24113159989434       -4.54753255476116       -2.21568997824408
H           -0.95955982862541       -4.56488112691191       -1.41096967696501
C            7.93055966787757        5.78179667488846       -0.91612749122091
H            7.41965358285538        5.51905332188882       -1.82996147626749
C            8.83776561161687        6.75036914437855       -0.88788252053119
C            9.56614732298659        7.12147925982117        0.37229344421919
H           10.24131069695273        7.95333996675478        0.19641202863026
H            8.86145559692716        7.40600524139835        1.15278539535357
H           10.14454595570178        6.27635243044991        0.74297409828619
C            9.20090389427657        7.52903308251796       -2.11291851538171
H           10.26000615091418        7.40305835630948       -2.33479745896337
H            8.62107547081137        7.20400074935236       -2.97180827549440
H            9.02081201540508        8.59037748642364       -1.94676143947471
H            6.56363377396555       -1.04342327393405        2.08290102437582
H           -7.89284651851428       -0.72106170824609       -1.54837410770559
H            6.12292410639696        2.07513505896150        3.92928290304400
C           -2.12456423829546       -6.41443967661761        3.68710249705523
C           -2.10129935332525       -7.69609673439487        4.21207310363952
C           -1.12492255904297       -8.60441843342271        3.81575486112726
C           -0.16955401868831       -8.20868159481766        2.88207542716030
C           -0.19241964959643       -6.93059574220113        2.35362191967317
H           -2.86738839320108       -5.68985439821387        3.98071389996585
H           -2.84530344196122       -7.99301362401538        4.93579845977385
H            0.59239824714408       -8.90715644663219        2.57091201364381
H            0.53215566593966       -6.60206533664432        1.62509006303485
C           -1.08209546298658       -9.98289803416327        4.39813630054905
H           -2.04922060503407      -10.26281991295219        4.80595140490785
H           -0.78771175273187      -10.70959882730656        3.64527394358805
H           -0.34911319046674      -10.01958327310094        5.20363660511559

 Bond Distances (Angstroems)
 ---------------------------
Ru1-Ru120=2.7808     Ru1-C121=1.9077      Ru1-S122=2.3749      Ru1-S123=2.3540      Ru1-C125=2.2469      Ru1-C126=2.1841      
Ru1-C127=2.2954      Ru1-C128=2.3067      Ru1-C129=2.2364      N2-C11=1.3738        N2-C15=1.3630        N2-H75=1.0296        
N3-C15=1.3353        N3-C16=1.4395        N3-H76=1.0152        N4-C26=1.3637        N4-H204=1.0339       N4-C212=1.3757       
N5-C26=1.3368        N5-C27=1.4489        N5-H87=1.0214        N6-C34=1.3393        N6-C35=1.4549        N6-C38=1.4567        
N7-C33=1.3392        N7-C39=1.4534        N7-C42=1.4591        C8-C9=1.3908         C8-C13=1.3878        C8-H72=1.0782        
C9-C8=1.3908         C9-C10=1.3843        C9-C14=1.4894        C10-C9=1.3843        C10-C11=1.3994       C10-H73=1.0806       
C11-N2=1.3738        C11-C10=1.3994       C11-C12=1.3968       C12-C11=1.3968       C12-C13=1.3869       C12-H74=1.0782       
C13-C8=1.3878        C13-C12=1.3869       C13-C44=1.5012       C14-C9=1.4894        C14-O57=1.2097       C14-O58=1.3276       
C15-N2=1.3630        C15-N3=1.3353        C15-S71=1.6619       C16-N3=1.4395        C16-C17=1.5539       C16-C34=1.5368       
C16-H77=1.0957       C17-C16=1.5539       C17-C18=1.5313       C17-C19=1.5322       C17-C20=1.5321       C18-C17=1.5313       
C18-H78=1.0871       C18-H79=1.0869       C18-H80=1.0869       C19-C17=1.5322       C19-H81=1.0879       C19-H82=1.0871       
C19-H83=1.0875       C20-C17=1.5321       C20-H84=1.0883       C20-H85=1.0866       C20-H107=1.0870      C21-C22=1.5019       
C21-F67=1.3494       C21-F68=1.3406       C21-F69=1.3442       C22-C21=1.5019       C22-C25=1.3901       C22-C213=1.3805      
C23-C24=1.3857       C23-H199=1.0777      C23-C212=1.3975      C24-C23=1.3857       C24-C25=1.3869       C24-C43=1.5031       
C25-C22=1.3901       C25-C24=1.3869       C25-H86=1.0780       C26-N4=1.3637        C26-N5=1.3368        C26-S70=1.6669       
C27-N5=1.4489        C27-C28=1.5560       C27-C33=1.5409       C27-H88=1.0958       C28-C27=1.5560       C28-C29=1.5311       
C28-C30=1.5332       C28-C31=1.5352       C29-C28=1.5311       C29-H89=1.0861       C29-H90=1.0868       C29-H91=1.0865       
C30-C28=1.5332       C30-H92=1.0862       C30-H93=1.0867       C30-H94=1.0874       C31-C28=1.5352       C31-C32=1.5301       
C31-H95=1.0904       C31-H96=1.0907       C32-C31=1.5301       C32-O58=1.4317       C32-H97=1.0936       C32-H98=1.0893       
C33-N7=1.3392        C33-C27=1.5409       C33-O60=1.2283       C34-N6=1.3393        C34-C16=1.5368       C34-O59=1.2280       
C35-N6=1.4549        C35-C36=1.5287       C35-H99=1.0930       C35-H100=1.0929      C36-C35=1.5287       C36-C37=1.5249       
C36-H101=1.0892      C36-H102=1.0871      C37-C36=1.5249       C37-C38=1.5351       C37-H108=1.0871      C37-H109=1.0897      
C38-N6=1.4567        C38-C37=1.5351       C38-C45=1.5071       C38-H227=1.0956      C39-N7=1.4534        C39-C40=1.5270       
C39-H103=1.0934      C39-H104=1.0917      C40-C39=1.5270       C40-C41=1.5245       C40-H105=1.0892      C40-H106=1.0870      
C41-C40=1.5245       C41-C42=1.5354       C41-H113=1.0897      C41-H114=1.0871      C42-N7=1.4591        C42-C41=1.5354       
C42-C50=1.5072       C42-H226=1.0966      C43-C24=1.5031       C43-F61=1.3434       C43-F62=1.3484       C43-F63=1.3408       
C44-C13=1.5012       C44-F64=1.3467       C44-F65=1.3391       C44-F66=1.3506       C45-C38=1.5071       C45-C46=1.3947       
C45-C47=1.3908       C46-C45=1.3947       C46-C56=1.3772       C46-H110=1.0792      C47-C45=1.3908       C47-C48=1.3810       
C47-H111=1.0789      C48-C47=1.3810       C48-C49=1.3908       C48-H112=1.0789      C49-C48=1.3908       C49-C56=1.3929       
C49-N206=1.4246      C50-C42=1.5072       C50-C51=1.3942       C50-C52=1.3903       C51-C50=1.3942       C51-C53=1.3770       
C51-H115=1.0790      C52-C50=1.3903       C52-C54=1.3804       C52-H116=1.0785      C53-C51=1.3770       C53-C55=1.3919       
C53-H117=1.0787      C54-C52=1.3804       C54-C55=1.3912       C54-H118=1.0792      C55-C53=1.3919       C55-C54=1.3912       
C55-N205=1.4259      C56-C46=1.3772       C56-C49=1.3929       C56-H119=1.0790      O57-C14=1.2097       O58-C14=1.3276       
O58-C32=1.4317       O59-C34=1.2280       O60-C33=1.2283       F61-C43=1.3434       F62-C43=1.3484       F63-C43=1.3408       
F64-C44=1.3467       F65-C44=1.3391       F66-C44=1.3506       F67-C21=1.3494       F68-C21=1.3406       F69-C21=1.3442       
S70-C26=1.6669       S71-C15=1.6619       H72-C8=1.0782        H73-C10=1.0806       H74-C12=1.0782       H75-N2=1.0296        
H76-N3=1.0152        H77-C16=1.0957       H78-C18=1.0871       H79-C18=1.0869       H80-C18=1.0869       H81-C19=1.0879       
H82-C19=1.0871       H83-C19=1.0875       H84-C20=1.0883       H85-C20=1.0866       H86-C25=1.0780       H87-N5=1.0214        
H88-C27=1.0958       H89-C29=1.0861       H90-C29=1.0868       H91-C29=1.0865       H92-C30=1.0862       H93-C30=1.0867       
H94-C30=1.0874       H95-C31=1.0904       H96-C31=1.0907       H97-C32=1.0936       H98-C32=1.0893       H99-C35=1.0930       
H100-C35=1.0929      H101-C36=1.0892      H102-C36=1.0871      H103-C39=1.0934      H104-C39=1.0917      H105-C40=1.0892      
H106-C40=1.0870      H107-C20=1.0870      H108-C37=1.0871      H109-C37=1.0897      H110-C46=1.0792      H111-C47=1.0789      
H112-C48=1.0789      H113-C41=1.0897      H114-C41=1.0871      H115-C51=1.0790      H116-C52=1.0785      H117-C53=1.0787      
H118-C54=1.0792      H119-C56=1.0790      Ru120-Ru1=2.7808     Ru120-S122=2.3447    Ru120-S123=2.3648    Ru120-Cl124=2.4355   
Ru120-C147=2.2709    Ru120-C148=2.2065    Ru120-C149=2.2444    Ru120-C150=2.2512    Ru120-C151=2.2484    C121-Ru1=1.9077      
C121-C185=1.2381     S122-Ru1=2.3749      S122-Ru120=2.3447    S122-C172=1.8112     S123-Ru1=2.3540      S123-Ru120=2.3648    
S123-C176=1.8139     Cl124-Ru120=2.4355   C125-Ru1=2.2469      C125-C126=1.4349     C125-C129=1.4237     C125-C130=1.4937     
C126-Ru1=2.1841      C126-C125=1.4349     C126-C127=1.4554     C126-C134=1.4971     C127-Ru1=2.2954      C127-C126=1.4554     
C127-C128=1.4005     C127-C138=1.4923     C128-Ru1=2.3067      C128-C127=1.4005     C128-C129=1.4531     C128-C142=1.4916     
C129-Ru1=2.2364      C129-C125=1.4237     C129-C128=1.4531     C129-C146=1.4933     C130-C125=1.4937     C130-H131=1.0899     
C130-H132=1.0872     C130-H133=1.0874     H131-C130=1.0899     H132-C130=1.0872     H133-C130=1.0874     C134-C126=1.4971     
C134-H135=1.0881     C134-H136=1.0906     C134-H137=1.0889     H135-C134=1.0881     H136-C134=1.0906     H137-C134=1.0889     
C138-C127=1.4923     C138-H139=1.0860     C138-H140=1.0899     C138-H141=1.0905     H139-C138=1.0860     H140-C138=1.0899     
H141-C138=1.0905     C142-C128=1.4916     C142-H143=1.0885     C142-H144=1.0925     C142-H145=1.0864     H143-C142=1.0885     
H144-C142=1.0925     H145-C142=1.0864     C146-C129=1.4933     C146-H194=1.0881     C146-H195=1.0903     C146-H196=1.0910     
C147-Ru120=2.2709    C147-C148=1.4324     C147-C151=1.4254     C147-C152=1.4914     C148-Ru120=2.2065    C148-C147=1.4324     
C148-C149=1.4464     C148-C156=1.4935     C149-Ru120=2.2444    C149-C148=1.4464     C149-C150=1.4201     C149-C160=1.4893     
C150-Ru120=2.2512    C150-C149=1.4201     C150-C151=1.4486     C150-C164=1.4920     C151-Ru120=2.2484    C151-C147=1.4254     
C151-C150=1.4486     C151-C168=1.4953     C152-C147=1.4914     C152-H153=1.0859     C152-H154=1.0908     C152-H155=1.0899     
H153-C152=1.0859     H154-C152=1.0908     H155-C152=1.0899     C156-C148=1.4935     C156-H157=1.0860     C156-H158=1.0920     
C156-H159=1.0897     H157-C156=1.0860     H158-C156=1.0920     H159-C156=1.0897     C160-C149=1.4893     C160-H161=1.0869     
C160-H162=1.0880     C160-H163=1.0914     H161-C160=1.0869     H162-C160=1.0880     H163-C160=1.0914     C164-C150=1.4920     
C164-H165=1.0880     C164-H166=1.0869     C164-H167=1.0894     H165-C164=1.0880     H166-C164=1.0869     H167-C164=1.0894     
C168-C151=1.4953     C168-H169=1.0886     C168-H170=1.0923     C168-H171=1.0862     H169-C168=1.0886     H170-C168=1.0923     
H171-C168=1.0862     C172-S122=1.8112     C172-H173=1.0871     C172-H174=1.0855     C172-H175=1.0866     H173-C172=1.0871     
H174-C172=1.0855     H175-C172=1.0866     C176-S123=1.8139     C176-H177=1.0865     C176-H178=1.0860     C176-H179=1.0859     
H177-C176=1.0865     H178-C176=1.0860     H179-C176=1.0859     S180-O181=1.4669     S180-O182=1.4669     S180-O183=1.4673     
S180-C184=1.7557     O181-S180=1.4669     O182-S180=1.4669     O183-S180=1.4673     C184-S180=1.7557     C184-C229=1.3743     
C184-C233=1.3767     C185-C121=1.2381     C185-C186=1.3517     C186-C185=1.3517     C186-C187=1.4226     C186-H188=1.0824     
C187-C186=1.4226     C187-C189=1.4229     C187-C190=1.4058     H188-C186=1.0824     C189-C187=1.4229     C189-C193=1.3923     
C189-O200=1.3442     C190-C187=1.4058     C190-C191=1.3734     C190-H198=1.0790     C191-C190=1.3734     C191-C192=1.3907     
C191-H211=1.0782     C192-C191=1.3907     C192-C193=1.3836     C192-H228=1.0794     C193-C189=1.3923     C193-C192=1.3836     
C193-H197=1.0780     H194-C146=1.0881     H195-C146=1.0903     H196-C146=1.0910     H197-C193=1.0780     H198-C190=1.0790     
H199-C23=1.0777      O200-C189=1.3442     O200-C201=1.4176     C201-O200=1.4176     C201-H202=1.1011     C201-H203=1.0990     
C201-C215=1.4989     H202-C201=1.1011     H203-C201=1.0990     H204-N4=1.0339       N205-C55=1.4259      N205-O208=1.2180     
N205-O210=1.2189     N206-C49=1.4246      N206-O207=1.2191     N206-O209=1.2188     O207-N206=1.2191     O208-N205=1.2180     
O209-N206=1.2188     O210-N205=1.2189     H211-C191=1.0782     C212-N4=1.3757       C212-C23=1.3975      C212-C213=1.4021     
C213-C22=1.3805      C213-C212=1.4021     C213-H214=1.0789     H214-C213=1.0789     C215-C201=1.4989     C215-H216=1.0794     
C215-C217=1.3274     H216-C215=1.0794     C217-C215=1.3274     C217-C218=1.5021     C217-C222=1.4963     C218-C217=1.5021     
C218-H219=1.0857     C218-H220=1.0894     C218-H221=1.0891     H219-C218=1.0857     H220-C218=1.0894     H221-C218=1.0891     
C222-C217=1.4963     C222-H223=1.0894     C222-H224=1.0861     C222-H225=1.0893     H223-C222=1.0894     H224-C222=1.0861     
H225-C222=1.0893     H226-C42=1.0966      H227-C38=1.0956      H228-C192=1.0794     C229-C184=1.3743     C229-C230=1.3852     
C229-H234=1.0784     C230-C229=1.3852     C230-C231=1.3912     C230-H235=1.0796     C231-C230=1.3912     C231-C232=1.3932     
C231-C238=1.4971     C232-C231=1.3932     C232-C233=1.3832     C232-H236=1.0795     C233-C184=1.3767     C233-C232=1.3832     
C233-H237=1.0787     H234-C229=1.0784     H235-C230=1.0796     H236-C232=1.0795     H237-C233=1.0787     C238-C231=1.4971     
C238-H239=1.0863     C238-H240=1.0870     C238-H241=1.0897     H239-C238=1.0863     H240-C238=1.0870     H241-C238=1.0897     
 C  H  Rav=1.0868 sigma=0.0051  Rmin=1.0777  Rmax=1.1011   106
 C  C  Rav=1.4450 sigma=0.0658  Rmin=1.2381  Rmax=1.5560    87
 N  H  Rav=1.0250 sigma=0.0072  Rmin=1.0152  Rmax=1.0339     4
 N  C  Rav=1.3994 sigma=0.0483  Rmin=1.3353  Rmax=1.4591    16
 O  C  Rav=1.3124 sigma=0.0856  Rmin=1.2097  Rmax=1.4317     7
 O  N  Rav=1.2187 sigma=0.0004  Rmin=1.2180  Rmax=1.2191     4
 F  C  Rav=1.3448 sigma=0.0039  Rmin=1.3391  Rmax=1.3506     9
 S  C  Rav=1.7419 sigma=0.0666  Rmin=1.6619  Rmax=1.8139     5
 S  O  Rav=1.4670 sigma=0.0002  Rmin=1.4669  Rmax=1.4673     3
 Ru C  Rav=2.2180 sigma=0.1036  Rmin=1.9077  Rmax=2.3067    11
 Ru S  Rav=2.3596 sigma=0.0114  Rmin=2.3447  Rmax=2.3749     4
 Ru Cl Rav=2.4355 sigma=0.0000  Rmin=2.4355  Rmax=2.4355     1
 Ru Ru Rav=2.7808 sigma=0.0000  Rmin=2.7808  Rmax=2.7808     1

 selected bond angles (degree)
 --------------------
C121-Ru1-Ru120= 94.91          S122-Ru1-Ru120= 53.40          S122-Ru1-C121= 91.11           S123-Ru1-Ru120= 54.07          
S123-Ru1-C121= 91.87           S123-Ru1-S122=107.40           C125-Ru1-Ru120=171.99          C125-Ru1-C121= 91.65           
C125-Ru1-S122=122.00           C125-Ru1-S123=130.38           C126-Ru1-Ru120=142.72          C126-Ru1-C121=107.11           
C126-Ru1-S122=150.99           C126-Ru1-S123= 94.65           C126-Ru1-C125= 37.76           C127-Ru1-Ru120=113.79          
C127-Ru1-C121=144.80           C127-Ru1-S122=121.97           C127-Ru1-S123= 89.29           C127-Ru1-C125= 61.91           
C127-Ru1-C126= 37.82           C128-Ru1-Ru120=110.81          C128-Ru1-C121=149.14           C128-Ru1-S122= 90.93           
C128-Ru1-S123=116.76           C128-Ru1-C125= 61.58           C128-Ru1-C126= 61.84           C128-Ru1-C127= 35.43           
C129-Ru1-Ru120=135.35          C129-Ru1-C121=111.95           C129-Ru1-S122= 89.78           C129-Ru1-S123=150.59           
C129-Ru1-C125= 37.03           C129-Ru1-C126= 62.75           C129-Ru1-C127= 61.30           C129-Ru1-C128= 37.27           
C15-N2-C11=133.47              H75-N2-C11=113.79              H75-N2-C15=112.73              C16-N3-C15=124.50              
H76-N3-C15=117.12              H76-N3-C16=118.21              H204-N4-C26=116.82             C212-N4-C26=131.04             
C212-N4-H204=112.09            C27-N5-C26=121.10              H87-N5-C26=119.40              H87-N5-C27=119.19              
C35-N6-C34=128.30              C38-N6-C34=119.81              C38-N6-C35=111.89              C39-N7-C33=128.62              
C42-N7-C33=119.33              C42-N7-C39=111.99              C13-C8-C9=118.39               H72-C8-C9=120.41               
H72-C8-C13=121.20              C10-C9-C8=120.27               C14-C9-C8=121.25               C14-C9-C10=118.41              
C11-C10-C9=121.11              H73-C10-C9=119.74              H73-C10-C11=119.14             

 selected dihedral angles (degree)
 ---------------------------------
C10-C9-C8-C13=  1.98          C10-C9-C8-H72=181.16          C14-C9-C8-C13=178.77          C14-C9-C8-H72=357.96          
C11-C10-C9-C8=359.72          C11-C10-C9-C14=182.83         H73-C10-C9-C8=178.46          H73-C10-C9-C14=  1.57         

 CMA Distance (Angstroems)
 ---------------------------
R(CMA):  4.8981
           -------------------------------------------------
          |                Final Singlepoint                |
           -------------------------------------------------

          ...................................................
          :                      SETUP                      :
          :.................................................:
          :  # basis functions                 682          :
          :  # atomic orbitals                 674          :
          :  # shells                          380          :
          :  # electrons                       714          :
          :  max. iterations                   250          :
          :  Hamiltonian                  GFN2-xTB          :
          :  restarted?                      false          :
          :  GBSA solvation                   true          :
          :  PC potential                    false          :
          :  electronic temp.          300.0000000     K    :
          :  accuracy                    1.0000000          :
          :  -> integral cutoff          0.2500000E+02      :
          :  -> integral neglect         0.1000000E-07      :
          :  -> SCF convergence          0.1000000E-05 Eh   :
          :  -> wf. convergence          0.1000000E-03 e    :
          :  Broyden damping             0.4000000          :
          :  net charge                          0          :
          :  unpaired electrons                  0          :
          ...................................................

 iter      E             dE          RMSdq      gap      omega  full diag
   1   -404.5484238 -0.404548E+03  0.378E-05    0.61       0.0  T
   2   -404.5484243 -0.547347E-06  0.612E-05    0.61     105.3  T
   3   -404.5484237  0.622098E-06  0.427E-05    0.61     150.8  T

   *** convergence criteria satisfied after 3 iterations ***

         #    Occupation            Energy/Eh            Energy/eV
      -------------------------------------------------------------
         1        2.0000           -1.0327355             -28.1022
       ...           ...                  ...                  ...
       351        2.0000           -0.3688955             -10.0382
       352        2.0000           -0.3680296             -10.0146
       353        2.0000           -0.3572640              -9.7216
       354        2.0000           -0.3548960              -9.6572
       355        2.0000           -0.3530788              -9.6078
       356        2.0000           -0.3515299              -9.5656
       357        2.0000           -0.3498467              -9.5198 (HOMO)
       358        0.0000           -0.3272470              -8.9048 (LUMO)
       359        0.0000           -0.3243966              -8.8273
       360                         -0.3215951              -8.7510
       361                         -0.3182734              -8.6607
       362                         -0.2938134              -7.9951
       ...                                ...                  ...
       674                         11.4848364             312.5183
      -------------------------------------------------------------
                  HL-Gap            0.0225997 Eh            0.6150 eV
             Fermi-level           -0.3384811 Eh           -9.2105 eV

 SCC (total)                   0 d,  0 h,  0 min,  0.587 sec
 SCC setup                      ...        0 min,  0.006 sec (  0.967%)
 Dispersion                     ...        0 min,  0.003 sec (  0.552%)
 classical contributions        ...        0 min,  0.001 sec (  0.107%)
 integral evaluation            ...        0 min,  0.020 sec (  3.452%)
 iterations                     ...        0 min,  0.267 sec ( 45.446%)
 molecular gradient             ...        0 min,  0.271 sec ( 46.129%)
 printout                       ...        0 min,  0.020 sec (  3.345%)

         :::::::::::::::::::::::::::::::::::::::::::::::::::::
         ::                     SUMMARY                     ::
         :::::::::::::::::::::::::::::::::::::::::::::::::::::
         :: total energy            -399.632783220826 Eh    ::
         :: total w/o Gsasa/hb      -399.624284695618 Eh    ::
         :: gradient norm              0.000549612366 Eh/a0 ::
         :: HOMO-LUMO gap              0.614968891802 eV    ::
         ::.................................................::
         :: SCC energy              -404.508906203351 Eh    ::
         :: -> isotropic ES            0.589786768974 Eh    ::
         :: -> anisotropic ES         -0.060098505393 Eh    ::
         :: -> anisotropic XC          0.073609412980 Eh    ::
         :: -> dispersion             -0.409400894586 Eh    ::
         :: -> Gsolv                  -0.055957524138 Eh    ::
         ::    -> Gelec               -0.047458998930 Eh    ::
         ::    -> Gsasa               -0.008498525207 Eh    ::
         ::    -> Ghb                  0.000000000000 Eh    ::
         ::    -> Gshift               0.000000000000 Eh    ::
         :: repulsion energy           4.875955362161 Eh    ::
         :: add. restraining           0.000167620365 Eh    ::
         :: total charge              -0.000000000000 e     ::
         :::::::::::::::::::::::::::::::::::::::::::::::::::::

           -------------------------------------------------
          |                Property Printout                |
           -------------------------------------------------

    * Orbital Energies and Occupations

         #    Occupation            Energy/Eh            Energy/eV
      -------------------------------------------------------------
         1        2.0000           -1.0327355             -28.1022
       ...           ...                  ...                  ...
       345        2.0000           -0.3897231             -10.6049
       346        2.0000           -0.3873614             -10.5406
       347        2.0000           -0.3844777             -10.4622
       348        2.0000           -0.3839126             -10.4468
       349        2.0000           -0.3753405             -10.2135
       350        2.0000           -0.3711361             -10.0991
       351        2.0000           -0.3688955             -10.0382
       352        2.0000           -0.3680296             -10.0146
       353        2.0000           -0.3572640              -9.7216
       354        2.0000           -0.3548960              -9.6572
       355        2.0000           -0.3530788              -9.6078
       356        2.0000           -0.3515299              -9.5656
       357        2.0000           -0.3498467              -9.5198 (HOMO)
       358        0.0000           -0.3272470              -8.9048 (LUMO)
       359        0.0000           -0.3243966              -8.8273
       360                         -0.3215951              -8.7510
       361                         -0.3182734              -8.6607
       362                         -0.2938134              -7.9951
       363                         -0.2874844              -7.8228
       364                         -0.2825084              -7.6874
       365                         -0.2753082              -7.4915
       366                         -0.2732002              -7.4342
       367                         -0.2704165              -7.3584
       368                         -0.2665635              -7.2536
       ...                                ...                  ...
       674                         11.4848364             312.5183
      -------------------------------------------------------------
                  HL-Gap            0.0225997 Eh            0.6150 eV
             Fermi-level           -0.3384811 Eh           -9.2105 eV

     #   Z          covCN         q      C6AA      α(0)
     1  44 Ru       7.471    -0.135   311.700    29.696
     2   7 N        2.749    -0.158    24.402     7.337
     3   7 N        2.778    -0.155    24.343     7.328
     4   7 N        2.742    -0.154    24.321     7.325
     5   7 N        2.775    -0.161    24.487     7.349
     6   7 N        2.757    -0.080    22.800     7.092
     7   7 N        2.757    -0.078    22.755     7.085
     8   6 C        2.922    -0.028    28.699     8.785
     9   6 C        2.973    -0.009    28.249     8.718
    10   6 C        2.935    -0.044    29.087     8.845
    11   6 C        2.901     0.095    25.889     8.343
    12   6 C        2.919    -0.041    29.026     8.835
    13   6 C        2.977    -0.021    28.516     8.759
    14   6 C        2.721     0.361    20.874     7.479
    15   6 C        2.806     0.207    23.610     7.961
    16   6 C        3.798     0.022    20.205     6.400
    17   6 C        3.900     0.026    20.074     6.369
    18   6 C        3.761    -0.113    22.714     6.794
    19   6 C        3.761    -0.115    22.746     6.799
    20   6 C        3.759    -0.114    22.738     6.798
    21   6 C        3.337     0.488    17.246     6.574
    22   6 C        2.977    -0.016    28.411     8.743
    23   6 C        2.922    -0.040    28.997     8.831
    24   6 C        2.979    -0.018    28.446     8.749
    25   6 C        2.919    -0.034    28.837     8.806
    26   6 C        2.812     0.208    23.602     7.960
    27   6 C        3.806     0.023    20.183     6.395
    28   6 C        3.899     0.022    20.142     6.380
    29   6 C        3.759    -0.120    22.855     6.816
    30   6 C        3.760    -0.121    22.867     6.817
    31   6 C        3.807    -0.082    22.051     6.685
    32   6 C        3.696     0.074    19.509     6.318
    33   6 C        2.762     0.267    22.492     7.767
    34   6 C        2.761     0.267    22.486     7.765
    35   6 C        3.766    -0.007    20.739     6.491
    36   6 C        3.832    -0.065    21.718     6.631
    37   6 C        3.835    -0.064    21.702     6.628
    38   6 C        3.835     0.041    19.856     6.340
    39   6 C        3.768    -0.010    20.785     6.497
    40   6 C        3.832    -0.065    21.718     6.631
    41   6 C        3.835    -0.064    21.708     6.629
    42   6 C        3.834     0.042    19.852     6.339
    43   6 C        3.337     0.488    17.239     6.572
    44   6 C        3.338     0.487    17.241     6.572
    45   6 C        2.972     0.034    27.238     8.561
    46   6 C        2.926    -0.029    28.717     8.788
    47   6 C        2.922    -0.022    28.553     8.763
    48   6 C        2.918    -0.015    28.385     8.737
    49   6 C        2.917     0.003    27.956     8.670
    50   6 C        2.972     0.034    27.246     8.562
    51   6 C        2.926    -0.031    28.770     8.796
    52   6 C        2.923    -0.023    28.578     8.767
    53   6 C        2.918    -0.020    28.503     8.755
    54   6 C        2.918    -0.017    28.439     8.745
    55   6 C        2.919     0.004    27.946     8.669
    56   6 C        2.917    -0.018    28.468     8.749
    57   8 O        0.856    -0.436    22.406     6.346
    58   8 O        1.705    -0.262    18.337     5.782
    59   8 O        0.859    -0.497    23.710     6.529
    60   8 O        0.860    -0.497    23.723     6.530
    61   9 F        0.791    -0.209    11.324     3.975
    62   9 F        0.791    -0.213    11.368     3.983
    63   9 F        0.791    -0.204    11.274     3.966
    64   9 F        0.791    -0.214    11.380     3.985
    65   9 F        0.791    -0.204    11.280     3.967
    66   9 F        0.791    -0.216    11.399     3.988
    67   9 F        0.791    -0.215    11.391     3.987
    68   9 F        0.791    -0.204    11.281     3.967
    69   9 F        0.791    -0.208    11.320     3.974
    70  16 S        1.103    -0.508   161.929    21.520
    71  16 S        1.081    -0.514   162.212    21.539
    72   1 H        0.926     0.070     2.090     2.261
    73   1 H        0.926     0.070     2.084     2.258
    74   1 H        0.926     0.091     1.871     2.139
    75   1 H        0.859     0.230     0.965     1.539
    76   1 H        0.860     0.216     1.029     1.589
    77   1 H        0.924     0.063     2.163     2.300
    78   1 H        0.925     0.051     2.307     2.375
    79   1 H        0.925     0.044     2.397     2.421
    80   1 H        0.925     0.040     2.447     2.446
    81   1 H        0.925     0.043     2.410     2.428
    82   1 H        0.925     0.048     2.343     2.394
    83   1 H        0.925     0.039     2.468     2.457
    84   1 H        0.925     0.034     2.525     2.485
    85   1 H        0.925     0.055     2.259     2.350
    86   1 H        0.926     0.080     1.982     2.202
    87   1 H        0.860     0.219     1.012     1.576
    88   1 H        0.924     0.069     2.099     2.266
    89   1 H        0.925     0.053     2.283     2.363
    90   1 H        0.925     0.052     2.299     2.371
    91   1 H        0.925     0.044     2.402     2.423
    92   1 H        0.925     0.049     2.326     2.385
    93   1 H        0.925     0.047     2.355     2.400
    94   1 H        0.925     0.047     2.356     2.400
    95   1 H        0.924     0.072     2.061     2.245
    96   1 H        0.924     0.058     2.225     2.333
    97   1 H        0.924     0.060     2.201     2.320
    98   1 H        0.925     0.072     2.066     2.248
    99   1 H        0.924     0.058     2.217     2.328
   100   1 H        0.924     0.067     2.124     2.279
   101   1 H        0.925     0.058     2.224     2.332
   102   1 H        0.925     0.059     2.212     2.326
   103   1 H        0.924     0.060     2.197     2.318
   104   1 H        0.924     0.070     2.082     2.256
   105   1 H        0.925     0.059     2.213     2.326
   106   1 H        0.925     0.060     2.202     2.321
   107   1 H        0.925     0.047     2.363     2.404
   108   1 H        0.925     0.058     2.221     2.331
   109   1 H        0.925     0.060     2.202     2.321
   110   1 H        0.926     0.067     2.122     2.278
   111   1 H        0.926     0.078     2.004     2.214
   112   1 H        0.926     0.081     1.971     2.195
   113   1 H        0.925     0.060     2.203     2.321
   114   1 H        0.925     0.058     2.222     2.331
   115   1 H        0.926     0.059     2.206     2.323
   116   1 H        0.926     0.079     1.990     2.206
   117   1 H        0.926     0.080     1.978     2.199
   118   1 H        0.926     0.084     1.939     2.178
   119   1 H        0.926     0.080     1.975     2.198
   120  44 Ru       7.389    -0.122   311.021    29.664
   121   6 C        1.908    -0.046    32.354     9.186
   122  16 S        2.769    -0.077   144.241    20.214
   123  16 S        2.768    -0.037   142.584    20.097
   124  17 Cl       0.790    -0.505   115.776    16.460
   125   6 C        3.817     0.025    20.141     6.387
   126   6 C        3.890     0.020    20.186     6.387
   127   6 C        3.780     0.015    20.348     6.426
   128   6 C        3.771     0.012    20.402     6.437
   129   6 C        3.853     0.027    20.090     6.375
   130   6 C        3.753    -0.107    22.609     6.780
   131   1 H        0.925     0.070     2.083     2.257
   132   1 H        0.925     0.071     2.075     2.253
   133   1 H        0.925     0.067     2.118     2.276
   134   6 C        3.752    -0.107    22.608     6.780
   135   1 H        0.925     0.076     2.019     2.222
   136   1 H        0.924     0.062     2.172     2.305
   137   1 H        0.925     0.074     2.038     2.232
   138   6 C        3.753    -0.105    22.560     6.773
   139   1 H        0.925     0.063     2.160     2.298
   140   1 H        0.925     0.058     2.222     2.331
   141   1 H        0.924     0.073     2.055     2.242
   142   6 C        3.753    -0.100    22.462     6.758
   143   1 H        0.925     0.055     2.263     2.352
   144   1 H        0.924     0.057     2.230     2.335
   145   1 H        0.925     0.062     2.177     2.307
   146   6 C        3.752    -0.109    22.638     6.785
   147   6 C        3.800     0.033    20.013     6.369
   148   6 C        3.868     0.019    20.208     6.392
   149   6 C        3.828     0.021    20.207     6.396
   150   6 C        3.823     0.015    20.313     6.414
   151   6 C        3.834     0.023    20.162     6.388
   152   6 C        3.753    -0.105    22.559     6.773
   153   1 H        0.925     0.067     2.116     2.275
   154   1 H        0.924     0.078     1.995     2.209
   155   1 H        0.925     0.077     2.012     2.218
   156   6 C        3.753    -0.102    22.507     6.765
   157   1 H        0.925     0.061     2.193     2.316
   158   1 H        0.924     0.079     1.985     2.203
   159   1 H        0.925     0.068     2.112     2.273
   160   6 C        3.753    -0.102    22.512     6.766
   161   1 H        0.925     0.064     2.148     2.292
   162   1 H        0.925     0.073     2.055     2.242
   163   1 H        0.924     0.066     2.132     2.283
   164   6 C        3.753    -0.110    22.664     6.789
   165   1 H        0.925     0.078     2.001     2.212
   166   1 H        0.925     0.065     2.147     2.291
   167   1 H        0.925     0.069     2.098     2.265
   168   6 C        3.753    -0.108    22.631     6.784
   169   1 H        0.925     0.069     2.096     2.264
   170   1 H        0.924     0.081     1.970     2.195
   171   1 H        0.925     0.072     2.067     2.248
   172   6 C        3.745    -0.049    21.531     6.619
   173   1 H        0.925     0.078     1.999     2.211
   174   1 H        0.925     0.085     1.928     2.172
   175   1 H        0.925     0.075     2.036     2.232
   176   6 C        3.745    -0.060    21.731     6.650
   177   1 H        0.925     0.093     1.850     2.127
   178   1 H        0.925     0.083     1.944     2.180
   179   1 H        0.925     0.088     1.896     2.154
   180  16 S        3.671     1.305    98.332    16.690
   181   8 O        0.860    -0.722    29.321     7.260
   182   8 O        0.860    -0.720    29.265     7.253
   183   8 O        0.860    -0.715    29.123     7.235
   184   6 C        2.978    -0.118    30.992     9.132
   185   6 C        1.978    -0.029    31.833     9.112
   186   6 C        2.900     0.017    27.631     8.619
   187   6 C        2.977     0.001    28.005     8.681
   188   1 H        0.925     0.081     1.972     2.196
   189   6 C        2.864     0.153    24.685     8.144
   190   6 C        2.924    -0.023    28.571     8.766
   191   6 C        2.913    -0.034    28.857     8.809
   192   6 C        2.921    -0.019    28.472     8.750
   193   6 C        2.912    -0.068    29.684     8.934
   194   1 H        0.925     0.072     2.065     2.247
   195   1 H        0.924     0.069     2.099     2.266
   196   1 H        0.924     0.059     2.211     2.325
   197   1 H        0.926     0.053     2.288     2.366
   198   1 H        0.926     0.061     2.192     2.315
   199   1 H        0.926     0.097     1.810     2.104
   200   8 O        1.706    -0.251    18.166     5.755
   201   6 C        3.696     0.082    19.384     6.298
   202   1 H        0.923     0.046     2.369     2.407
   203   1 H        0.923     0.047     2.364     2.405
   204   1 H        0.859     0.232     0.959     1.534
   205   7 N        2.761     0.544    13.548     5.467
   206   7 N        2.761     0.541    13.572     5.472
   207   8 O        0.930    -0.417    21.982     6.288
   208   8 O        0.930    -0.414    21.932     6.281
   209   8 O        0.930    -0.418    22.011     6.292
   210   8 O        0.930    -0.418    22.004     6.291
   211   1 H        0.926     0.056     2.252     2.347
   212   6 C        2.901     0.101    25.767     8.323
   213   6 C        2.932    -0.047    29.157     8.855
   214   1 H        0.926     0.092     1.856     2.131
   215   6 C        2.897    -0.074    29.856     8.959
   216   1 H        0.926     0.051     2.312     2.378
   217   6 C        2.939     0.012    27.741     8.638
   218   6 C        3.759    -0.116    22.767     6.803
   219   1 H        0.925     0.052     2.298     2.370
   220   1 H        0.925     0.047     2.363     2.404
   221   1 H        0.925     0.047     2.356     2.401
   222   6 C        3.759    -0.114    22.732     6.797
   223   1 H        0.925     0.053     2.277     2.360
   224   1 H        0.925     0.045     2.377     2.411
   225   1 H        0.925     0.053     2.278     2.360
   226   1 H        0.924     0.064     2.158     2.297
   227   1 H        0.924     0.068     2.106     2.270
   228   1 H        0.926     0.053     2.280     2.361
   229   6 C        2.965    -0.029    28.723     8.791
   230   6 C        2.928    -0.036    28.904     8.817
   231   6 C        2.967     0.027    27.397     8.586
   232   6 C        2.928    -0.036    28.896     8.816
   233   6 C        2.988    -0.030    28.731     8.793
   234   1 H        0.926     0.046     2.375     2.410
   235   1 H        0.926     0.054     2.275     2.359
   236   1 H        0.926     0.054     2.272     2.357
   237   1 H        0.926     0.041     2.437     2.441
   238   6 C        3.758    -0.118    22.809     6.809
   239   1 H        0.925     0.055     2.256     2.349
   240   1 H        0.925     0.058     2.227     2.334
   241   1 H        0.925     0.063     2.167     2.302

 Mol. C6AA /au·bohr⁶  :     723595.278574
 Mol. C8AA /au·bohr⁸  :   19639126.649805
 Mol. α(0) /au        :       1307.792733


Wiberg/Mayer (AO) data.
largest (>0.10) Wiberg bond orders for each atom

 ---------------------------------------------------------------------------
     #   Z sym  total        # sym  WBO       # sym  WBO       # sym  WBO
 ---------------------------------------------------------------------------
     1  44 Ru   6.266 --   121 C    1.213   123 S    0.840   122 S    0.778
                           120 Ru   0.631   126 C    0.526   129 C    0.452
                           125 C    0.379   127 C    0.329   128 C    0.311
                           186 C    0.176   185 C    0.106
     2   7 N    3.508 --    15 C    1.188    11 C    1.146    75 H    0.854
     3   7 N    3.486 --    15 C    1.318    16 C    0.990    76 H    0.881
                            71 S    0.143
     4   7 N    3.514 --    26 C    1.194   212 C    1.154   204 H    0.846
     5   7 N    3.482 --    26 C    1.324    27 C    0.988    87 H    0.868
                            70 S    0.142
     6   7 N    3.523 --    34 C    1.299    35 C    0.976    38 C    0.967
                            59 O    0.192
     7   7 N    3.522 --    33 C    1.298    39 C    0.976    42 C    0.966
                            60 O    0.190
     8   6 C    3.967 --    13 C    1.411     9 C    1.377    72 H    0.965
     9   6 C    3.987 --    10 C    1.427     8 C    1.377    14 C    0.981
    10   6 C    3.986 --     9 C    1.427    11 C    1.336    73 H    0.958
    11   6 C    3.970 --    12 C    1.343    10 C    1.336     2 N    1.146
    12   6 C    3.980 --    13 C    1.422    11 C    1.343    74 H    0.952
    13   6 C    3.970 --    12 C    1.422     8 C    1.411    44 C    0.951
    14   6 C    3.919 --    57 O    1.707    58 O    1.157     9 C    0.981
    15   6 C    3.954 --    71 S    1.374     3 N    1.318     2 N    1.188
    16   6 C    3.961 --     3 N    0.990    17 C    0.948    77 H    0.947
                            34 C    0.934
    17   6 C    3.986 --    20 C    1.000    18 C    0.998    19 C    0.997
                            16 C    0.948
    18   6 C    3.994 --    17 C    0.998    80 H    0.984    78 H    0.983
                            79 H    0.981
    19   6 C    3.994 --    17 C    0.997    81 H    0.985    82 H    0.984
                            83 H    0.980
    20   6 C    3.993 --    17 C    1.000   107 H    0.982    85 H    0.980
                            84 H    0.977
    21   6 C    3.821 --    68 F    0.951    22 C    0.951    69 F    0.946
                            67 F    0.935
    22   6 C    3.971 --   213 C    1.451    25 C    1.386    21 C    0.951
    23   6 C    3.979 --    24 C    1.424   212 C    1.344   199 H    0.945
    24   6 C    3.974 --    23 C    1.424    25 C    1.407    43 C    0.950
    25   6 C    3.965 --    24 C    1.407    22 C    1.386    86 H    0.964
    26   6 C    3.955 --    70 S    1.363     5 N    1.324     4 N    1.194
    27   6 C    3.960 --     5 N    0.988    28 C    0.949    88 H    0.947
                            33 C    0.932
    28   6 C    3.986 --    29 C    0.998    30 C    0.996    31 C    0.987
                            27 C    0.949
    29   6 C    3.993 --    28 C    0.998    91 H    0.984    89 H    0.982
                            90 H    0.981
    30   6 C    3.993 --    28 C    0.996    94 H    0.984    92 H    0.981
                            93 H    0.979
    31   6 C    3.983 --    32 C    0.994    28 C    0.987    96 H    0.966
                            95 H    0.954
    32   6 C    3.912 --    31 C    0.994    97 H    0.970    98 H    0.968
                            58 O    0.924
    33   6 C    3.951 --    60 O    1.604     7 N    1.298    27 C    0.932
    34   6 C    3.951 --    59 O    1.608     6 N    1.299    16 C    0.934
    35   6 C    3.965 --    36 C    1.004     6 N    0.976    99 H    0.963
                           100 H    0.962
    36   6 C    3.992 --    37 C    1.006    35 C    1.004   101 H    0.977
                           102 H    0.976
    37   6 C    3.988 --    36 C    1.006   108 H    0.976   109 H    0.975
                            38 C    0.970
    38   6 C    3.969 --    45 C    0.996    37 C    0.970     6 N    0.967
                           227 H    0.951
    39   6 C    3.964 --    40 C    1.004     7 N    0.976   103 H    0.963
                           104 H    0.960
    40   6 C    3.992 --    41 C    1.006    39 C    1.004   105 H    0.977
                           106 H    0.975
    41   6 C    3.988 --    40 C    1.006   113 H    0.976   114 H    0.976
                            42 C    0.972
    42   6 C    3.970 --    50 C    0.995    41 C    0.972     7 N    0.966
                           226 H    0.951
    43   6 C    3.822 --    63 F    0.951    24 C    0.950    61 F    0.947
                            62 F    0.937
    44   6 C    3.818 --    65 F    0.953    13 C    0.951    64 F    0.940
                            66 F    0.935
    45   6 C    3.984 --    47 C    1.400    46 C    1.382    38 C    0.996
    46   6 C    3.988 --    56 C    1.477    45 C    1.382   110 H    0.965
    47   6 C    3.987 --    48 C    1.458    45 C    1.400   111 H    0.958
    48   6 C    3.984 --    47 C    1.458    49 C    1.366   112 H    0.960
    49   6 C    3.954 --    48 C    1.366    56 C    1.353   206 N    0.992
    50   6 C    3.985 --    52 C    1.401    51 C    1.385    42 C    0.995
    51   6 C    3.989 --    53 C    1.475    50 C    1.385   115 H    0.964
    52   6 C    3.986 --    54 C    1.458    50 C    1.401   116 H    0.955
    53   6 C    3.985 --    51 C    1.475    55 C    1.356   117 H    0.959
    54   6 C    3.984 --    52 C    1.458    55 C    1.366   118 H    0.960
    55   6 C    3.954 --    54 C    1.366    53 C    1.356   205 N    0.989
    56   6 C    3.984 --    46 C    1.477    49 C    1.353   119 H    0.960
    57   8 O    2.011 --    14 C    1.707    58 O    0.176
    58   8 O    2.323 --    14 C    1.157    32 C    0.924    57 O    0.176
    59   8 O    1.945 --    34 C    1.608     6 N    0.192
    60   8 O    1.952 --    33 C    1.604     7 N    0.190
    61   9 F    1.070 --    43 C    0.947
    62   9 F    1.066 --    43 C    0.937
    63   9 F    1.075 --    43 C    0.951
    64   9 F    1.065 --    44 C    0.940
    65   9 F    1.076 --    44 C    0.953
    66   9 F    1.062 --    44 C    0.935
    67   9 F    1.064 --    21 C    0.935
    68   9 F    1.075 --    21 C    0.951
    69   9 F    1.069 --    21 C    0.946
    70  16 S    1.741 --    26 C    1.363     5 N    0.142
    71  16 S    1.724 --    15 C    1.374     3 N    0.143
    72   1 H    0.995 --     8 C    0.965
    73   1 H    0.995 --    10 C    0.958
    74   1 H    0.991 --    12 C    0.952
    75   1 H    0.946 --     2 N    0.854
    76   1 H    0.953 --     3 N    0.881
    77   1 H    0.995 --    16 C    0.947
    78   1 H    0.997 --    18 C    0.983
    79   1 H    0.998 --    18 C    0.981
    80   1 H    0.998 --    18 C    0.984
    81   1 H    0.998 --    19 C    0.985
    82   1 H    0.997 --    19 C    0.984
    83   1 H    0.998 --    19 C    0.980
    84   1 H    0.999 --    20 C    0.977
    85   1 H    0.997 --    20 C    0.980
    86   1 H    0.993 --    25 C    0.964
    87   1 H    0.952 --     5 N    0.868
    88   1 H    0.994 --    27 C    0.947
    89   1 H    0.997 --    29 C    0.982
    90   1 H    0.997 --    29 C    0.981
    91   1 H    0.998 --    29 C    0.984
    92   1 H    0.997 --    30 C    0.981
    93   1 H    0.998 --    30 C    0.979
    94   1 H    0.998 --    30 C    0.984
    95   1 H    0.995 --    31 C    0.954
    96   1 H    0.997 --    31 C    0.966
    97   1 H    0.996 --    32 C    0.970
    98   1 H    0.995 --    32 C    0.968
    99   1 H    0.996 --    35 C    0.963
   100   1 H    0.996 --    35 C    0.962
   101   1 H    0.997 --    36 C    0.977
   102   1 H    0.996 --    36 C    0.976
   103   1 H    0.996 --    39 C    0.963
   104   1 H    0.995 --    39 C    0.960
   105   1 H    0.996 --    40 C    0.977
   106   1 H    0.995 --    40 C    0.975
   107   1 H    0.998 --    20 C    0.982
   108   1 H    0.996 --    37 C    0.976
   109   1 H    0.995 --    37 C    0.975
   110   1 H    0.995 --    46 C    0.965
   111   1 H    0.993 --    47 C    0.958
   112   1 H    0.993 --    48 C    0.960
   113   1 H    0.995 --    41 C    0.976
   114   1 H    0.996 --    41 C    0.976
   115   1 H    0.996 --    51 C    0.964
   116   1 H    0.993 --    52 C    0.955
   117   1 H    0.993 --    53 C    0.959
   118   1 H    0.993 --    54 C    0.960
   119   1 H    0.993 --    56 C    0.960
   120  44 Ru   5.637 --   122 S    0.824   123 S    0.808   124 Cl   0.647
                             1 Ru   0.631   148 C    0.486   151 C    0.448
                           150 C    0.418   149 C    0.412   147 C    0.401
   121   6 C    3.813 --   185 C    2.274     1 Ru   1.213
   122  16 S    2.888 --   172 C    0.969   120 Ru   0.824     1 Ru   0.778
   123  16 S    2.915 --   176 C    0.969     1 Ru   0.840   120 Ru   0.808
   124  17 Cl   0.846 --   120 Ru   0.647
   125   6 C    3.978 --   129 C    1.224   126 C    1.176   130 C    1.007
                             1 Ru   0.379
   126   6 C    3.981 --   125 C    1.176   127 C    1.103   134 C    1.007
                             1 Ru   0.526
   127   6 C    3.979 --   128 C    1.354   126 C    1.103   138 C    1.020
                             1 Ru   0.329
   128   6 C    3.980 --   127 C    1.354   129 C    1.118   142 C    1.022
                             1 Ru   0.311
   129   6 C    3.980 --   125 C    1.224   128 C    1.118   146 C    1.015
                             1 Ru   0.452
   130   6 C    3.988 --   125 C    1.007   132 H    0.965   133 H    0.958
                           131 H    0.955
   131   1 H    0.993 --   130 C    0.955
   132   1 H    0.994 --   130 C    0.965
   133   1 H    0.994 --   130 C    0.958
   134   6 C    3.986 --   126 C    1.007   135 H    0.967   137 H    0.967
                           136 H    0.955
   135   1 H    0.992 --   134 C    0.967
   136   1 H    0.993 --   134 C    0.955
   137   1 H    0.993 --   134 C    0.967
   138   6 C    3.992 --   127 C    1.020   139 H    0.977   140 H    0.962
                           141 H    0.953
   139   1 H    0.995 --   138 C    0.977
   140   1 H    0.994 --   138 C    0.962
   141   1 H    0.994 --   138 C    0.953
   142   6 C    3.992 --   128 C    1.022   145 H    0.974   143 H    0.962
                           144 H    0.952
   143   1 H    0.996 --   142 C    0.962
   144   1 H    0.993 --   142 C    0.952
   145   1 H    0.995 --   142 C    0.974
   146   6 C    3.985 --   129 C    1.015   194 H    0.967   196 H    0.954
                           195 H    0.945
   147   6 C    3.981 --   151 C    1.217   148 C    1.188   152 C    1.020
                           120 Ru   0.401
   148   6 C    3.981 --   147 C    1.188   149 C    1.134   156 C    1.013
                           120 Ru   0.486
   149   6 C    3.980 --   150 C    1.250   148 C    1.134   160 C    1.021
                           120 Ru   0.412
   150   6 C    3.980 --   149 C    1.250   151 C    1.132   164 C    1.019
                           120 Ru   0.418
   151   6 C    3.976 --   147 C    1.217   150 C    1.132   168 C    1.014
                           120 Ru   0.448
   152   6 C    3.988 --   147 C    1.020   153 H    0.978   154 H    0.954
                           155 H    0.953
   153   1 H    0.995 --   152 C    0.978
   154   1 H    0.992 --   152 C    0.954
   155   1 H    0.993 --   152 C    0.953
   156   6 C    3.988 --   148 C    1.013   157 H    0.976   159 H    0.962
                           158 H    0.952
   157   1 H    0.995 --   156 C    0.976
   158   1 H    0.991 --   156 C    0.952
   159   1 H    0.993 --   156 C    0.962
   160   6 C    3.989 --   149 C    1.021   161 H    0.968   162 H    0.956
                           163 H    0.941
   161   1 H    0.995 --   160 C    0.968
   162   1 H    0.993 --   160 C    0.956
   163   1 H    0.994 --   160 C    0.941
   164   6 C    3.987 --   150 C    1.019   166 H    0.973   167 H    0.957
                           165 H    0.953
   165   1 H    0.992 --   164 C    0.953
   166   1 H    0.995 --   164 C    0.973
   167   1 H    0.993 --   164 C    0.957
   168   6 C    3.987 --   151 C    1.014   171 H    0.975   169 H    0.964
                           170 H    0.951
   169   1 H    0.993 --   168 C    0.964
   170   1 H    0.991 --   168 C    0.951
   171   1 H    0.994 --   168 C    0.975
   172   6 C    3.963 --   122 S    0.969   175 H    0.967   173 H    0.966
                           174 H    0.959
   173   1 H    0.991 --   172 C    0.966
   174   1 H    0.990 --   172 C    0.959
   175   1 H    0.992 --   172 C    0.967
   176   6 C    3.958 --   178 H    0.971   123 S    0.969   179 H    0.961
                           177 H    0.953
   177   1 H    0.988 --   176 C    0.953
   178   1 H    0.991 --   176 C    0.971
   179   1 H    0.989 --   176 C    0.961
   180  16 S    4.966 --   183 O    1.387   181 O    1.382   182 O    1.382
                           184 C    0.745
   181   8 O    1.763 --   180 S    1.382
   182   8 O    1.770 --   180 S    1.382
   183   8 O    1.771 --   180 S    1.387
   184   6 C    3.972 --   229 C    1.430   233 C    1.419   180 S    0.745
                           231 C    0.102
   185   6 C    3.974 --   121 C    2.274   186 C    1.461     1 Ru   0.106
   186   6 C    3.942 --   185 C    1.461   187 C    1.227   188 H    0.944
                             1 Ru   0.176
   187   6 C    3.985 --   190 C    1.311   189 C    1.228   186 C    1.227
   188   1 H    0.992 --   186 C    0.944
   189   6 C    3.897 --   193 C    1.369   187 C    1.228   200 O    1.117
   190   6 C    3.978 --   191 C    1.495   187 C    1.311   198 H    0.959
   191   6 C    3.988 --   190 C    1.495   192 C    1.386   211 H    0.965
   192   6 C    3.937 --   193 C    1.447   191 C    1.386   228 H    0.970
   193   6 C    3.984 --   192 C    1.447   189 C    1.369   197 H    0.963
   194   1 H    0.994 --   146 C    0.967
   195   1 H    0.993 --   146 C    0.945
   196   1 H    0.994 --   146 C    0.954
   197   1 H    0.997 --   193 C    0.963
   198   1 H    0.995 --   190 C    0.959
   199   1 H    0.990 --    23 C    0.945
   200   8 O    2.270 --   189 C    1.117   201 C    0.951
   201   6 C    3.931 --   215 C    1.014   203 H    0.954   200 O    0.951
                           202 H    0.950
   202   1 H    0.996 --   201 C    0.950
   203   1 H    0.996 --   201 C    0.954
   204   1 H    0.946 --     4 N    0.846
   205   7 N    3.904 --   208 O    1.434   210 O    1.431    55 C    0.989
   206   7 N    3.904 --   209 O    1.428   207 O    1.427    49 C    0.992
   207   8 O    1.901 --   206 N    1.427   209 O    0.334
   208   8 O    1.905 --   205 N    1.434   210 O    0.340
   209   8 O    1.904 --   206 N    1.428   207 O    0.334
   210   8 O    1.903 --   205 N    1.431   208 O    0.340
   211   1 H    0.996 --   191 C    0.965
   212   6 C    3.972 --    23 C    1.344   213 C    1.326     4 N    1.154
   213   6 C    3.982 --    22 C    1.451   212 C    1.326   214 H    0.949
   214   1 H    0.991 --   213 C    0.949
   215   6 C    3.977 --   217 C    1.879   201 C    1.014   216 H    0.962
   216   1 H    0.997 --   215 C    0.962
   217   6 C    3.988 --   215 C    1.879   222 C    1.029   218 C    1.023
   218   6 C    3.996 --   217 C    1.023   219 H    0.986   221 H    0.972
                           220 H    0.970
   219   1 H    0.997 --   218 C    0.986
   220   1 H    0.998 --   218 C    0.970
   221   1 H    0.998 --   218 C    0.972
   222   6 C    3.995 --   217 C    1.029   224 H    0.985   225 H    0.970
                           223 H    0.969
   223   1 H    0.997 --   222 C    0.969
   224   1 H    0.998 --   222 C    0.985
   225   1 H    0.997 --   222 C    0.970
   226   1 H    0.994 --    42 C    0.951
   227   1 H    0.994 --    38 C    0.951
   228   1 H    0.997 --   192 C    0.970
   229   6 C    3.990 --   230 C    1.437   184 C    1.430   234 H    0.965
                           232 C    0.109
   230   6 C    3.989 --   229 C    1.437   231 C    1.412   235 H    0.967
                           233 C    0.109
   231   6 C    3.988 --   230 C    1.412   232 C    1.402   238 C    1.030
                           184 C    0.102
   232   6 C    3.989 --   233 C    1.450   231 C    1.402   236 H    0.968
                           229 C    0.109
   233   6 C    3.990 --   232 C    1.450   184 C    1.419   237 H    0.967
                           230 C    0.109
   234   1 H    0.998 --   229 C    0.965
   235   1 H    0.996 --   230 C    0.967
   236   1 H    0.996 --   232 C    0.968
   237   1 H    0.998 --   233 C    0.967
   238   6 C    3.994 --   231 C    1.030   239 H    0.982   240 H    0.977
                           241 H    0.963
   239   1 H    0.997 --   238 C    0.982
   240   1 H    0.996 --   238 C    0.977
   241   1 H    0.996 --   238 C    0.963
 ---------------------------------------------------------------------------

Topologies differ in total number of bonds
Writing topology from bond orders to xtbtopo.mol

molecular dipole:
                 x           y           z       tot (Debye)
 q only:        0.818      -2.732       1.572
   full:        0.477      -3.559       2.819      11.604
molecular quadrupole (traceless):
                xx          xy          yy          xz          yz          zz
 q only:      177.918      39.305     -73.107      94.614     -87.369    -104.811
  q+dip:      154.493      58.345     -58.470     100.530     -87.871     -96.024
   full:      156.033      53.397     -57.882      97.277     -86.684     -98.150

           -------------------------------------------------
          |                Geometry Summary                 |
           -------------------------------------------------

      molecular mass/u    :     2112.8215252
   center of mass at/Å    :       -0.1195955      -0.3041135       0.0448493
  moments of inertia/u·Å² :        0.4473780E+05   0.5641470E+05   0.6884769E+05
rotational constants/cm⁻¹ :        0.3768096E-03   0.2988163E-03   0.2448540E-03

 * 235 selected distances

     #   Z          #   Z                                           value/Å
     8   6 C        9   6 C                                       1.3908145
     9   6 C       10   6 C                                       1.3842825
     2   7 N       11   6 C                                       1.3738169
    10   6 C       11   6 C                                       1.3994333
    11   6 C       12   6 C                                       1.3967935
     8   6 C       13   6 C                                       1.3877951
    12   6 C       13   6 C                                       1.3868820
     2   7 N       15   6 C                                       1.3629965
     3   7 N       15   6 C                                       1.3352862
     3   7 N       16   6 C                                       1.4394877
    17   6 C       18   6 C                                       1.5313040
    17   6 C       19   6 C                                       1.5322222
    17   6 C       20   6 C                                       1.5320790
    23   6 C       24   6 C                                       1.3857250
    22   6 C       25   6 C                                       1.3901290
    24   6 C       25   6 C                                       1.3869026
     4   7 N       26   6 C                                       1.3636643
     5   7 N       26   6 C                                       1.3368080
     5   7 N       27   6 C                                       1.4488903
    28   6 C       29   6 C                                       1.5310713
    28   6 C       30   6 C                                       1.5332304
    28   6 C       31   6 C                                       1.5352197
    31   6 C       32   6 C                                       1.5301017
     7   7 N       33   6 C                                       1.3391616
     6   7 N       34   6 C                                       1.3392804
     6   7 N       35   6 C                                       1.4548769
    35   6 C       36   6 C                                       1.5286757
    36   6 C       37   6 C                                       1.5248782
     6   7 N       38   6 C                                       1.4566848
    37   6 C       38   6 C                                       1.5351286
     7   7 N       39   6 C                                       1.4534438
    39   6 C       40   6 C                                       1.5270161
    40   6 C       41   6 C                                       1.5244630
     7   7 N       42   6 C                                       1.4590736
    41   6 C       42   6 C                                       1.5353587
    45   6 C       46   6 C                                       1.3946688
    45   6 C       47   6 C                                       1.3908299
    47   6 C       48   6 C                                       1.3809788
    48   6 C       49   6 C                                       1.3907808
    50   6 C       51   6 C                                       1.3942014
    50   6 C       52   6 C                                       1.3903241
    51   6 C       53   6 C                                       1.3770055
    52   6 C       54   6 C                                       1.3804141
    53   6 C       55   6 C                                       1.3918851
    54   6 C       55   6 C                                       1.3911722
    46   6 C       56   6 C                                       1.3771916
    49   6 C       56   6 C                                       1.3928849
    14   6 C       57   8 O                                       1.2096669
    14   6 C       58   8 O                                       1.3275638
    32   6 C       58   8 O                                       1.4316696
    34   6 C       59   8 O                                       1.2280027
    33   6 C       60   8 O                                       1.2282645
    43   6 C       61   9 F                                       1.3433616
    43   6 C       62   9 F                                       1.3484242
    43   6 C       63   9 F                                       1.3408179
    44   6 C       64   9 F                                       1.3466755
    44   6 C       65   9 F                                       1.3391292
    44   6 C       66   9 F                                       1.3506129
    21   6 C       67   9 F                                       1.3493719
    21   6 C       68   9 F                                       1.3406262
    21   6 C       69   9 F                                       1.3441690
    26   6 C       70  16 S                                       1.6668852
    15   6 C       71  16 S                                       1.6618563
     8   6 C       72   1 H                                       1.0782152
    10   6 C       73   1 H                                       1.0806009
    12   6 C       74   1 H                                       1.0781589
     2   7 N       75   1 H                                       1.0296032
     3   7 N       76   1 H                                       1.0151973 (min)
    16   6 C       77   1 H                                       1.0957381
    18   6 C       78   1 H                                       1.0870784
    18   6 C       79   1 H                                       1.0868870
    18   6 C       80   1 H                                       1.0869022
    19   6 C       81   1 H                                       1.0878864
    19   6 C       82   1 H                                       1.0871266
    19   6 C       83   1 H                                       1.0875409
    20   6 C       84   1 H                                       1.0882705
    20   6 C       85   1 H                                       1.0865885
    25   6 C       86   1 H                                       1.0779976
     5   7 N       87   1 H                                       1.0214013
    27   6 C       88   1 H                                       1.0957935
    29   6 C       89   1 H                                       1.0860839
    29   6 C       90   1 H                                       1.0867769
    29   6 C       91   1 H                                       1.0865016
    30   6 C       92   1 H                                       1.0861855
    30   6 C       93   1 H                                       1.0867053
    30   6 C       94   1 H                                       1.0874364
    31   6 C       95   1 H                                       1.0903707
    31   6 C       96   1 H                                       1.0907139
    32   6 C       97   1 H                                       1.0935731
    32   6 C       98   1 H                                       1.0892904
    35   6 C       99   1 H                                       1.0929661
    35   6 C      100   1 H                                       1.0928906
    36   6 C      101   1 H                                       1.0891843
    36   6 C      102   1 H                                       1.0870566
    39   6 C      103   1 H                                       1.0933927
    39   6 C      104   1 H                                       1.0916692
    40   6 C      105   1 H                                       1.0892017
    40   6 C      106   1 H                                       1.0869689
    20   6 C      107   1 H                                       1.0870186
    37   6 C      108   1 H                                       1.0870601
    37   6 C      109   1 H                                       1.0897091
    46   6 C      110   1 H                                       1.0792051
    47   6 C      111   1 H                                       1.0788578
    48   6 C      112   1 H                                       1.0789061
    41   6 C      113   1 H                                       1.0896709
    41   6 C      114   1 H                                       1.0870575
    51   6 C      115   1 H                                       1.0789679
    52   6 C      116   1 H                                       1.0785374
    53   6 C      117   1 H                                       1.0786927
    54   6 C      118   1 H                                       1.0791728
    56   6 C      119   1 H                                       1.0789970
     1  44 Ru     120  44 Ru                                      2.7807642 (max)
     1  44 Ru     121   6 C                                       1.9076831
     1  44 Ru     122  16 S                                       2.3749367
   120  44 Ru     122  16 S                                       2.3446734
     1  44 Ru     123  16 S                                       2.3540074
   120  44 Ru     123  16 S                                       2.3647692
   120  44 Ru     124  17 Cl                                      2.4354810
     1  44 Ru     126   6 C                                       2.1840702
   125   6 C      126   6 C                                       1.4348606
   126   6 C      127   6 C                                       1.4554325
   127   6 C      128   6 C                                       1.4004872
   125   6 C      129   6 C                                       1.4236863
   128   6 C      129   6 C                                       1.4530600
   125   6 C      130   6 C                                       1.4936875
   130   6 C      131   1 H                                       1.0898500
   130   6 C      132   1 H                                       1.0871768
   130   6 C      133   1 H                                       1.0873649
   126   6 C      134   6 C                                       1.4970678
   134   6 C      135   1 H                                       1.0881420
   134   6 C      136   1 H                                       1.0905914
   134   6 C      137   1 H                                       1.0889302
   127   6 C      138   6 C                                       1.4923323
   138   6 C      139   1 H                                       1.0860252
   138   6 C      140   1 H                                       1.0898750
   138   6 C      141   1 H                                       1.0904878
   128   6 C      142   6 C                                       1.4915746
   142   6 C      143   1 H                                       1.0884722
   142   6 C      144   1 H                                       1.0924660
   142   6 C      145   1 H                                       1.0864351
   129   6 C      146   6 C                                       1.4932872
   147   6 C      148   6 C                                       1.4324444
   148   6 C      149   6 C                                       1.4464072
   149   6 C      150   6 C                                       1.4201177
   147   6 C      151   6 C                                       1.4254433
   150   6 C      151   6 C                                       1.4486492
   147   6 C      152   6 C                                       1.4914357
   152   6 C      153   1 H                                       1.0858793
   152   6 C      154   1 H                                       1.0907924
   152   6 C      155   1 H                                       1.0898722
   148   6 C      156   6 C                                       1.4935173
   156   6 C      157   1 H                                       1.0859595
   156   6 C      158   1 H                                       1.0920017
   156   6 C      159   1 H                                       1.0896556
   149   6 C      160   6 C                                       1.4893254
   160   6 C      161   1 H                                       1.0868506
   160   6 C      162   1 H                                       1.0880467
   160   6 C      163   1 H                                       1.0914460
   150   6 C      164   6 C                                       1.4919947
   164   6 C      165   1 H                                       1.0879629
   164   6 C      166   1 H                                       1.0868579
   164   6 C      167   1 H                                       1.0893961
   151   6 C      168   6 C                                       1.4952579
   168   6 C      169   1 H                                       1.0885917
   168   6 C      170   1 H                                       1.0922826
   168   6 C      171   1 H                                       1.0861683
   122  16 S      172   6 C                                       1.8111997
   172   6 C      173   1 H                                       1.0870511
   172   6 C      174   1 H                                       1.0855416
   172   6 C      175   1 H                                       1.0866035
   123  16 S      176   6 C                                       1.8138737
   176   6 C      177   1 H                                       1.0865003
   176   6 C      178   1 H                                       1.0859686
   176   6 C      179   1 H                                       1.0858761
   180  16 S      181   8 O                                       1.4668685
   180  16 S      182   8 O                                       1.4669374
   180  16 S      183   8 O                                       1.4673323
   180  16 S      184   6 C                                       1.7557123
   121   6 C      185   6 C                                       1.2381326
   185   6 C      186   6 C                                       1.3517261
   186   6 C      187   6 C                                       1.4226385
   186   6 C      188   1 H                                       1.0824420
   187   6 C      189   6 C                                       1.4229091
   187   6 C      190   6 C                                       1.4057598
   190   6 C      191   6 C                                       1.3733649
   191   6 C      192   6 C                                       1.3906955
   189   6 C      193   6 C                                       1.3923276
   192   6 C      193   6 C                                       1.3836425
   146   6 C      194   1 H                                       1.0880966
   146   6 C      195   1 H                                       1.0903439
   146   6 C      196   1 H                                       1.0910148
   193   6 C      197   1 H                                       1.0780300
   190   6 C      198   1 H                                       1.0790114
    23   6 C      199   1 H                                       1.0777106
   189   6 C      200   8 O                                       1.3442030
   200   8 O      201   6 C                                       1.4176123
   201   6 C      202   1 H                                       1.1010845
   201   6 C      203   1 H                                       1.0989964
     4   7 N      204   1 H                                       1.0338607
    55   6 C      205   7 N                                       1.4258642
    49   6 C      206   7 N                                       1.4245712
   206   7 N      207   8 O                                       1.2191138
   205   7 N      208   8 O                                       1.2179522
   206   7 N      209   8 O                                       1.2188183
   205   7 N      210   8 O                                       1.2189478
   191   6 C      211   1 H                                       1.0781862
     4   7 N      212   6 C                                       1.3757342
    23   6 C      212   6 C                                       1.3974688
    22   6 C      213   6 C                                       1.3804650
   212   6 C      213   6 C                                       1.4021360
   213   6 C      214   1 H                                       1.0788953
   215   6 C      216   1 H                                       1.0794220
   215   6 C      217   6 C                                       1.3273859
   218   6 C      219   1 H                                       1.0857128
Note: The following floating-point exceptions are signalling: IEEE_UNDERFLOW_FLAG
normal termination of xtb
   218   6 C      220   1 H                                       1.0893637
   218   6 C      221   1 H                                       1.0891229
   222   6 C      223   1 H                                       1.0894025
   222   6 C      224   1 H                                       1.0860658
   222   6 C      225   1 H                                       1.0892628
    42   6 C      226   1 H                                       1.0966479
    38   6 C      227   1 H                                       1.0955990
   192   6 C      228   1 H                                       1.0793524
   184   6 C      229   6 C                                       1.3743227
   229   6 C      230   6 C                                       1.3852005
   230   6 C      231   6 C                                       1.3911968
   231   6 C      232   6 C                                       1.3932316
   184   6 C      233   6 C                                       1.3767256
   232   6 C      233   6 C                                       1.3832172
   229   6 C      234   1 H                                       1.0784338
   230   6 C      235   1 H                                       1.0795741
   232   6 C      236   1 H                                       1.0794727
   233   6 C      237   1 H                                       1.0787495
   238   6 C      239   1 H                                       1.0862784
   238   6 C      240   1 H                                       1.0869948
   238   6 C      241   1 H                                       1.0896971

 * 13 distinct bonds (by element types)

   Z      Z             #   av. dist./Å        max./Å        min./Å
   1 H    6 C         106     1.0868084     1.1010845     1.0777106
   6 C    6 C          73     1.4318419     1.5353587     1.2381326
   1 H    7 N           4     1.0250156     1.0338607     1.0151973
   6 C    7 N          16     1.3993525     1.4590736     1.3352862
   6 C    8 O           7     1.3124261     1.4316696     1.2096669
   7 N    8 O           4     1.2187080     1.2191138     1.2179522
   6 C    9 F           9     1.3447987     1.3506129     1.3391292
   6 C   16 S           5     1.7419054     1.8138737     1.6618563
   8 O   16 S           3     1.4670460     1.4673323     1.4668685
   6 C   44 Ru          2     2.0458766     2.1840702     1.9076831
  16 S   44 Ru          4     2.3595967     2.3749367     2.3446734
  17 Cl  44 Ru          1     2.4354810     2.4354810     2.4354810
  44 Ru  44 Ru          1     2.7807642     2.7807642     2.7807642


optimized geometry written to: xtbopt.xyz


           -------------------------------------------------
          | TOTAL ENERGY             -399.632783220826 Eh   |
          | GRADIENT NORM               0.000549612366 Eh/α |
          | HOMO-LUMO GAP               0.614968891802 eV   |
           -------------------------------------------------

------------------------------------------------------------------------
 * finished run on 2026/09/29 at 11:12:32.734     
------------------------------------------------------------------------
 total:
 * wall-time:     0 d,  0 h,  1 min, 52.512 sec
 *  cpu-time:     0 d,  0 h,  4 min, 29.851 sec
 * ratio c/w:     2.398 speedup
 SCF:
 * wall-time:     0 d,  0 h,  0 min,  0.722 sec
 *  cpu-time:     0 d,  0 h,  0 min,  1.702 sec
 * ratio c/w:     2.357 speedup
 ANC optimizer:
 * wall-time:     0 d,  0 h,  1 min, 51.751 sec
 *  cpu-time:     0 d,  0 h,  4 min, 28.079 sec
 * ratio c/w:     2.399 speedup

