      -----------------------------------------------------------      
     |                   =====================                   |     
     |                           x T B                           |     
     |                   =====================                   |     
     |                         S. Grimme                         |     
     |          Mulliken Center for Theoretical Chemistry        |     
     |                    University of Bonn                     |     
      -----------------------------------------------------------      

   * xtb version 6.7.1 (edcfbbe) compiled by 'runner@sat12-gn217-0cbadaec-b866-44ae-a866-732403219ae3-6E01A8DFFD18.local' on 2026-06-10

   xtb is free software: you can redistribute it and/or modify it under
   the terms of the GNU Lesser General Public License as published by
   the Free Software Foundation, either version 3 of the License, or
   (at your option) any later version.
   
   xtb is distributed in the hope that it will be useful,
   but WITHOUT ANY WARRANTY; without even the implied warranty of
   MERCHANTABILITY or FITNESS FOR A PARTICULAR PURPOSE.  See the
   GNU Lesser General Public License for more details.
   
   Cite this work as:
   * C. Bannwarth, E. Caldeweyher, S. Ehlert, A. Hansen, P. Pracht,
     J. Seibert, S. Spicher, S. Grimme, WIREs Comput. Mol. Sci., 2020, 11,
     e01493. DOI: 10.1002/wcms.1493
   
   for GFN2-xTB:
   * C. Bannwarth, S. Ehlert and S. Grimme., J. Chem. Theory Comput., 2019,
     15, 1652-1671. DOI: 10.1021/acs.jctc.8b01176
   for GFN1-xTB:
   * S. Grimme, C. Bannwarth, P. Shushkov, J. Chem. Theory Comput., 2017,
     13, 1989-2009. DOI: 10.1021/acs.jctc.7b00118
   for GFN0-xTB:
   * P. Pracht, E. Caldeweyher, S. Ehlert, S. Grimme, ChemRxiv, 2019, preprint.
     DOI: 10.26434/chemrxiv.8326202.v1
   for GFN-FF:
   * S. Spicher and S. Grimme, Angew. Chem. Int. Ed., 2020, 59, 15665-15673.
     DOI: 10.1002/anie.202004239
   
   for ALPB and GBSA implicit solvation:
   * S. Ehlert, M. Stahn, S. Spicher, S. Grimme, J. Chem. Theory Comput.,
     2021, 17, 4250-4261. DOI: 10.1021/acs.jctc.1c00471
   
   for ddCOSMO and CPCM-X implicit solvation:
   * M. Stahn, S. Ehlert, S. Grimme, J. Phys. Chem. A,
     2023, XX, XXXX-XXXX. DOI: 10.1021/acs.jpca.3c04382
   
   for DFT-D4:
   * E. Caldeweyher, C. Bannwarth and S. Grimme, J. Chem. Phys., 2017,
     147, 034112. DOI: 10.1063/1.4993215
   * E. Caldeweyher, S. Ehlert, A. Hansen, H. Neugebauer, S. Spicher,
     C. Bannwarth and S. Grimme, J. Chem. Phys., 2019, 150, 154122.
     DOI: 10.1063/1.5090222
   * E. Caldeweyher, J.-M. Mewes, S. Ehlert and S. Grimme, Phys. Chem. Chem. Phys.
     2020, 22, 8499-8512. DOI: 10.1039/D0CP00502A
   
   for sTDA-xTB:
   * S. Grimme and C. Bannwarth, J. Chem. Phys., 2016, 145, 054103.
     DOI: 10.1063/1.4959605
   
   in the mass-spec context:
   * V. Asgeirsson, C. Bauer and S. Grimme, Chem. Sci., 2017, 8, 4879.
     DOI: 10.1039/c7sc00601b
   * J. Koopman and S. Grimme, ACS Omega 2019, 4, 12, 15120-15133.
     DOI: 10.1021/acsomega.9b02011
   
   for metadynamics refer to:
   * S. Grimme, J. Chem. Theory Comput., 2019, 155, 2847-2862
     DOI: 10.1021/acs.jctc.9b00143
   
   for SPH calculations refer to:
   * S. Spicher and S. Grimme, J. Chem. Theory Comput., 2021, 17, 1701-1714
     DOI: 10.1021/acs.jctc.0c01306
   
   for ONIOM refer to:
   * C. Plett, A. Katbashev, S. Ehlert, S. Grimme, M. Bursch,
     Phys. Chem. Chem. Phys., 2023, 25, 17860-17868. DOI: 10.1039/D3CP02178E
   
   for DIPRO refer to:
   * J. Kohn, N. Gildemeister, S. Grimme, D. Fazzi, A. Hansen,
     J. Chem. Phys., 2023, just accepted.
   
   for PTB refer to:
   * S. Grimme, M. Mueller, A. Hansen, J. Chem. Phys., 2023, 158, 124111.
     DOI: 10.1063/5.0137838
   
   with help from (in alphabetical order)
   P. Atkinson, C. Bannwarth, F. Bohle, G. Brandenburg, E. Caldeweyher
   M. Checinski, S. Dohm, S. Ehlert, S. Ehrlich, I. Gerasimov, C. Hölzer
   A. Katbashev, J. Kohn, J. Koopman, C. Lavigne, S. Lehtola, F. März, M. Müller,
   F. Musil, H. Neugebauer, J. Pisarek, C. Plett, P. Pracht, F. Pultar,
   J. Seibert, P. Shushkov, S. Spicher, M. Stahn, M. Steiner, T. Strunk,
   J. Stückrath, T. Rose, and J. Unsleber
   
 * started run on 2026/09/29 at 11:33:24.029     
   ID    Z sym.   atoms
    1   44 Ru     1, 120
    2    7 N      2-7, 205, 206
    3    6 C      8-56, 121, 125-130, 134, 138, 142, 146-152, 156, 160, 164,
                  168, 172, 176, 184-187, 189-193, 201, 212, 213, 215, 217,
                  218, 222, 229-233, 238
    4    8 O      57-60, 181-183, 200, 207-210
    5    9 F      61-69
    6   16 S      70, 71, 122, 123, 180
    7    1 H      72-119, 131-133, 135-137, 139-141, 143-145, 153-155,
                  157-159, 161-163, 165-167, 169-171, 173-175, 177-179, 188,
                  194-199, 202-204, 211, 214, 216, 219-221, 223-228, 234-237,
                  239-241
    8   17 Cl     124
constraining bond 1 120 to    2.7856040 Å, actual value:    2.7826642 Å
constraining bond 1 122 to    2.3679472 Å, actual value:    2.3757543 Å
constraining bond 1 123 to    2.3486910 Å, actual value:    2.3531040 Å
constraining bond 120 122 to    2.3406651 Å, actual value:    2.3457460 Å
constraining bond 120 123 to    2.3608950 Å, actual value:    2.3642619 Å
constraining bond 120 124 to    2.4419555 Å, actual value:    2.4408787 Å
constraining bond 1 121 to    1.9039122 Å, actual value:    1.9088054 Å

           -------------------------------------------------
          |                Calculation Setup                |
           -------------------------------------------------

          program call               : SOURCE_WORKSPACE/.micromamba/part3c/bin/xtb preoptimized.xyz --gfn 2 --chrg 0 --uhf 0 --cosmo 9.08 --parallel 4 --metadyn 25 --input metadyn.inp --namespace solvent-md
          calculation namespace      : solvent-md
          coordinate file            : preoptimized.xyz
          omp threads                :                     4


molecular fragmentation (1/2 indicates fragments):
122222222222222222222222222222222222222222222222222222222222222222222222
222222222222222222222222222222222222222222222221111111111111111111111111
111111111111111111111111111111111112222211111111111111211112222222122211
1111111112212222222222222
# atoms in fragment 1/2:    92   149
 fragment masses (1/2) :      800.50     1312.33
CMA distance (Bohr)    :   9.353
constraining FC (au)   :  0.2500

           -------------------------------------------------
          |                 G F N 2 - x T B                 |
           -------------------------------------------------

        Reference                      10.1021/acs.jctc.8b01176
      * Hamiltonian:
        H0-scaling (s, p, d)           1.850000    2.230000    2.230000
        zeta-weighting                 0.500000
      * Dispersion:
        s8                             2.700000
        a1                             0.520000
        a2                             5.000000
        s9                             5.000000
      * Repulsion:
        kExp                           1.500000    1.000000
        rExp                           1.000000
      * Coulomb:
        alpha                          2.000000
        third order                    shell-resolved
        anisotropic                    true
        a3                             3.000000
        a5                             4.000000
        cn-shift                       1.200000
        cn-exp                         4.000000
        max-rad                        5.000000

      * Solvation model:               COSMO
        Solvent                        9.08
        Parameter file                 internal GFN-xTB/COSMO
        Dielectric constant                9.0800E+00
        Reference state                gsolv [1 M gas/solution]
        Free energy shift                  0.0000E+00 Eh       0.0000E+00 kcal/mol
        Temperature                        2.9815E+02 K
        Density                            1.0000E+00 kg/L
        Solvent mass                       1.8000E+01 g/mol
        vdW Radii scaling                  1.0000E+00
        Surface tension                    1.0000E-05 Eh       1.5569E+01 dyn/cm
        Grid points                               230 per atom
q/qsh data taken from xtbrestart
CAMM data taken from xtbrestart

          ...................................................
          :                      SETUP                      :
          :.................................................:
          :  # basis functions                 682          :
          :  # atomic orbitals                 674          :
          :  # shells                          380          :
          :  # electrons                       714          :
          :  max. iterations                   250          :
          :  Hamiltonian                  GFN2-xTB          :
          :  restarted?                       true          :
          :  GBSA solvation                   true          :
          :  PC potential                    false          :
          :  electronic temp.          300.0000000     K    :
          :  accuracy                    1.0000000          :
          :  -> integral cutoff          0.2500000E+02      :
          :  -> integral neglect         0.1000000E-07      :
          :  -> SCF convergence          0.1000000E-05 Eh   :
          :  -> wf. convergence          0.1000000E-03 e    :
          :  Broyden damping             0.4000000          :
          :  net charge                          0          :
          :  unpaired electrons                  0          :
          ...................................................

 iter      E             dE          RMSdq      gap      omega  full diag
   1   -404.5817722 -0.404582E+03  0.198E-05    0.75       0.0  T
   2   -404.5817712  0.983450E-06  0.512E-05    0.75     125.9  T
   3   -404.5817721 -0.918191E-06  0.159E-05    0.75     405.2  T

   *** convergence criteria satisfied after 3 iterations ***

         #    Occupation            Energy/Eh            Energy/eV
      -------------------------------------------------------------
         1        2.0000           -1.0532326             -28.6599
       ...           ...                  ...                  ...
       351        2.0000           -0.3802786             -10.3479
       352        2.0000           -0.3778965             -10.2831
       353        2.0000           -0.3659830              -9.9589
       354        2.0000           -0.3646558              -9.9228
       355        2.0000           -0.3635306              -9.8922
       356        2.0000           -0.3629285              -9.8758
       357        2.0000           -0.3605778              -9.8118 (HOMO)
       358        0.0000           -0.3328977              -9.0586 (LUMO)
       359                         -0.3305634              -8.9951
       360                         -0.3292298              -8.9588
       361                         -0.3275452              -8.9130
       362                         -0.3028690              -8.2415
       ...                                ...                  ...
       674                         11.2357521             305.7404
      -------------------------------------------------------------
                  HL-Gap            0.0276801 Eh            0.7532 eV
             Fermi-level           -0.3467227 Eh           -9.4348 eV

 SCC (total)                   0 d,  0 h,  0 min,  0.643 sec
 SCC setup                      ...        0 min,  0.007 sec (  1.011%)
 Dispersion                     ...        0 min,  0.003 sec (  0.508%)
 classical contributions        ...        0 min,  0.001 sec (  0.128%)
 integral evaluation            ...        0 min,  0.020 sec (  3.163%)
 iterations                     ...        0 min,  0.285 sec ( 44.231%)
 molecular gradient             ...        0 min,  0.305 sec ( 47.441%)
 printout                       ...        0 min,  0.023 sec (  3.514%)

         :::::::::::::::::::::::::::::::::::::::::::::::::::::
         ::                     SUMMARY                     ::
         :::::::::::::::::::::::::::::::::::::::::::::::::::::
         :: total energy            -399.668125231592 Eh    ::
         :: total w/o Gsasa/hb      -399.659627820512 Eh    ::
         :: gradient norm              0.000995501777 Eh/a0 ::
         :: HOMO-LUMO gap              0.753213674188 eV    ::
         ::.................................................::
         :: SCC energy              -404.542729891497 Eh    ::
         :: -> isotropic ES            0.673147790889 Eh    ::
         :: -> anisotropic ES         -0.093269246722 Eh    ::
         :: -> anisotropic XC          0.074720968351 Eh    ::
         :: -> dispersion             -0.408357272835 Eh    ::
         :: -> Gsolv                  -0.130827715205 Eh    ::
         ::    -> Gelec               -0.122330304125 Eh    ::
         ::    -> Gsasa               -0.008497411080 Eh    ::
         ::    -> Ghb                  0.000000000000 Eh    ::
         ::    -> Gshift               0.000000000000 Eh    ::
         :: repulsion energy           4.874469565959 Eh    ::
         :: add. restraining           0.000135093946 Eh    ::
         :: total charge               0.000000000003 e     ::
         :::::::::::::::::::::::::::::::::::::::::::::::::::::

           -------------------------------------------------
          |                Property Printout                |
           -------------------------------------------------

    * Orbital Energies and Occupations

         #    Occupation            Energy/Eh            Energy/eV
      -------------------------------------------------------------
         1        2.0000           -1.0532326             -28.6599
       ...           ...                  ...                  ...
       345        2.0000           -0.3991135             -10.8604
       346        2.0000           -0.3959469             -10.7743
       347        2.0000           -0.3925110             -10.6808
       348        2.0000           -0.3846434             -10.4667
       349        2.0000           -0.3826890             -10.4135
       350        2.0000           -0.3808070             -10.3623
       351        2.0000           -0.3802786             -10.3479
       352        2.0000           -0.3778965             -10.2831
       353        2.0000           -0.3659830              -9.9589
       354        2.0000           -0.3646558              -9.9228
       355        2.0000           -0.3635306              -9.8922
       356        2.0000           -0.3629285              -9.8758
       357        2.0000           -0.3605778              -9.8118 (HOMO)
       358        0.0000           -0.3328977              -9.0586 (LUMO)
       359                         -0.3305634              -8.9951
       360                         -0.3292298              -8.9588
       361                         -0.3275452              -8.9130
       362                         -0.3028690              -8.2415
       363                         -0.2987342              -8.1290
       364                         -0.2970726              -8.0838
       365                         -0.2822742              -7.6811
       366                         -0.2809245              -7.6443
       367                         -0.2804906              -7.6325
       368                         -0.2797158              -7.6115
       ...                                ...                  ...
       674                         11.2357521             305.7404
      -------------------------------------------------------------
                  HL-Gap            0.0276801 Eh            0.7532 eV
             Fermi-level           -0.3467227 Eh           -9.4348 eV

     #   Z          covCN         q      C6AA      α(0)
     1  44 Ru       7.441    -0.140   311.989    29.710
     2   7 N        2.750    -0.160    24.461     7.346
     3   7 N        2.778    -0.151    24.267     7.316
     4   7 N        2.743    -0.153    24.314     7.323
     5   7 N        2.776    -0.162    24.496     7.351
     6   7 N        2.757    -0.072    22.631     7.065
     7   7 N        2.756    -0.069    22.571     7.056
     8   6 C        2.922    -0.027    28.669     8.781
     9   6 C        2.973    -0.010    28.263     8.720
    10   6 C        2.936    -0.040    29.005     8.833
    11   6 C        2.901     0.097    25.857     8.338
    12   6 C        2.919    -0.039    28.971     8.826
    13   6 C        2.977    -0.019    28.472     8.753
    14   6 C        2.721     0.363    20.850     7.475
    15   6 C        2.805     0.208    23.593     7.958
    16   6 C        3.796     0.020    20.239     6.406
    17   6 C        3.900     0.027    20.063     6.367
    18   6 C        3.761    -0.119    22.821     6.810
    19   6 C        3.761    -0.113    22.713     6.794
    20   6 C        3.758    -0.107    22.590     6.776
    21   6 C        3.338     0.489    17.223     6.569
    22   6 C        2.977    -0.011    28.281     8.723
    23   6 C        2.922    -0.036    28.900     8.816
    24   6 C        2.979    -0.011    28.295     8.725
    25   6 C        2.919    -0.028    28.692     8.784
    26   6 C        2.810     0.207    23.609     7.961
    27   6 C        3.805     0.022    20.196     6.398
    28   6 C        3.898     0.024    20.125     6.377
    29   6 C        3.760    -0.126    22.963     6.832
    30   6 C        3.760    -0.120    22.856     6.815
    31   6 C        3.807    -0.070    21.834     6.652
    32   6 C        3.695     0.071    19.550     6.326
    33   6 C        2.762     0.267    22.499     7.768
    34   6 C        2.761     0.264    22.540     7.775
    35   6 C        3.766    -0.010    20.797     6.500
    36   6 C        3.831    -0.066    21.739     6.634
    37   6 C        3.836    -0.066    21.731     6.632
    38   6 C        3.836     0.039    19.890     6.345
    39   6 C        3.769    -0.014    20.852     6.508
    40   6 C        3.833    -0.066    21.741     6.634
    41   6 C        3.836    -0.066    21.735     6.633
    42   6 C        3.834     0.041    19.854     6.339
    43   6 C        3.337     0.489    17.220     6.569
    44   6 C        3.338     0.489    17.216     6.567
    45   6 C        2.972     0.038    27.147     8.546
    46   6 C        2.925    -0.025    28.623     8.774
    47   6 C        2.922    -0.022    28.553     8.763
    48   6 C        2.918    -0.013    28.350     8.731
    49   6 C        2.917     0.005    27.912     8.664
    50   6 C        2.972     0.036    27.182     8.552
    51   6 C        2.926    -0.030    28.757     8.794
    52   6 C        2.922    -0.022    28.566     8.765
    53   6 C        2.917    -0.017    28.443     8.746
    54   6 C        2.918    -0.016    28.401     8.739
    55   6 C        2.918     0.005    27.913     8.664
    56   6 C        2.917    -0.015    28.376     8.735
    57   8 O        0.856    -0.453    22.770     6.398
    58   8 O        1.705    -0.266    18.405     5.792
    59   8 O        0.859    -0.523    24.305     6.610
    60   8 O        0.859    -0.538    24.648     6.656
    61   9 F        0.791    -0.205    11.289     3.969
    62   9 F        0.791    -0.217    11.411     3.990
    63   9 F        0.791    -0.205    11.289     3.969
    64   9 F        0.791    -0.213    11.374     3.984
    65   9 F        0.791    -0.203    11.271     3.966
    66   9 F        0.791    -0.220    11.444     3.996
    67   9 F        0.791    -0.220    11.447     3.997
    68   9 F        0.791    -0.211    11.345     3.979
    69   9 F        0.791    -0.200    11.238     3.960
    70  16 S        1.106    -0.506   161.825    21.512
    71  16 S        1.082    -0.520   162.506    21.559
    72   1 H        0.926     0.072     2.062     2.246
    73   1 H        0.925     0.054     2.266     2.354
    74   1 H        0.926     0.090     1.875     2.141
    75   1 H        0.859     0.220     1.008     1.573
    76   1 H        0.860     0.204     1.086     1.632
    77   1 H        0.924     0.075     2.034     2.230
    78   1 H        0.925     0.056     2.248     2.345
    79   1 H        0.925     0.059     2.211     2.325
    80   1 H        0.925     0.048     2.344     2.394
    81   1 H        0.925     0.053     2.285     2.364
    82   1 H        0.925     0.054     2.273     2.358
    83   1 H        0.925     0.022     2.708     2.573
    84   1 H        0.924     0.012     2.860     2.645
    85   1 H        0.925     0.048     2.349     2.397
    86   1 H        0.926     0.095     1.827     2.114
    87   1 H        0.860     0.204     1.088     1.634
    88   1 H        0.924     0.083     1.951     2.184
    89   1 H        0.925     0.060     2.194     2.316
    90   1 H        0.925     0.069     2.098     2.265
    91   1 H        0.925     0.048     2.345     2.395
    92   1 H        0.925     0.059     2.213     2.326
    93   1 H        0.925     0.030     2.593     2.518
    94   1 H        0.925     0.061     2.187     2.312
    95   1 H        0.924     0.047     2.359     2.402
    96   1 H        0.924     0.042     2.421     2.433
    97   1 H        0.924     0.069     2.092     2.262
    98   1 H        0.925     0.087     1.907     2.159
    99   1 H        0.924     0.074     2.040     2.233
   100   1 H        0.924     0.060     2.204     2.321
   101   1 H        0.925     0.059     2.206     2.323
   102   1 H        0.925     0.068     2.112     2.273
   103   1 H        0.924     0.078     2.002     2.213
   104   1 H        0.924     0.069     2.101     2.267
   105   1 H        0.925     0.060     2.194     2.316
   106   1 H        0.925     0.071     2.079     2.255
   107   1 H        0.925     0.052     2.300     2.372
   108   1 H        0.925     0.070     2.087     2.259
   109   1 H        0.925     0.070     2.081     2.256
   110   1 H        0.926     0.090     1.882     2.145
   111   1 H        0.926     0.070     2.088     2.260
   112   1 H        0.926     0.070     2.081     2.256
   113   1 H        0.925     0.072     2.065     2.247
   114   1 H        0.925     0.069     2.102     2.267
   115   1 H        0.926     0.077     2.005     2.214
   116   1 H        0.926     0.076     2.019     2.222
   117   1 H        0.926     0.081     1.970     2.195
   118   1 H        0.926     0.084     1.935     2.175
   119   1 H        0.926     0.094     1.844     2.124
   120  44 Ru       7.360    -0.134   311.637    29.693
   121   6 C        1.908    -0.059    32.691     9.234
   122  16 S        2.767    -0.144   147.130    20.415
   123  16 S        2.768     0.024   140.063    19.919
   124  17 Cl       0.786    -0.579   118.509    16.653
   125   6 C        3.811     0.026    20.127     6.386
   126   6 C        3.894     0.028    20.055     6.366
   127   6 C        3.770     0.022    20.245     6.412
   128   6 C        3.759     0.010    20.456     6.448
   129   6 C        3.845     0.024    20.140     6.384
   130   6 C        3.753    -0.103    22.531     6.769
   131   1 H        0.925     0.079     1.987     2.205
   132   1 H        0.925     0.052     2.296     2.370
   133   1 H        0.925     0.074     2.046     2.237
   134   6 C        3.753    -0.116    22.772     6.805
   135   1 H        0.925     0.100     1.788     2.091
   136   1 H        0.925     0.079     1.984     2.203
   137   1 H        0.925     0.075     2.027     2.226
   138   6 C        3.753    -0.116    22.789     6.807
   139   1 H        0.925     0.067     2.124     2.279
   140   1 H        0.925     0.077     2.013     2.219
   141   1 H        0.925     0.101     1.780     2.086
   142   6 C        3.753    -0.089    22.252     6.727
   143   1 H        0.925     0.044     2.394     2.419
   144   1 H        0.924     0.035     2.519     2.482
   145   1 H        0.925     0.064     2.156     2.296
   146   6 C        3.752    -0.092    22.313     6.736
   147   6 C        3.783     0.033    20.037     6.376
   148   6 C        3.853     0.017    20.251     6.400
   149   6 C        3.827     0.025    20.138     6.385
   150   6 C        3.826     0.024    20.149     6.387
   151   6 C        3.833     0.030    20.051     6.371
   152   6 C        3.753    -0.103    22.517     6.767
   153   1 H        0.925     0.078     1.996     2.209
   154   1 H        0.924     0.076     2.022     2.224
   155   1 H        0.925     0.061     2.182     2.310
   156   6 C        3.753    -0.097    22.402     6.749
   157   1 H        0.925     0.056     2.245     2.343
   158   1 H        0.924     0.080     1.977     2.199
   159   1 H        0.924     0.052     2.289     2.366
   160   6 C        3.753    -0.096    22.386     6.747
   161   1 H        0.925     0.063     2.168     2.302
   162   1 H        0.925     0.072     2.060     2.244
   163   1 H        0.924     0.053     2.280     2.361
   164   6 C        3.753    -0.120    22.863     6.818
   165   1 H        0.925     0.103     1.754     2.071
   166   1 H        0.925     0.060     2.201     2.320
   167   1 H        0.925     0.100     1.788     2.091
   168   6 C        3.753    -0.118    22.811     6.811
   169   1 H        0.925     0.075     2.029     2.227
   170   1 H        0.924     0.092     1.858     2.132
   171   1 H        0.925     0.099     1.797     2.096
   172   6 C        3.744    -0.031    21.194     6.567
   173   1 H        0.925     0.063     2.162     2.300
   174   1 H        0.925     0.061     2.182     2.310
   175   1 H        0.925     0.062     2.174     2.306
   176   6 C        3.745    -0.068    21.883     6.673
   177   1 H        0.925     0.075     2.033     2.230
   178   1 H        0.925     0.111     1.691     2.033
   179   1 H        0.925     0.106     1.730     2.057
   180  16 S        3.679     1.286    98.824    16.731
   181   8 O        0.859    -0.736    29.718     7.309
   182   8 O        0.859    -0.732    29.600     7.294
   183   8 O        0.859    -0.731    29.570     7.291
   184   6 C        2.979    -0.119    31.010     9.135
   185   6 C        1.977    -0.039    32.089     9.148
   186   6 C        2.900     0.017    27.642     8.620
   187   6 C        2.976    -0.000    28.025     8.684
   188   1 H        0.925     0.080     1.979     2.200
   189   6 C        2.864     0.159    24.560     8.123
   190   6 C        2.923    -0.022    28.548     8.762
   191   6 C        2.912    -0.033    28.826     8.804
   192   6 C        2.920    -0.014    28.355     8.732
   193   6 C        2.912    -0.064    29.586     8.919
   194   1 H        0.925     0.056     2.250     2.346
   195   1 H        0.924     0.052     2.295     2.369
   196   1 H        0.924     0.044     2.392     2.418
   197   1 H        0.926     0.077     2.014     2.219
   198   1 H        0.926     0.038     2.472     2.459
   199   1 H        0.926     0.098     1.807     2.102
   200   8 O        1.706    -0.250    18.146     5.751
   201   6 C        3.696     0.075    19.483     6.314
   202   1 H        0.923     0.064     2.155     2.296
   203   1 H        0.924     0.058     2.224     2.332
   204   1 H        0.859     0.218     1.018     1.581
   205   7 N        2.762     0.541    13.575     5.472
   206   7 N        2.762     0.540    13.589     5.475
   207   8 O        0.930    -0.424    22.138     6.310
   208   8 O        0.930    -0.435    22.364     6.342
   209   8 O        0.930    -0.447    22.616     6.378
   210   8 O        0.930    -0.434    22.325     6.337
   211   1 H        0.926     0.035     2.517     2.481
   212   6 C        2.901     0.102    25.745     8.320
   213   6 C        2.934    -0.042    29.048     8.839
   214   1 H        0.926     0.073     2.049     2.239
   215   6 C        2.896    -0.075    29.870     8.961
   216   1 H        0.926     0.040     2.449     2.447
   217   6 C        2.939     0.013    27.718     8.635
   218   6 C        3.759    -0.119    22.821     6.811
   219   1 H        0.925     0.054     2.271     2.357
   220   1 H        0.925     0.050     2.316     2.380
   221   1 H        0.925     0.054     2.276     2.359
   222   6 C        3.760    -0.114    22.740     6.798
   223   1 H        0.925     0.056     2.241     2.341
   224   1 H        0.925     0.041     2.432     2.439
   225   1 H        0.925     0.055     2.261     2.352
   226   1 H        0.924     0.068     2.106     2.270
   227   1 H        0.924     0.078     1.997     2.210
   228   1 H        0.926     0.068     2.102     2.267
   229   6 C        2.970    -0.029    28.722     8.791
   230   6 C        2.929    -0.035    28.880     8.813
   231   6 C        2.966     0.033    27.269     8.565
   232   6 C        2.929    -0.035    28.864     8.811
   233   6 C        2.989    -0.030    28.738     8.794
   234   1 H        0.926     0.036     2.503     2.474
   235   1 H        0.926     0.066     2.135     2.285
   236   1 H        0.926     0.068     2.106     2.269
   237   1 H        0.926     0.039     2.461     2.453
   238   6 C        3.759    -0.122    22.893     6.821
   239   1 H        0.925     0.063     2.163     2.300
   240   1 H        0.925     0.066     2.132     2.284
   241   1 H        0.925     0.073     2.055     2.242

 Mol. C6AA /au·bohr⁶  :     722940.072772
 Mol. C8AA /au·bohr⁸  :   19634380.813716
 Mol. α(0) /au        :       1307.095471


Wiberg/Mayer (AO) data.
largest (>0.10) Wiberg bond orders for each atom

 ---------------------------------------------------------------------------
     #   Z sym  total        # sym  WBO       # sym  WBO       # sym  WBO
 ---------------------------------------------------------------------------
     1  44 Ru   6.267 --   121 C    1.207   123 S    0.869   122 S    0.748
                           120 Ru   0.631   126 C    0.545   129 C    0.440
                           125 C    0.381   127 C    0.333   128 C    0.312
                           186 C    0.177   185 C    0.107
     2   7 N    3.505 --    15 C    1.180    11 C    1.148    75 H    0.859
     3   7 N    3.494 --    15 C    1.328    16 C    0.982    76 H    0.888
                            71 S    0.145
     4   7 N    3.513 --    26 C    1.195   212 C    1.143   204 H    0.861
     5   7 N    3.481 --    26 C    1.321    27 C    0.982    87 H    0.882
                            70 S    0.140
     6   7 N    3.541 --    34 C    1.326    35 C    0.971    38 C    0.962
                            59 O    0.195
     7   7 N    3.540 --    33 C    1.326    39 C    0.969    42 C    0.963
                            60 O    0.190
     8   6 C    3.967 --    13 C    1.411     9 C    1.376    72 H    0.965
     9   6 C    3.987 --    10 C    1.428     8 C    1.376    14 C    0.981
    10   6 C    3.987 --     9 C    1.428    11 C    1.334    73 H    0.959
    11   6 C    3.970 --    12 C    1.342    10 C    1.334     2 N    1.148
    12   6 C    3.980 --    13 C    1.421    11 C    1.342    74 H    0.952
    13   6 C    3.970 --    12 C    1.421     8 C    1.411    44 C    0.952
    14   6 C    3.919 --    57 O    1.692    58 O    1.172     9 C    0.981
    15   6 C    3.952 --    71 S    1.368     3 N    1.328     2 N    1.180
    16   6 C    3.952 --     3 N    0.982    17 C    0.949    77 H    0.946
                            34 C    0.932
    17   6 C    3.985 --    20 C    1.000    18 C    0.998    19 C    0.997
                            16 C    0.949
    18   6 C    3.991 --    17 C    0.998    80 H    0.984    78 H    0.983
                            79 H    0.979
    19   6 C    3.994 --    17 C    0.997    81 H    0.984    82 H    0.983
                            83 H    0.982
    20   6 C    3.993 --    17 C    1.000   107 H    0.982    85 H    0.981
                            84 H    0.978
    21   6 C    3.820 --    69 F    0.954    22 C    0.951    68 F    0.945
                            67 F    0.932
    22   6 C    3.971 --   213 C    1.447    25 C    1.390    21 C    0.951
    23   6 C    3.979 --    24 C    1.424   212 C    1.347   199 H    0.945
    24   6 C    3.974 --    23 C    1.424    25 C    1.407    43 C    0.950
    25   6 C    3.963 --    24 C    1.407    22 C    1.390    86 H    0.961
    26   6 C    3.953 --    70 S    1.362     5 N    1.321     4 N    1.195
    27   6 C    3.954 --     5 N    0.982    28 C    0.949    88 H    0.945
                            33 C    0.933
    28   6 C    3.984 --    29 C    0.998    30 C    0.996    31 C    0.985
                            27 C    0.949
    29   6 C    3.989 --    28 C    0.998    91 H    0.983    89 H    0.981
                            90 H    0.979
    30   6 C    3.992 --    28 C    0.996    94 H    0.983    93 H    0.981
                            92 H    0.980
    31   6 C    3.987 --    32 C    0.994    28 C    0.985    96 H    0.968
                            95 H    0.957
    32   6 C    3.901 --    31 C    0.994    97 H    0.970    98 H    0.966
                            58 O    0.913
    33   6 C    3.950 --    60 O    1.571     7 N    1.326    27 C    0.933
    34   6 C    3.953 --    59 O    1.584     6 N    1.326    16 C    0.932
    35   6 C    3.959 --    36 C    1.003     6 N    0.971   100 H    0.964
                            99 H    0.960
    36   6 C    3.991 --    37 C    1.006    35 C    1.003   101 H    0.976
                           102 H    0.974
    37   6 C    3.983 --    36 C    1.006   108 H    0.974   109 H    0.974
                            38 C    0.967
    38   6 C    3.963 --    45 C    0.998    37 C    0.967     6 N    0.962
                           227 H    0.949
    39   6 C    3.956 --    40 C    1.004     7 N    0.969   104 H    0.961
                           103 H    0.960
    40   6 C    3.990 --    41 C    1.006    39 C    1.004   105 H    0.977
                           106 H    0.974
    41   6 C    3.983 --    40 C    1.006   114 H    0.974   113 H    0.974
                            42 C    0.967
    42   6 C    3.965 --    50 C    0.999    41 C    0.967     7 N    0.963
                           226 H    0.948
    43   6 C    3.822 --    63 F    0.951    24 C    0.950    61 F    0.949
                            62 F    0.934
    44   6 C    3.817 --    65 F    0.955    13 C    0.952    64 F    0.941
                            66 F    0.931
    45   6 C    3.983 --    47 C    1.394    46 C    1.378    38 C    0.998
    46   6 C    3.985 --    56 C    1.481    45 C    1.378   110 H    0.961
    47   6 C    3.988 --    48 C    1.464    45 C    1.394   111 H    0.960
    48   6 C    3.986 --    47 C    1.464    49 C    1.356   112 H    0.962
    49   6 C    3.948 --    48 C    1.356    56 C    1.342   206 N    1.005
    50   6 C    3.983 --    52 C    1.396    51 C    1.377    42 C    0.999
    51   6 C    3.986 --    53 C    1.484    50 C    1.377   115 H    0.962
    52   6 C    3.986 --    54 C    1.463    50 C    1.396   116 H    0.956
    53   6 C    3.984 --    51 C    1.484    55 C    1.344   117 H    0.959
    54   6 C    3.984 --    52 C    1.463    55 C    1.356   118 H    0.960
    55   6 C    3.949 --    54 C    1.356    53 C    1.344   205 N    1.003
    56   6 C    3.981 --    46 C    1.481    49 C    1.342   119 H    0.958
    57   8 O    1.994 --    14 C    1.692    58 O    0.177
    58   8 O    2.326 --    14 C    1.172    32 C    0.913    57 O    0.177
    59   8 O    1.920 --    34 C    1.584     6 N    0.195
    60   8 O    1.916 --    33 C    1.571     7 N    0.190
    61   9 F    1.073 --    43 C    0.949
    62   9 F    1.062 --    43 C    0.934
    63   9 F    1.074 --    43 C    0.951
    64   9 F    1.065 --    44 C    0.941
    65   9 F    1.077 --    44 C    0.955
    66   9 F    1.059 --    44 C    0.931
    67   9 F    1.059 --    21 C    0.932
    68   9 F    1.069 --    21 C    0.945
    69   9 F    1.077 --    21 C    0.954
    70  16 S    1.736 --    26 C    1.362     5 N    0.140
    71  16 S    1.710 --    15 C    1.368     3 N    0.145
    72   1 H    0.995 --     8 C    0.965
    73   1 H    0.997 --    10 C    0.959
    74   1 H    0.991 --    12 C    0.952
    75   1 H    0.951 --     2 N    0.859
    76   1 H    0.958 --     3 N    0.888
    77   1 H    0.993 --    16 C    0.946
    78   1 H    0.996 --    18 C    0.983
    79   1 H    0.997 --    18 C    0.979
    80   1 H    0.998 --    18 C    0.984
    81   1 H    0.997 --    19 C    0.984
    82   1 H    0.996 --    19 C    0.983
    83   1 H    1.000 --    19 C    0.982
    84   1 H    1.000 --    20 C    0.978
    85   1 H    0.998 --    20 C    0.981
    86   1 H    0.991 --    25 C    0.961
    87   1 H    0.958 --     5 N    0.882
    88   1 H    0.992 --    27 C    0.945
    89   1 H    0.996 --    29 C    0.981
    90   1 H    0.995 --    29 C    0.979
    91   1 H    0.998 --    29 C    0.983
    92   1 H    0.995 --    30 C    0.980
    93   1 H    0.999 --    30 C    0.981
    94   1 H    0.996 --    30 C    0.983
    95   1 H    0.998 --    31 C    0.957
    96   1 H    0.998 --    31 C    0.968
    97   1 H    0.995 --    32 C    0.970
    98   1 H    0.992 --    32 C    0.966
    99   1 H    0.994 --    35 C    0.960
   100   1 H    0.996 --    35 C    0.964
   101   1 H    0.996 --    36 C    0.976
   102   1 H    0.994 --    36 C    0.974
   103   1 H    0.994 --    39 C    0.960
   104   1 H    0.995 --    39 C    0.961
   105   1 H    0.996 --    40 C    0.977
   106   1 H    0.994 --    40 C    0.974
   107   1 H    0.997 --    20 C    0.982
   108   1 H    0.995 --    37 C    0.974
   109   1 H    0.994 --    37 C    0.974
   110   1 H    0.991 --    46 C    0.961
   111   1 H    0.995 --    47 C    0.960
   112   1 H    0.995 --    48 C    0.962
   113   1 H    0.994 --    41 C    0.974
   114   1 H    0.995 --    41 C    0.974
   115   1 H    0.993 --    51 C    0.962
   116   1 H    0.994 --    52 C    0.956
   117   1 H    0.993 --    53 C    0.959
   118   1 H    0.993 --    54 C    0.960
   119   1 H    0.991 --    56 C    0.958
   120  44 Ru   5.626 --   123 S    0.830   122 S    0.795     1 Ru   0.631
                           124 Cl   0.586   148 C    0.474   151 C    0.465
                           150 C    0.443   149 C    0.428   147 C    0.407
   121   6 C    3.806 --   185 C    2.287     1 Ru   1.207
   122  16 S    2.811 --   172 C    0.966   120 Ru   0.795     1 Ru   0.748
   123  16 S    2.967 --   176 C    0.971     1 Ru   0.869   120 Ru   0.830
   124  17 Cl   0.734 --   120 Ru   0.586
   125   6 C    3.978 --   129 C    1.235   126 C    1.163   130 C    1.008
                             1 Ru   0.381
   126   6 C    3.978 --   125 C    1.163   127 C    1.096   134 C    1.007
                             1 Ru   0.545
   127   6 C    3.975 --   128 C    1.351   126 C    1.096   138 C    1.023
                             1 Ru   0.333
   128   6 C    3.979 --   127 C    1.351   129 C    1.121   142 C    1.020
                             1 Ru   0.312
   129   6 C    3.981 --   125 C    1.235   128 C    1.121   146 C    1.014
                             1 Ru   0.440
   130   6 C    3.989 --   125 C    1.008   132 H    0.969   133 H    0.957
                           131 H    0.954
   131   1 H    0.992 --   130 C    0.954
   132   1 H    0.997 --   130 C    0.969
   133   1 H    0.993 --   130 C    0.957
   134   6 C    3.980 --   126 C    1.007   137 H    0.967   135 H    0.961
                           136 H    0.951
   135   1 H    0.988 --   134 C    0.961
   136   1 H    0.991 --   134 C    0.951
   137   1 H    0.992 --   134 C    0.967
   138   6 C    3.986 --   127 C    1.023   139 H    0.976   140 H    0.956
                           141 H    0.946
   139   1 H    0.995 --   138 C    0.976
   140   1 H    0.992 --   138 C    0.956
   141   1 H    0.989 --   138 C    0.946
   142   6 C    3.992 --   128 C    1.020   145 H    0.975   143 H    0.963
                           144 H    0.958
   143   1 H    0.997 --   142 C    0.963
   144   1 H    0.996 --   142 C    0.958
   145   1 H    0.995 --   142 C    0.975
   146   6 C    3.989 --   129 C    1.014   194 H    0.969   196 H    0.956
                           195 H    0.950
   147   6 C    3.981 --   151 C    1.208   148 C    1.196   152 C    1.021
                           120 Ru   0.407
   148   6 C    3.981 --   147 C    1.196   149 C    1.139   156 C    1.015
                           120 Ru   0.474
   149   6 C    3.980 --   150 C    1.234   148 C    1.139   160 C    1.020
                           120 Ru   0.428
   150   6 C    3.977 --   149 C    1.234   151 C    1.121   164 C    1.022
                           120 Ru   0.443
   151   6 C    3.973 --   147 C    1.208   150 C    1.121   168 C    1.014
                           120 Ru   0.465
   152   6 C    3.989 --   147 C    1.021   153 H    0.976   155 H    0.956
                           154 H    0.954
   153   1 H    0.993 --   152 C    0.976
   154   1 H    0.993 --   152 C    0.954
   155   1 H    0.995 --   152 C    0.956
   156   6 C    3.989 --   148 C    1.015   157 H    0.977   159 H    0.965
                           158 H    0.950
   157   1 H    0.996 --   156 C    0.977
   158   1 H    0.991 --   156 C    0.950
   159   1 H    0.995 --   156 C    0.965
   160   6 C    3.990 --   149 C    1.020   161 H    0.968   162 H    0.955
                           163 H    0.945
   161   1 H    0.995 --   160 C    0.968
   162   1 H    0.993 --   160 C    0.955
   163   1 H    0.995 --   160 C    0.945
   164   6 C    3.981 --   150 C    1.022   166 H    0.973   167 H    0.947
                           165 H    0.945
   165   1 H    0.988 --   164 C    0.945
   166   1 H    0.996 --   164 C    0.973
   167   1 H    0.988 --   164 C    0.947
   168   6 C    3.979 --   151 C    1.014   171 H    0.969   169 H    0.962
                           170 H    0.947
   169   1 H    0.992 --   168 C    0.962
   170   1 H    0.989 --   168 C    0.947
   171   1 H    0.989 --   168 C    0.969
   172   6 C    3.971 --   173 H    0.971   175 H    0.971   174 H    0.967
                           122 S    0.966
   173   1 H    0.994 --   172 C    0.971
   174   1 H    0.994 --   172 C    0.967
   175   1 H    0.994 --   172 C    0.971
   176   6 C    3.954 --   123 S    0.971   178 H    0.965   177 H    0.959
                           179 H    0.956
   177   1 H    0.992 --   176 C    0.959
   178   1 H    0.985 --   176 C    0.965
   179   1 H    0.985 --   176 C    0.956
   180  16 S    4.960 --   182 O    1.384   181 O    1.383   183 O    1.379
                           184 C    0.745
   181   8 O    1.748 --   180 S    1.383
   182   8 O    1.754 --   180 S    1.384
   183   8 O    1.755 --   180 S    1.379
   184   6 C    3.966 --   229 C    1.426   233 C    1.416   180 S    0.745
                           231 C    0.101
   185   6 C    3.974 --   121 C    2.287   186 C    1.449     1 Ru   0.107
   186   6 C    3.946 --   185 C    1.449   187 C    1.243   188 H    0.944
                             1 Ru   0.177
   187   6 C    3.986 --   190 C    1.303   186 C    1.243   189 C    1.220
   188   1 H    0.992 --   186 C    0.944
   189   6 C    3.898 --   193 C    1.357   187 C    1.220   200 O    1.135
   190   6 C    3.982 --   191 C    1.505   187 C    1.303   198 H    0.962
   191   6 C    3.989 --   190 C    1.505   192 C    1.374   211 H    0.968
   192   6 C    3.935 --   193 C    1.458   191 C    1.374   228 H    0.968
   193   6 C    3.982 --   192 C    1.458   189 C    1.357   197 H    0.960
   194   1 H    0.996 --   146 C    0.969
   195   1 H    0.995 --   146 C    0.950
   196   1 H    0.996 --   146 C    0.956
   197   1 H    0.993 --   193 C    0.960
   198   1 H    0.998 --   190 C    0.962
   199   1 H    0.990 --    23 C    0.945
   200   8 O    2.281 --   189 C    1.135   201 C    0.940
   201   6 C    3.921 --   215 C    1.015   203 H    0.953   202 H    0.948
                           200 O    0.940
   202   1 H    0.994 --   201 C    0.948
   203   1 H    0.994 --   201 C    0.953
   204   1 H    0.952 --     4 N    0.861
   205   7 N    3.899 --   210 O    1.421   208 O    1.419    55 C    1.003
   206   7 N    3.899 --   207 O    1.422   209 O    1.411    49 C    1.005
   207   8 O    1.891 --   206 N    1.422   209 O    0.322
   208   8 O    1.885 --   205 N    1.419   210 O    0.326
   209   8 O    1.881 --   206 N    1.411   207 O    0.322
   210   8 O    1.888 --   205 N    1.421   208 O    0.326
   211   1 H    0.998 --   191 C    0.968
   212   6 C    3.969 --    23 C    1.347   213 C    1.332     4 N    1.143
   213   6 C    3.985 --    22 C    1.447   212 C    1.332   214 H    0.952
   214   1 H    0.994 --   213 C    0.952
   215   6 C    3.977 --   217 C    1.877   201 C    1.015   216 H    0.963
   216   1 H    0.998 --   215 C    0.963
   217   6 C    3.987 --   215 C    1.877   222 C    1.029   218 C    1.024
   218   6 C    3.996 --   217 C    1.024   219 H    0.986   221 H    0.972
                           220 H    0.968
   219   1 H    0.997 --   218 C    0.986
   220   1 H    0.997 --   218 C    0.968
   221   1 H    0.997 --   218 C    0.972
   222   6 C    3.995 --   217 C    1.029   224 H    0.985   225 H    0.969
                           223 H    0.969
   223   1 H    0.997 --   222 C    0.969
   224   1 H    0.998 --   222 C    0.985
   225   1 H    0.997 --   222 C    0.969
   226   1 H    0.993 --    42 C    0.948
   227   1 H    0.992 --    38 C    0.949
   228   1 H    0.995 --   192 C    0.968
   229   6 C    3.989 --   230 C    1.439   184 C    1.426   234 H    0.966
                           232 C    0.108
   230   6 C    3.987 --   229 C    1.439   231 C    1.408   235 H    0.966
                           233 C    0.108
   231   6 C    3.986 --   230 C    1.408   232 C    1.399   238 C    1.033
                           184 C    0.101
   232   6 C    3.987 --   233 C    1.449   231 C    1.399   236 H    0.966
                           229 C    0.108
   233   6 C    3.989 --   232 C    1.449   184 C    1.416   237 H    0.966
                           230 C    0.108
   234   1 H    0.998 --   229 C    0.966
   235   1 H    0.995 --   230 C    0.966
   236   1 H    0.995 --   232 C    0.966
   237   1 H    0.998 --   233 C    0.966
   238   6 C    3.991 --   231 C    1.033   239 H    0.980   240 H    0.976
                           241 H    0.959
   239   1 H    0.996 --   238 C    0.980
   240   1 H    0.995 --   238 C    0.976
   241   1 H    0.994 --   238 C    0.959
 ---------------------------------------------------------------------------

Topologies differ in total number of bonds
Writing topology from bond orders to xtbtopo.mol

molecular dipole:
                 x           y           z       tot (Debye)
 q only:        0.960      -4.340      -0.515
   full:        0.773      -4.691       1.872      12.988
molecular quadrupole (traceless):
                xx          xy          yy          xz          yz          zz
 q only:      212.759      39.023    -105.395     134.216    -104.388    -107.364
  q+dip:      178.343      59.963     -80.869     128.821     -98.116     -97.475
   full:      180.312      55.150     -80.310     125.891     -96.742    -100.002


           -------------------------------------------------
          | TOTAL ENERGY             -399.668125231592 Eh   |
          | GRADIENT NORM               0.000995501777 Eh/α |
          | HOMO-LUMO GAP               0.753213674188 eV   |
           -------------------------------------------------
           ------------------------------------------------- 
          |                  Meta Dynamics                  |
           ------------------------------------------------- 
 init_shake: metal bond            1         120 not constrained
 init_shake: metal bond            1         121 not constrained
 init_shake: metal bond            1         122 not constrained
 init_shake: metal bond            1         123 not constrained
 init_shake: metal bond            1         125 not constrained
 init_shake: metal bond            1         126 not constrained
 init_shake: metal bond            1         127 not constrained
 init_shake: metal bond            1         128 not constrained
 init_shake: metal bond            1         129 not constrained
 init_shake: metal bond          120         122 not constrained
 init_shake: metal bond          120         123 not constrained
 init_shake: metal bond          120         124 not constrained
 init_shake: metal bond          120         147 not constrained
 init_shake: metal bond          120         148 not constrained
 init_shake: metal bond          120         149 not constrained
 init_shake: metal bond          120         150 not constrained
 init_shake: metal bond          120         151 not constrained
 trajectories on xtb.trj or xtb.trj.<n>

 MD time /ps        :    1.00
 dt /fs             :    2.00
 SCC accuracy       :    1.00
 temperature /K     :  298.15
 max steps          :   500
 block length (av.) :  2500
 dumpstep(trj) /fs  :   20.00    10
 dumpstep(coords)/fs:  100.00    50
 H atoms mass (amu) :     4
 # deg. of freedom  :   482
 SHAKE on. # bonds  :         241  all: T
 Berendsen THERMOSTAT on
 RESTART
 --- metadynamics parameter ---
 kpush  :    0.001
 alpha  :    1.000
Note: The following floating-point exceptions are signalling: IEEE_UNDERFLOW_FLAG
normal termination of xtb
 update :      25
         time (ps)    <Epot>      Ekin   <T>   T     Etot
      0    0.00      0.00000   0.2275    0.    0.  -399.30720
  adding snapshot to metadynamics bias
est. speed in wall clock h for 100 ps : 34.72
  adding snapshot to metadynamics bias
  adding snapshot to metadynamics bias
    200    0.40   -397.48905   0.2090  256.  274.  -399.26668
  adding snapshot to metadynamics bias
  adding snapshot to metadynamics bias
  adding snapshot to metadynamics bias
  adding snapshot to metadynamics bias
    400    0.80   -398.47120   0.2045  262.  268.  -399.23972
  adding snapshot to metadynamics bias
  adding snapshot to metadynamics bias
 average properties 
 Epot               :  -398.66692587972034     
 Epot (accurate SCC):  -399.46569841589809     
 Ekin               :  0.20212479092998187     
 Etot               :  -398.46480108879041     
 T                  :   264.83826153235640     
 thermostating problem
 normal exit of md()

------------------------------------------------------------------------
 * finished run on 2026/09/29 at 11:55:06.036     
------------------------------------------------------------------------
 total:
 * wall-time:     0 d,  0 h, 21 min, 42.007 sec
 *  cpu-time:     0 d,  0 h, 52 min, 38.633 sec
 * ratio c/w:     2.426 speedup
 SCF:
 * wall-time:     0 d,  0 h,  0 min,  0.645 sec
 *  cpu-time:     0 d,  0 h,  0 min,  1.484 sec
 * ratio c/w:     2.300 speedup
 MD:
 * wall-time:     0 d,  0 h, 21 min, 41.321 sec
 *  cpu-time:     0 d,  0 h, 52 min, 37.076 sec
 * ratio c/w:     2.426 speedup

