      -----------------------------------------------------------      
     |                   =====================                   |     
     |                           x T B                           |     
     |                   =====================                   |     
     |                         S. Grimme                         |     
     |          Mulliken Center for Theoretical Chemistry        |     
     |                    University of Bonn                     |     
      -----------------------------------------------------------      

   * xtb version 6.7.1 (edcfbbe) compiled by 'runner@sat12-gn217-0cbadaec-b866-44ae-a866-732403219ae3-6E01A8DFFD18.local' on 2026-06-10

   xtb is free software: you can redistribute it and/or modify it under
   the terms of the GNU Lesser General Public License as published by
   the Free Software Foundation, either version 3 of the License, or
   (at your option) any later version.
   
   xtb is distributed in the hope that it will be useful,
   but WITHOUT ANY WARRANTY; without even the implied warranty of
   MERCHANTABILITY or FITNESS FOR A PARTICULAR PURPOSE.  See the
   GNU Lesser General Public License for more details.
   
   Cite this work as:
   * C. Bannwarth, E. Caldeweyher, S. Ehlert, A. Hansen, P. Pracht,
     J. Seibert, S. Spicher, S. Grimme, WIREs Comput. Mol. Sci., 2020, 11,
     e01493. DOI: 10.1002/wcms.1493
   
   for GFN2-xTB:
   * C. Bannwarth, S. Ehlert and S. Grimme., J. Chem. Theory Comput., 2019,
     15, 1652-1671. DOI: 10.1021/acs.jctc.8b01176
   for GFN1-xTB:
   * S. Grimme, C. Bannwarth, P. Shushkov, J. Chem. Theory Comput., 2017,
     13, 1989-2009. DOI: 10.1021/acs.jctc.7b00118
   for GFN0-xTB:
   * P. Pracht, E. Caldeweyher, S. Ehlert, S. Grimme, ChemRxiv, 2019, preprint.
     DOI: 10.26434/chemrxiv.8326202.v1
   for GFN-FF:
   * S. Spicher and S. Grimme, Angew. Chem. Int. Ed., 2020, 59, 15665-15673.
     DOI: 10.1002/anie.202004239
   
   for ALPB and GBSA implicit solvation:
   * S. Ehlert, M. Stahn, S. Spicher, S. Grimme, J. Chem. Theory Comput.,
     2021, 17, 4250-4261. DOI: 10.1021/acs.jctc.1c00471
   
   for ddCOSMO and CPCM-X implicit solvation:
   * M. Stahn, S. Ehlert, S. Grimme, J. Phys. Chem. A,
     2023, XX, XXXX-XXXX. DOI: 10.1021/acs.jpca.3c04382
   
   for DFT-D4:
   * E. Caldeweyher, C. Bannwarth and S. Grimme, J. Chem. Phys., 2017,
     147, 034112. DOI: 10.1063/1.4993215
   * E. Caldeweyher, S. Ehlert, A. Hansen, H. Neugebauer, S. Spicher,
     C. Bannwarth and S. Grimme, J. Chem. Phys., 2019, 150, 154122.
     DOI: 10.1063/1.5090222
   * E. Caldeweyher, J.-M. Mewes, S. Ehlert and S. Grimme, Phys. Chem. Chem. Phys.
     2020, 22, 8499-8512. DOI: 10.1039/D0CP00502A
   
   for sTDA-xTB:
   * S. Grimme and C. Bannwarth, J. Chem. Phys., 2016, 145, 054103.
     DOI: 10.1063/1.4959605
   
   in the mass-spec context:
   * V. Asgeirsson, C. Bauer and S. Grimme, Chem. Sci., 2017, 8, 4879.
     DOI: 10.1039/c7sc00601b
   * J. Koopman and S. Grimme, ACS Omega 2019, 4, 12, 15120-15133.
     DOI: 10.1021/acsomega.9b02011
   
   for metadynamics refer to:
   * S. Grimme, J. Chem. Theory Comput., 2019, 155, 2847-2862
     DOI: 10.1021/acs.jctc.9b00143
   
   for SPH calculations refer to:
   * S. Spicher and S. Grimme, J. Chem. Theory Comput., 2021, 17, 1701-1714
     DOI: 10.1021/acs.jctc.0c01306
   
   for ONIOM refer to:
   * C. Plett, A. Katbashev, S. Ehlert, S. Grimme, M. Bursch,
     Phys. Chem. Chem. Phys., 2023, 25, 17860-17868. DOI: 10.1039/D3CP02178E
   
   for DIPRO refer to:
   * J. Kohn, N. Gildemeister, S. Grimme, D. Fazzi, A. Hansen,
     J. Chem. Phys., 2023, just accepted.
   
   for PTB refer to:
   * S. Grimme, M. Mueller, A. Hansen, J. Chem. Phys., 2023, 158, 124111.
     DOI: 10.1063/5.0137838
   
   with help from (in alphabetical order)
   P. Atkinson, C. Bannwarth, F. Bohle, G. Brandenburg, E. Caldeweyher
   M. Checinski, S. Dohm, S. Ehlert, S. Ehrlich, I. Gerasimov, C. Hölzer
   A. Katbashev, J. Kohn, J. Koopman, C. Lavigne, S. Lehtola, F. März, M. Müller,
   F. Musil, H. Neugebauer, J. Pisarek, C. Plett, P. Pracht, F. Pultar,
   J. Seibert, P. Shushkov, S. Spicher, M. Stahn, M. Steiner, T. Strunk,
   J. Stückrath, T. Rose, and J. Unsleber
   
 * started run on 2026/09/29 at 11:31:03.618     
   ID    Z sym.   atoms
    1   44 Ru     1, 120
    2    7 N      2-7, 205, 206
    3    6 C      8-56, 121, 125-130, 134, 138, 142, 146-152, 156, 160, 164,
                  168, 172, 176, 184-187, 189-193, 201, 212, 213, 215, 217,
                  218, 222, 229-233, 238
    4    8 O      57-60, 181-183, 200, 207-210
    5    9 F      61-69
    6   16 S      70, 71, 122, 123, 180
    7    1 H      72-119, 131-133, 135-137, 139-141, 143-145, 153-155,
                  157-159, 161-163, 165-167, 169-171, 173-175, 177-179, 188,
                  194-199, 202-204, 211, 214, 216, 219-221, 223-228, 234-237,
                  239-241
    8   17 Cl     124
constraining bond 1 120 to    2.7856040 Å, actual value:    2.7856043 Å
constraining bond 1 122 to    2.3679472 Å, actual value:    2.3679474 Å
constraining bond 1 123 to    2.3486910 Å, actual value:    2.3486912 Å
constraining bond 120 122 to    2.3406651 Å, actual value:    2.3406653 Å
constraining bond 120 123 to    2.3608950 Å, actual value:    2.3608952 Å
constraining bond 120 124 to    2.4419555 Å, actual value:    2.4419557 Å
constraining bond 1 121 to    1.9039122 Å, actual value:    1.9039124 Å

           -------------------------------------------------
          |                Calculation Setup                |
           -------------------------------------------------

          program call               : SOURCE_WORKSPACE/.micromamba/part3c/bin/xtb input.xyz --gfn 2 --chrg 0 --uhf 0 --cosmo 9.08 --parallel 4 --opt normal --input preopt.inp
          coordinate file            : input.xyz
          omp threads                :                     4


molecular fragmentation (1/2 indicates fragments):
122222222222222222222222222222222222222222222222222222222222222222222222
222222222222222222222222222222222222222222222221111111111111111111111111
111111111111111111111111111111111112222211111111111111211112222222122211
1111111112212222222222222
# atoms in fragment 1/2:    92   149
 fragment masses (1/2) :      800.50     1312.33
CMA distance (Bohr)    :   9.058
constraining FC (au)   :  0.2500

           -------------------------------------------------
          |                 G F N 2 - x T B                 |
           -------------------------------------------------

        Reference                      10.1021/acs.jctc.8b01176
      * Hamiltonian:
        H0-scaling (s, p, d)           1.850000    2.230000    2.230000
        zeta-weighting                 0.500000
      * Dispersion:
        s8                             2.700000
        a1                             0.520000
        a2                             5.000000
        s9                             5.000000
      * Repulsion:
        kExp                           1.500000    1.000000
        rExp                           1.000000
      * Coulomb:
        alpha                          2.000000
        third order                    shell-resolved
        anisotropic                    true
        a3                             3.000000
        a5                             4.000000
        cn-shift                       1.200000
        cn-exp                         4.000000
        max-rad                        5.000000

      * Solvation model:               COSMO
        Solvent                        9.08
        Parameter file                 internal GFN-xTB/COSMO
        Dielectric constant                9.0800E+00
        Reference state                gsolv [1 M gas/solution]
        Free energy shift                  0.0000E+00 Eh       0.0000E+00 kcal/mol
        Temperature                        2.9815E+02 K
        Density                            1.0000E+00 kg/L
        Solvent mass                       1.8000E+01 g/mol
        vdW Radii scaling                  1.0000E+00
        Surface tension                    1.0000E-05 Eh       1.5569E+01 dyn/cm
        Grid points                               230 per atom
q/qsh data taken from xtbrestart
CAMM data taken from xtbrestart

          ...................................................
          :                      SETUP                      :
          :.................................................:
          :  # basis functions                 682          :
          :  # atomic orbitals                 674          :
          :  # shells                          380          :
          :  # electrons                       714          :
          :  max. iterations                   250          :
          :  Hamiltonian                  GFN2-xTB          :
          :  restarted?                       true          :
          :  GBSA solvation                   true          :
          :  PC potential                    false          :
          :  electronic temp.          300.0000000     K    :
          :  accuracy                    1.0000000          :
          :  -> integral cutoff          0.2500000E+02      :
          :  -> integral neglect         0.1000000E-07      :
          :  -> SCF convergence          0.1000000E-05 Eh   :
          :  -> wf. convergence          0.1000000E-03 e    :
          :  Broyden damping             0.4000000          :
          :  net charge                          0          :
          :  unpaired electrons                  0          :
          ...................................................

 iter      E             dE          RMSdq      gap      omega  full diag
   1   -404.2938421 -0.404294E+03  0.384E-05    0.70       0.0  T
   2   -404.2938404  0.169507E-05  0.909E-05    0.70      70.9  T
   3   -404.2938421 -0.169185E-05  0.321E-05    0.70     200.5  T
   4   -404.2938420  0.468585E-07  0.330E-05    0.70     195.2  T
   5   -404.2938419  0.716210E-07  0.287E-05    0.70     224.2  T

   *** convergence criteria satisfied after 5 iterations ***

         #    Occupation            Energy/Eh            Energy/eV
      -------------------------------------------------------------
         1        2.0000           -1.0498736             -28.5685
       ...           ...                  ...                  ...
       351        2.0000           -0.3783197             -10.2946
       352        2.0000           -0.3760240             -10.2321
       353        2.0000           -0.3649633              -9.9312
       354        2.0000           -0.3636945              -9.8966
       355        2.0000           -0.3620735              -9.8525
       356        2.0000           -0.3613082              -9.8317
       357        2.0000           -0.3596859              -9.7876 (HOMO)
       358        0.0000           -0.3339796              -9.0880 (LUMO)
       359        0.0000           -0.3323567              -9.0439
       360                         -0.3307203              -8.9994
       361                         -0.3253963              -8.8545
       362                         -0.3060551              -8.3282
       ...                                ...                  ...
       674                         11.4723176             312.1777
      -------------------------------------------------------------
                  HL-Gap            0.0257063 Eh            0.6995 eV
             Fermi-level           -0.3468071 Eh           -9.4371 eV

 SCC (total)                   0 d,  0 h,  0 min,  0.713 sec
 SCC setup                      ...        0 min,  0.006 sec (  0.856%)
 Dispersion                     ...        0 min,  0.003 sec (  0.489%)
 classical contributions        ...        0 min,  0.001 sec (  0.084%)
 integral evaluation            ...        0 min,  0.020 sec (  2.805%)
 iterations                     ...        0 min,  0.394 sec ( 55.257%)
 molecular gradient             ...        0 min,  0.269 sec ( 37.772%)
 printout                       ...        0 min,  0.019 sec (  2.735%)

         :::::::::::::::::::::::::::::::::::::::::::::::::::::
         ::                     SUMMARY                     ::
         :::::::::::::::::::::::::::::::::::::::::::::::::::::
         :: total energy            -399.615829079254 Eh    ::
         :: total w/o Gsasa/hb      -399.607108581163 Eh    ::
         :: gradient norm              0.139458784348 Eh/a0 ::
         :: HOMO-LUMO gap              0.699502765644 eV    ::
         ::.................................................::
         :: SCC energy              -404.254212984757 Eh    ::
         :: -> isotropic ES            0.650462841800 Eh    ::
         :: -> anisotropic ES         -0.066632854533 Eh    ::
         :: -> anisotropic XC          0.086991952703 Eh    ::
         :: -> dispersion             -0.409477437855 Eh    ::
         :: -> Gsolv                  -0.116993472261 Eh    ::
         ::    -> Gelec               -0.108272974170 Eh    ::
         ::    -> Gsasa               -0.008720498091 Eh    ::
         ::    -> Ghb                  0.000000000000 Eh    ::
         ::    -> Gshift               0.000000000000 Eh    ::
         :: repulsion energy           4.638383905502 Eh    ::
         :: add. restraining           0.000000000000 Eh    ::
         :: total charge               0.000000000044 e     ::
         :::::::::::::::::::::::::::::::::::::::::::::::::::::

      ----------------------------------------------------------- 
     |                   =====================                   |
     |                        A N C O P T                        |
     |                   =====================                   |
     |               Approximate Normal Coordinate               |
     |                Rational Function Optimizer                |
      ----------------------------------------------------------- 
      ----------------------------------------------------------- 
     |                   =====================                   |
     |                        A N C O P T                        |
     |                   =====================                   |
     |               Approximate Normal Coordinate               |
     |                Rational Function Optimizer                |
      ----------------------------------------------------------- 

          ...................................................
          :                      SETUP                      :
          :.................................................:
          :   optimization level            normal          :
          :   max. optcycles                   723          :
          :   ANC micro-cycles                  20          :
          :   degrees of freedom               717          :
          :.................................................:
          :   RF solver                   davidson          :
          :   write xtbopt.log                true          :
          :   linear?                        false          :
          :   energy convergence         0.5000000E-05 Eh   :
          :   grad. convergence          0.1000000E-02 Eh/α :
          :   maxmium RF displ.          1.0000000          :
          :   Hlow (freq-cutoff)         0.1000000E-01      :
          :   Hmax (freq-cutoff)         5.0000000          :
          :   S6 in model hess.         20.0000000          :
          ...................................................

generating ANC from exact Hessian ...
Using Lindh-Hessian (1995)
 Shifting diagonal of input Hessian by    1.2415171140105177E-002
 Lowest  eigenvalues of input Hessian
    0.010000    0.012268    0.012337    0.012365    0.000000    0.000000
    0.000000    0.000000    0.000000    0.000000    0.012441    0.012462
    0.012484    0.012506    0.012543    0.012552    0.012569    0.012607
 Highest eigenvalues
    2.329971    2.495698    2.496846    2.685210    2.974010    3.010470


........................................................................
.............................. CYCLE    1 ..............................
........................................................................

 iter      E             dE          RMSdq      gap      omega  full diag
   1   -404.2938426 -0.404294E+03  0.215E-05    0.70       0.0  T
   2   -404.2938411  0.148203E-05  0.781E-05    0.70      82.5  T
   3   -404.2938423 -0.123378E-05  0.149E-05    0.70     430.9  T
   4   -404.2938425 -0.152631E-06  0.172E-05    0.70     374.3  T
   5   -404.2938424  0.105682E-06  0.985E-06    0.70     654.0  T
     SCC iter.                  ...        0 min,  0.388 sec
     gradient                   ...        0 min,  0.271 sec
 * total energy  :  -399.6158295 Eh     change       -0.4085138E-06 Eh
   gradient norm :     0.1394582 Eh/α   predicted     0.0000000E+00 (-100.00%)
   displ. norm   :     0.4149775 α      lambda       -0.3579937E-01
   maximum displ.:     0.0700203 α      in ANC's #468, #274, #474, ...

........................................................................
.............................. CYCLE    2 ..............................
........................................................................

 iter      E             dE          RMSdq      gap      omega  full diag
   1   -404.4648493 -0.404465E+03  0.156E-01    0.77       0.0  T
   2   -404.4654476 -0.598293E-03  0.130E-01    0.74       1.0  T
   3   -404.4553344  0.101132E-01  0.212E-01    0.77       1.0  T
   4   -404.4648848 -0.955037E-02  0.966E-02    0.76       1.0  T
   5   -404.4655810 -0.696280E-03  0.115E-01    0.69       1.0  T
   6   -404.4666932 -0.111222E-02  0.321E-02    0.77       1.0  T
   7   -404.4672214 -0.528132E-03  0.150E-02    0.75       1.0  T
   8   -404.4673964 -0.175008E-03  0.580E-03    0.75       1.1  T
   9   -404.4673842  0.121823E-04  0.415E-03    0.75       1.6  T
  10   -404.4674681 -0.838662E-04  0.323E-03    0.75       2.0  T
  11   -404.4675255 -0.574599E-04  0.260E-03    0.75       2.5  T
  12   -404.4675624 -0.368863E-04  0.178E-03    0.75       3.6  T
  13   -404.4675940 -0.316070E-04  0.124E-03    0.75       5.2  T
  14   -404.4676179 -0.239082E-04  0.859E-04    0.75       7.5  T
  15   -404.4676139  0.402964E-05  0.555E-04    0.75      11.6  T
  16   -404.4676235 -0.957836E-05  0.301E-04    0.75      21.4  T
  17   -404.4676235 -0.469606E-07  0.201E-04    0.75      32.1  T
  18   -404.4676208  0.273845E-05  0.139E-04    0.75      46.3  T
  19   -404.4676208 -0.483095E-08  0.822E-05    0.75      78.4  T
     SCC iter.                  ...        0 min,  1.865 sec
     gradient                   ...        0 min,  0.272 sec
 * total energy  :  -399.6411648 Eh     change       -0.2533533E-01 Eh
   gradient norm :     0.0597912 Eh/α   predicted    -0.2099489E-01 ( -17.13%)
   displ. norm   :     0.4475535 α      lambda       -0.1372394E-01
   maximum displ.:     0.0929062 α      in ANC's #144, #135, #47, ...

........................................................................
.............................. CYCLE    3 ..............................
........................................................................

 iter      E             dE          RMSdq      gap      omega  full diag
   1   -404.5598352 -0.404560E+03  0.135E-01    0.76       0.0  T
   2   -404.5624495 -0.261432E-02  0.107E-01    0.73       1.0  T
   3   -404.5590597  0.338973E-02  0.101E-01    0.77       1.0  T
   4   -404.5603979 -0.133812E-02  0.116E-01    0.72       1.0  T
   5   -404.5627669 -0.236900E-02  0.610E-02    0.72       1.0  T
   6   -404.5618461  0.920746E-03  0.397E-02    0.76       1.0  T
   7   -404.5629015 -0.105539E-02  0.126E-02    0.74       1.0  T
   8   -404.5629984 -0.968942E-04  0.586E-03    0.74       1.1  T
   9   -404.5629747  0.236602E-04  0.406E-03    0.75       1.6  T
  10   -404.5630793 -0.104540E-03  0.333E-03    0.75       1.9  T
  11   -404.5631372 -0.579377E-04  0.248E-03    0.75       2.6  T
  12   -404.5631706 -0.333474E-04  0.156E-03    0.75       4.1  T
  13   -404.5632248 -0.542193E-04  0.127E-03    0.74       5.1  T
  14   -404.5632186  0.619280E-05  0.680E-04    0.75       9.5  T
  15   -404.5632252 -0.665328E-05  0.471E-04    0.75      13.7  T
  16   -404.5632249  0.290811E-06  0.261E-04    0.75      24.7  T
  17   -404.5632256 -0.683194E-06  0.187E-04    0.75      34.4  T
     SCC iter.                  ...        0 min,  1.691 sec
     gradient                   ...        0 min,  0.270 sec
 * total energy  :  -399.6498084 Eh     change       -0.8643616E-02 Eh
   gradient norm :     0.0233808 Eh/α   predicted    -0.8236451E-02 (  -4.71%)
   displ. norm   :     0.4378445 α      lambda       -0.4583330E-02
   maximum displ.:     0.0944336 α      in ANC's #47, #14, #144, ...

........................................................................
.............................. CYCLE    4 ..............................
........................................................................

 iter      E             dE          RMSdq      gap      omega  full diag
   1   -404.5798275 -0.404580E+03  0.715E-02    0.75       0.0  T
   2   -404.5810821 -0.125467E-02  0.597E-02    0.74       1.0  T
   3   -404.5783666  0.271558E-02  0.951E-02    0.76       1.0  T
   4   -404.5808750 -0.250844E-02  0.460E-02    0.74       1.0  T
   5   -404.5815957 -0.720672E-03  0.238E-02    0.74       1.0  T
   6   -404.5809768  0.618876E-03  0.177E-02    0.76       1.0  T
   7   -404.5814256 -0.448787E-03  0.592E-03    0.75       1.1  T
   8   -404.5814497 -0.241060E-04  0.330E-03    0.75       2.0  T
   9   -404.5814244  0.253115E-04  0.229E-03    0.75       2.8  T
  10   -404.5814822 -0.578442E-04  0.176E-03    0.75       3.7  T
  11   -404.5815118 -0.295365E-04  0.116E-03    0.75       5.6  T
  12   -404.5815353 -0.235339E-04  0.686E-04    0.75       9.4  T
  13   -404.5815446 -0.930008E-05  0.416E-04    0.75      15.5  T
  14   -404.5815493 -0.467439E-05  0.347E-04    0.75      18.6  T
  15   -404.5815471  0.220031E-05  0.210E-04    0.75      30.7  T
  16   -404.5815483 -0.119499E-05  0.152E-04    0.75      42.3  T
  17   -404.5815489 -0.685667E-06  0.955E-05    0.75      67.4  T
  18   -404.5815478  0.112310E-05  0.744E-05    0.75      86.6  T
  19   -404.5815489 -0.110498E-05  0.428E-05    0.75     150.4  T
  20   -404.5815491 -0.141952E-06  0.236E-05    0.75     273.1  T
     SCC iter.                  ...        0 min,  1.868 sec
     gradient                   ...        0 min,  0.271 sec
 * total energy  :  -399.6526644 Eh     change       -0.2855991E-02 Eh
   gradient norm :     0.0207977 Eh/α   predicted    -0.2731144E-02 (  -4.37%)
   displ. norm   :     0.5301648 α      lambda       -0.4020557E-02
   maximum displ.:     0.1244402 α      in ANC's #47, #14, #75, ...

........................................................................
.............................. CYCLE    5 ..............................
........................................................................

 iter      E             dE          RMSdq      gap      omega  full diag
   1   -404.5794953 -0.404579E+03  0.692E-02    0.75       0.0  T
   2   -404.5803701 -0.874809E-03  0.567E-02    0.75       1.0  T
   3   -404.5773601  0.301004E-02  0.103E-01    0.76       1.0  T
   4   -404.5802124 -0.285234E-02  0.440E-02    0.75       1.0  T
   5   -404.5808140 -0.601562E-03  0.183E-02    0.74       1.0  T
   6   -404.5803256  0.488354E-03  0.132E-02    0.76       1.0  T
   7   -404.5806656 -0.339960E-03  0.542E-03    0.75       1.2  T
   8   -404.5806554  0.102262E-04  0.230E-03    0.75       2.8  T
   9   -404.5806449  0.104912E-04  0.175E-03    0.75       3.7  T
  10   -404.5806675 -0.226634E-04  0.127E-03    0.75       5.1  T
  11   -404.5806978 -0.303044E-04  0.866E-04    0.75       7.4  T
  12   -404.5807080 -0.101215E-04  0.556E-04    0.75      11.6  T
  13   -404.5807239 -0.159021E-04  0.398E-04    0.75      16.2  T
  14   -404.5807241 -0.198858E-06  0.248E-04    0.75      26.0  T
  15   -404.5807281 -0.405805E-05  0.149E-04    0.75      43.1  T
  16   -404.5807280  0.127958E-06  0.121E-04    0.75      53.2  T
     SCC iter.                  ...        0 min,  1.542 sec
     gradient                   ...        0 min,  0.270 sec
 * total energy  :  -399.6550379 Eh     change       -0.2373459E-02 Eh
   gradient norm :     0.0181179 Eh/α   predicted    -0.2575327E-02 (   8.51%)
   displ. norm   :     0.4381776 α      lambda       -0.2092555E-02
   maximum displ.:     0.1133515 α      in ANC's #14, #47, #28, ...

........................................................................
.............................. CYCLE    6 ..............................
........................................................................

 iter      E             dE          RMSdq      gap      omega  full diag
   1   -404.5725289 -0.404573E+03  0.509E-02    0.75       0.0  T
   2   -404.5735026 -0.973760E-03  0.440E-02    0.74       1.0  T
   3   -404.5715238  0.197878E-02  0.495E-02    0.78       1.0  T
   4   -404.5731404 -0.161653E-02  0.451E-02    0.73       1.0  T
   5   -404.5730627  0.777054E-04  0.315E-02    0.74       1.0  T
   6   -404.5730028  0.598908E-04  0.163E-02    0.75       1.0  T
   7   -404.5730291 -0.263122E-04  0.300E-03    0.75       2.1  T
   8   -404.5730589 -0.298239E-04  0.143E-03    0.75       4.5  T
   9   -404.5730686 -0.962859E-05  0.118E-03    0.75       5.5  T
  10   -404.5730676  0.913271E-06  0.870E-04    0.75       7.4  T
  11   -404.5730759 -0.823282E-05  0.584E-04    0.75      11.0  T
  12   -404.5730864 -0.104999E-04  0.380E-04    0.75      16.9  T
  13   -404.5730851  0.124396E-05  0.251E-04    0.75      25.6  T
  14   -404.5730879 -0.281058E-05  0.152E-04    0.75      42.4  T
  15   -404.5730886 -0.656428E-06  0.114E-04    0.75      56.4  T
     SCC iter.                  ...        0 min,  1.441 sec
     gradient                   ...        0 min,  0.268 sec
 * total energy  :  -399.6566746 Eh     change       -0.1636680E-02 Eh
   gradient norm :     0.0139484 Eh/α   predicted    -0.1247226E-02 ( -23.80%)
   displ. norm   :     0.5766499 α      lambda       -0.2126008E-02
   maximum displ.:     0.1595955 α      in ANC's #14, #28, #47, ...

........................................................................
.............................. CYCLE    7 ..............................
........................................................................

 iter      E             dE          RMSdq      gap      omega  full diag
   1   -404.5695628 -0.404570E+03  0.620E-02    0.75       0.0  T
   2   -404.5693181  0.244711E-03  0.454E-02    0.74       1.0  T
   3   -404.5684898  0.828249E-03  0.381E-02    0.76       1.0  T
   4   -404.5683600  0.129805E-03  0.704E-02    0.72       1.0  T
   5   -404.5692546 -0.894630E-03  0.297E-02    0.73       1.0  T
   6   -404.5689470  0.307681E-03  0.888E-03    0.75       1.0  T
   7   -404.5689832 -0.362587E-04  0.393E-03    0.75       1.6  T
   8   -404.5690493 -0.660983E-04  0.241E-03    0.75       2.7  T
   9   -404.5690417  0.763187E-05  0.165E-03    0.75       3.9  T
  10   -404.5690549 -0.131856E-04  0.116E-03    0.75       5.6  T
  11   -404.5690578 -0.290314E-05  0.814E-04    0.75       7.9  T
  12   -404.5690647 -0.693790E-05  0.488E-04    0.75      13.2  T
  13   -404.5690720 -0.730587E-05  0.340E-04    0.75      19.0  T
  14   -404.5690709  0.117066E-05  0.270E-04    0.75      23.8  T
  15   -404.5690730 -0.211001E-05  0.135E-04    0.75      47.9  T
  16   -404.5690747 -0.171971E-05  0.102E-04    0.75      63.1  T
  17   -404.5690748 -0.975294E-07  0.745E-05    0.75      86.4  T
  18   -404.5690764 -0.163914E-05  0.405E-05    0.75     159.2  T
  19   -404.5690765 -0.472625E-07  0.289E-05    0.75     222.5  T
     SCC iter.                  ...        0 min,  1.762 sec
     gradient                   ...        0 min,  0.270 sec
 * total energy  :  -399.6581949 Eh     change       -0.1520377E-02 Eh
   gradient norm :     0.0124435 Eh/α   predicted    -0.1416540E-02 (  -6.83%)
   displ. norm   :     0.5804344 α      lambda       -0.1612306E-02
   maximum displ.:     0.1721390 α      in ANC's #28, #14, #33, ...

........................................................................
.............................. CYCLE    8 ..............................
........................................................................

 iter      E             dE          RMSdq      gap      omega  full diag
   1   -404.5686542 -0.404569E+03  0.658E-02    0.75       0.0  T
   2   -404.5692192 -0.565054E-03  0.540E-02    0.73       1.0  T
   3   -404.5668412  0.237802E-02  0.578E-02    0.78       1.0  T
   4   -404.5689749 -0.213364E-02  0.439E-02    0.72       1.0  T
   5   -404.5686619  0.312984E-03  0.249E-02    0.75       1.0  T
   6   -404.5686060  0.558391E-04  0.177E-02    0.75       1.0  T
   7   -404.5685918  0.142179E-04  0.409E-03    0.75       1.6  T
   8   -404.5686246 -0.327840E-04  0.175E-03    0.75       3.7  T
   9   -404.5686516 -0.269408E-04  0.127E-03    0.75       5.1  T
  10   -404.5686534 -0.181816E-05  0.889E-04    0.75       7.2  T
  11   -404.5686581 -0.474877E-05  0.624E-04    0.75      10.3  T
  12   -404.5686692 -0.110554E-04  0.424E-04    0.75      15.2  T
  13   -404.5686687  0.429858E-06  0.286E-04    0.75      22.5  T
  14   -404.5686722 -0.346096E-05  0.187E-04    0.75      34.4  T
  15   -404.5686741 -0.184608E-05  0.115E-04    0.75      55.9  T
  16   -404.5686758 -0.174259E-05  0.834E-05    0.75      77.3  T
  17   -404.5686761 -0.275861E-06  0.664E-05    0.75      97.0  T
     SCC iter.                  ...        0 min,  1.602 sec
     gradient                   ...        0 min,  0.270 sec
 * total energy  :  -399.6592989 Eh     change       -0.1103969E-02 Eh
   gradient norm :     0.0121834 Eh/α   predicted    -0.1077752E-02 (  -2.37%)
   displ. norm   :     0.5315423 α      lambda       -0.1185155E-02
   maximum displ.:     0.1718355 α      in ANC's #28, #14, #33, ...

........................................................................
.............................. CYCLE    9 ..............................
........................................................................

 iter      E             dE          RMSdq      gap      omega  full diag
   1   -404.5722741 -0.404572E+03  0.462E-02    0.75       0.0  T
   2   -404.5722732  0.887244E-06  0.356E-02    0.74       1.0  T
   3   -404.5704126  0.186062E-02  0.690E-02    0.76       1.0  T
   4   -404.5720286 -0.161602E-02  0.301E-02    0.74       1.0  T
   5   -404.5722161 -0.187550E-03  0.282E-02    0.73       1.0  T
   6   -404.5719531  0.262998E-03  0.562E-03    0.75       1.1  T
   7   -404.5720442 -0.910384E-04  0.245E-03    0.75       2.6  T
   8   -404.5720724 -0.282073E-04  0.143E-03    0.75       4.5  T
   9   -404.5720747 -0.226366E-05  0.989E-04    0.75       6.5  T
  10   -404.5720769 -0.219811E-05  0.762E-04    0.75       8.5  T
  11   -404.5720943 -0.174482E-04  0.566E-04    0.75      11.4  T
  12   -404.5721030 -0.872482E-05  0.377E-04    0.75      17.1  T
  13   -404.5721041 -0.105322E-05  0.306E-04    0.75      21.1  T
  14   -404.5721114 -0.736994E-05  0.137E-04    0.74      47.1  T
  15   -404.5721117 -0.213755E-06  0.831E-05    0.74      77.5  T
  16   -404.5721133 -0.162569E-05  0.625E-05    0.75     103.1  T
  17   -404.5721134 -0.140317E-06  0.422E-05    0.75     152.7  T
     SCC iter.                  ...        0 min,  1.573 sec
     gradient                   ...        0 min,  0.275 sec
 * total energy  :  -399.6601858 Eh     change       -0.8869399E-03 Eh
   gradient norm :     0.0090177 Eh/α   predicted    -0.7600157E-03 ( -14.31%)
   displ. norm   :     0.5461571 α      lambda       -0.1045652E-02
   maximum displ.:     0.1962491 α      in ANC's #28, #14, #33, ...

........................................................................
.............................. CYCLE   10 ..............................
........................................................................

 iter      E             dE          RMSdq      gap      omega  full diag
   1   -404.5771058 -0.404577E+03  0.469E-02    0.74       0.0  T
   2   -404.5765005  0.605303E-03  0.338E-02    0.74       1.0  T
   3   -404.5761886  0.311858E-03  0.591E-02    0.74       1.0  T
   4   -404.5765000 -0.311435E-03  0.405E-02    0.74       1.0  T
   5   -404.5761018  0.398215E-03  0.264E-02    0.75       1.0  T
   6   -404.5768532 -0.751417E-03  0.105E-02    0.74       1.0  T
   7   -404.5767083  0.144926E-03  0.262E-03    0.74       2.5  T
   8   -404.5767345 -0.262128E-04  0.172E-03    0.74       3.7  T
   9   -404.5767510 -0.164983E-04  0.107E-03    0.74       6.0  T
  10   -404.5767616 -0.106010E-04  0.856E-04    0.74       7.5  T
  11   -404.5767743 -0.126944E-04  0.601E-04    0.74      10.7  T
  12   -404.5767959 -0.215962E-04  0.607E-04    0.74      10.6  T
  13   -404.5767978 -0.187976E-05  0.253E-04    0.74      25.5  T
  14   -404.5768020 -0.417570E-05  0.154E-04    0.74      41.7  T
  15   -404.5768040 -0.198673E-05  0.109E-04    0.74      58.9  T
  16   -404.5768051 -0.115843E-05  0.570E-05    0.74     113.0  T
  17   -404.5768054 -0.325172E-06  0.427E-05    0.74     150.7  T
  18   -404.5768063 -0.886582E-06  0.243E-05    0.74     264.8  T
     SCC iter.                  ...        0 min,  1.669 sec
     gradient                   ...        0 min,  0.273 sec
 * total energy  :  -399.6608610 Eh     change       -0.6751522E-03 Eh
   gradient norm :     0.0082207 Eh/α   predicted    -0.6788267E-03 (   0.54%)
   displ. norm   :     0.4851749 α      lambda       -0.7527930E-03
   maximum displ.:     0.1901289 α      in ANC's #28, #14, #33, ...

........................................................................
.............................. CYCLE   11 ..............................
........................................................................

 iter      E             dE          RMSdq      gap      omega  full diag
   1   -404.5757386 -0.404576E+03  0.412E-02    0.74       0.0  T
   2   -404.5761256 -0.387059E-03  0.328E-02    0.74       1.0  T
   3   -404.5744363  0.168936E-02  0.683E-02    0.75       1.0  T
   4   -404.5758930 -0.145670E-02  0.303E-02    0.74       1.0  T
   5   -404.5761983 -0.305348E-03  0.123E-02    0.74       1.0  T
   6   -404.5758525  0.345838E-03  0.993E-03    0.75       1.0  T
   7   -404.5760800 -0.227461E-03  0.196E-03    0.74       3.3  T
   8   -404.5760891 -0.913787E-05  0.117E-03    0.74       5.5  T
   9   -404.5760936 -0.448861E-05  0.856E-04    0.74       7.5  T
  10   -404.5760933  0.325522E-06  0.693E-04    0.74       9.3  T
  11   -404.5761159 -0.226637E-04  0.610E-04    0.74      10.6  T
  12   -404.5761201 -0.413635E-05  0.340E-04    0.74      19.0  T
  13   -404.5761255 -0.543807E-05  0.236E-04    0.74      27.2  T
  14   -404.5761301 -0.461581E-05  0.117E-04    0.74      54.9  T
  15   -404.5761330 -0.292666E-05  0.919E-05    0.74      70.1  T
  16   -404.5761320  0.100181E-05  0.588E-05    0.74     109.5  T
  17   -404.5761325 -0.508225E-06  0.295E-05    0.74     218.1  T
     SCC iter.                  ...        0 min,  1.570 sec
     gradient                   ...        0 min,  0.271 sec
 * total energy  :  -399.6613265 Eh     change       -0.4655079E-03 Eh
   gradient norm :     0.0081832 Eh/α   predicted    -0.4650037E-03 (  -0.11%)
   displ. norm   :     0.4031437 α      lambda       -0.4694879E-03
   maximum displ.:     0.1643321 α      in ANC's #28, #14, #33, ...

........................................................................
.............................. CYCLE   12 ..............................
........................................................................

 iter      E             dE          RMSdq      gap      omega  full diag
   1   -404.5729327 -0.404573E+03  0.316E-02    0.75       0.0  T
   2   -404.5732719 -0.339161E-03  0.293E-02    0.74       1.0  T
   3   -404.5717414  0.153045E-02  0.605E-02    0.76       1.0  T
   4   -404.5728756 -0.113423E-02  0.192E-02    0.75       1.0  T
   5   -404.5733554 -0.479750E-03  0.204E-02    0.73       1.0  T
   6   -404.5731178  0.237615E-03  0.366E-03    0.75       1.8  T
   7   -404.5731565 -0.386853E-04  0.138E-03    0.74       4.7  T
   8   -404.5731723 -0.158613E-04  0.904E-04    0.74       7.1  T
   9   -404.5731622  0.101510E-04  0.531E-04    0.74      12.1  T
  10   -404.5731622 -0.350223E-07  0.382E-04    0.74      16.9  T
  11   -404.5731669 -0.469736E-05  0.300E-04    0.74      21.5  T
  12   -404.5731671 -0.151203E-06  0.203E-04    0.74      31.7  T
     SCC iter.                  ...        0 min,  1.143 sec
     gradient                   ...        0 min,  0.272 sec
 * total energy  :  -399.6616836 Eh     change       -0.3571370E-03 Eh
   gradient norm :     0.0065117 Eh/α   predicted    -0.2728970E-03 ( -23.59%)
   displ. norm   :     0.5105204 α      lambda       -0.6456188E-03
   maximum displ.:     0.2074141 α      in ANC's #28, #14, #32, ...

........................................................................
.............................. CYCLE   13 ..............................
........................................................................

 iter      E             dE          RMSdq      gap      omega  full diag
   1   -404.5724096 -0.404572E+03  0.597E-02    0.75       0.0  T
   2   -404.5715402  0.869468E-03  0.612E-02    0.75       1.0  T
   3   -404.5715378  0.236252E-05  0.604E-02    0.74       1.0  T
   4   -404.5718305 -0.292719E-03  0.433E-02    0.75       1.0  T
   5   -404.5712450  0.585520E-03  0.301E-02    0.76       1.0  T
   6   -404.5722810 -0.103597E-02  0.164E-02    0.74       1.0  T
   7   -404.5721100  0.170997E-03  0.316E-03    0.75       2.0  T
   8   -404.5721171 -0.714140E-05  0.212E-03    0.75       3.0  T
   9   -404.5720953  0.218276E-04  0.155E-03    0.75       4.1  T
  10   -404.5720968 -0.149931E-05  0.964E-04    0.75       6.7  T
  11   -404.5720992 -0.239203E-05  0.738E-04    0.75       8.7  T
  12   -404.5720935  0.566727E-05  0.491E-04    0.75      13.1  T
  13   -404.5720940 -0.520700E-06  0.288E-04    0.75      22.4  T
  14   -404.5720961 -0.202807E-05  0.207E-04    0.75      31.1  T
  15   -404.5720989 -0.287229E-05  0.151E-04    0.75      42.8  T
  16   -404.5720997 -0.760001E-06  0.867E-05    0.75      74.3  T
     SCC iter.                  ...        0 min,  1.506 sec
     gradient                   ...        0 min,  0.275 sec
 * total energy  :  -399.6620850 Eh     change       -0.4013939E-03 Eh
   gradient norm :     0.0071506 Eh/α   predicted    -0.4069448E-03 (   1.38%)
   displ. norm   :     0.3455043 α      lambda       -0.3349500E-03
   maximum displ.:     0.1390944 α      in ANC's #28, #14, #32, ...

........................................................................
.............................. CYCLE   14 ..............................
........................................................................

 iter      E             dE          RMSdq      gap      omega  full diag
   1   -404.5706339 -0.404571E+03  0.329E-02    0.74       0.0  T
   2   -404.5697511  0.882890E-03  0.352E-02    0.76       1.0  T
   3   -404.5707119 -0.960873E-03  0.397E-02    0.73       1.0  T
   4   -404.5702144  0.497542E-03  0.242E-02    0.75       1.0  T
   5   -404.5698615  0.352855E-03  0.316E-02    0.76       1.0  T
   6   -404.5704506 -0.589054E-03  0.493E-03    0.75       1.3  T
   7   -404.5704569 -0.631247E-05  0.163E-03    0.75       4.0  T
   8   -404.5704590 -0.212230E-05  0.111E-03    0.75       5.8  T
   9   -404.5704589  0.147394E-06  0.771E-04    0.75       8.4  T
  10   -404.5704679 -0.898582E-05  0.588E-04    0.75      11.0  T
  11   -404.5704682 -0.314836E-06  0.399E-04    0.75      16.1  T
     SCC iter.                  ...        0 min,  1.064 sec
     gradient                   ...        0 min,  0.273 sec
 * total energy  :  -399.6623187 Eh     change       -0.2336380E-03 Eh
   gradient norm :     0.0058964 Eh/α   predicted    -0.1874721E-03 ( -19.76%)
   displ. norm   :     0.3729970 α      lambda       -0.3227634E-03
   maximum displ.:     0.1333524 α      in ANC's #28, #14, #32, ...

........................................................................
.............................. CYCLE   15 ..............................
........................................................................

 iter      E             dE          RMSdq      gap      omega  full diag
   1   -404.5733910 -0.404573E+03  0.328E-02    0.75       0.0  T
   2   -404.5729180  0.473024E-03  0.252E-02    0.76       1.0  T
   3   -404.5735622 -0.644202E-03  0.291E-02    0.74       1.0  T
   4   -404.5724460  0.111614E-02  0.305E-02    0.77       1.0  T
   5   -404.5731094 -0.663340E-03  0.949E-03    0.75       1.0  T
   6   -404.5731643 -0.549429E-04  0.894E-03    0.75       1.0  T
   7   -404.5732137 -0.493643E-04  0.228E-03    0.75       2.8  T
   8   -404.5732093  0.436285E-05  0.107E-03    0.75       6.0  T
   9   -404.5732030  0.630499E-05  0.786E-04    0.75       8.2  T
  10   -404.5732137 -0.106462E-04  0.608E-04    0.75      10.6  T
  11   -404.5732130  0.662182E-06  0.473E-04    0.75      13.6  T
  12   -404.5732178 -0.478508E-05  0.309E-04    0.75      20.9  T
  13   -404.5732189 -0.108274E-05  0.169E-04    0.75      38.2  T
  14   -404.5732209 -0.206134E-05  0.112E-04    0.75      57.4  T
  15   -404.5732210 -0.660694E-07  0.726E-05    0.75      88.8  T
     SCC iter.                  ...        0 min,  1.380 sec
     gradient                   ...        0 min,  0.272 sec
 * total energy  :  -399.6625708 Eh     change       -0.2521319E-03 Eh
   gradient norm :     0.0054495 Eh/α   predicted    -0.1838367E-03 ( -27.09%)
   displ. norm   :     0.4606737 α      lambda       -0.3323893E-03
   maximum displ.:     0.1589802 α      in ANC's #28, #14, #32, ...

........................................................................
.............................. CYCLE   16 ..............................
........................................................................

 iter      E             dE          RMSdq      gap      omega  full diag
   1   -404.5737091 -0.404574E+03  0.395E-02    0.75       0.0  T
   2   -404.5736039  0.105199E-03  0.340E-02    0.75       1.0  T
   3   -404.5730465  0.557393E-03  0.580E-02    0.74       1.0  T
   4   -404.5731651 -0.118638E-03  0.393E-02    0.75       1.0  T
   5   -404.5737854 -0.620279E-03  0.750E-03    0.75       1.0  T
   6   -404.5735950  0.190384E-03  0.543E-03    0.75       1.2  T
   7   -404.5737505 -0.155496E-03  0.305E-03    0.75       2.1  T
   8   -404.5737125  0.379949E-04  0.829E-04    0.75       7.8  T
   9   -404.5737256 -0.130769E-04  0.546E-04    0.75      11.8  T
  10   -404.5737255  0.130442E-06  0.414E-04    0.75      15.6  T
  11   -404.5737283 -0.282488E-05  0.340E-04    0.75      19.0  T
  12   -404.5737312 -0.292555E-05  0.189E-04    0.75      34.0  T
  13   -404.5737345 -0.326495E-05  0.171E-04    0.75      37.7  T
  14   -404.5737313  0.312218E-05  0.962E-05    0.75      66.9  T
  15   -404.5737319 -0.559142E-06  0.606E-05    0.75     106.3  T
     SCC iter.                  ...        0 min,  1.383 sec
     gradient                   ...        0 min,  0.274 sec
 * total energy  :  -399.6627889 Eh     change       -0.2180812E-03 Eh
   gradient norm :     0.0055229 Eh/α   predicted    -0.2014730E-03 (  -7.62%)
   displ. norm   :     0.2831151 α      lambda       -0.1999336E-03
   maximum displ.:     0.0976916 α      in ANC's #14, #28, #11, ...

........................................................................
.............................. CYCLE   17 ..............................
........................................................................

 iter      E             dE          RMSdq      gap      omega  full diag
   1   -404.5768828 -0.404577E+03  0.266E-02    0.75       0.0  T
   2   -404.5771455 -0.262637E-03  0.203E-02    0.75       1.0  T
   3   -404.5764473  0.698209E-03  0.293E-02    0.76       1.0  T
   4   -404.5768490 -0.401738E-03  0.294E-02    0.75       1.0  T
   5   -404.5772001 -0.351148E-03  0.189E-02    0.74       1.0  T
   6   -404.5769725  0.227616E-03  0.320E-03    0.75       2.0  T
   7   -404.5769760 -0.352414E-05  0.995E-04    0.75       6.5  T
   8   -404.5769836 -0.756168E-05  0.584E-04    0.75      11.0  T
   9   -404.5769868 -0.322797E-05  0.335E-04    0.75      19.2  T
  10   -404.5769873 -0.431780E-06  0.264E-04    0.75      24.4  T
  11   -404.5769877 -0.447419E-06  0.201E-04    0.75      32.1  T
     SCC iter.                  ...        0 min,  1.031 sec
     gradient                   ...        0 min,  0.273 sec
 * total energy  :  -399.6629390 Eh     change       -0.1501156E-03 Eh
   gradient norm :     0.0051702 Eh/α   predicted    -0.1079820E-03 ( -28.07%)
   displ. norm   :     0.4311971 α      lambda       -0.2848583E-03
   maximum displ.:     0.1576836 α      in ANC's #14, #28, #11, ...

........................................................................
.............................. CYCLE   18 ..............................
........................................................................

 iter      E             dE          RMSdq      gap      omega  full diag
   1   -404.5756757 -0.404576E+03  0.398E-02    0.75       0.0  T
   2   -404.5760008 -0.325070E-03  0.261E-02    0.74       1.0  T
   3   -404.5741732  0.182759E-02  0.506E-02    0.78       1.0  T
   4   -404.5759275 -0.175431E-02  0.280E-02    0.74       1.0  T
   5   -404.5757454  0.182050E-03  0.231E-02    0.75       1.0  T
   6   -404.5757524 -0.698336E-05  0.289E-03    0.75       2.2  T
   7   -404.5757843 -0.319227E-04  0.132E-03    0.75       4.9  T
   8   -404.5757858 -0.144875E-05  0.831E-04    0.75       7.8  T
   9   -404.5757832  0.258798E-05  0.653E-04    0.75       9.9  T
  10   -404.5757904 -0.717784E-05  0.475E-04    0.75      13.6  T
  11   -404.5757973 -0.688986E-05  0.357E-04    0.75      18.0  T
  12   -404.5758027 -0.542209E-05  0.258E-04    0.75      24.9  T
  13   -404.5758063 -0.358995E-05  0.142E-04    0.75      45.4  T
  14   -404.5758069 -0.650313E-06  0.818E-05    0.75      78.7  T
  15   -404.5758088 -0.184298E-05  0.569E-05    0.75     113.3  T
  16   -404.5758088 -0.749912E-07  0.382E-05    0.75     168.7  T
     SCC iter.                  ...        0 min,  1.466 sec
     gradient                   ...        0 min,  0.269 sec
 * total energy  :  -399.6631469 Eh     change       -0.2078876E-03 Eh
   gradient norm :     0.0054223 Eh/α   predicted    -0.1689131E-03 ( -18.75%)
   displ. norm   :     0.6991144 α      lambda       -0.6608579E-03
   maximum displ.:     0.2278197 α      in ANC's #14, #11, #16, ...

........................................................................
.............................. CYCLE   19 ..............................
........................................................................

 iter      E             dE          RMSdq      gap      omega  full diag
   1   -404.5729195 -0.404573E+03  0.790E-02    0.76       0.0  T
   2   -404.5743947 -0.147518E-02  0.701E-02    0.72       1.0  T
   3   -404.5696289  0.476572E-02  0.929E-02    0.80       1.0  T
   4   -404.5740905 -0.446160E-02  0.493E-02    0.73       1.0  T
   5   -404.5737851  0.305474E-03  0.270E-02    0.75       1.0  T
   6   -404.5737782  0.686044E-05  0.226E-02    0.75       1.0  T
   7   -404.5738630 -0.847599E-04  0.485E-03    0.75       1.3  T
   8   -404.5738902 -0.272113E-04  0.242E-03    0.75       2.7  T
   9   -404.5738945 -0.431141E-05  0.190E-03    0.75       3.4  T
  10   -404.5738988 -0.434829E-05  0.125E-03    0.75       5.2  T
  11   -404.5739275 -0.286606E-04  0.946E-04    0.75       6.8  T
  12   -404.5739316 -0.405012E-05  0.588E-04    0.75      11.0  T
  13   -404.5739379 -0.634381E-05  0.442E-04    0.75      14.6  T
  14   -404.5739404 -0.253163E-05  0.298E-04    0.75      21.6  T
  15   -404.5739425 -0.207730E-05  0.193E-04    0.75      33.4  T
  16   -404.5739437 -0.116674E-05  0.127E-04    0.75      50.8  T
  17   -404.5739448 -0.113228E-05  0.958E-05    0.75      67.2  T
  18   -404.5739473 -0.250119E-05  0.501E-05    0.75     128.7  T
  19   -404.5739480 -0.742062E-06  0.308E-05    0.75     209.4  T
  20   -404.5739488 -0.785532E-06  0.179E-05    0.75     360.2  T
     SCC iter.                  ...        0 min,  1.830 sec
     gradient                   ...        0 min,  0.271 sec
 * total energy  :  -399.6630121 Eh     change        0.1348016E-03 Eh
   gradient norm :     0.0134284 Eh/α   predicted    -0.4919354E-03 (-464.93%)
   displ. norm   :     0.1787606 α      lambda       -0.6999273E-03
   maximum displ.:     0.1006164 α      in ANC's #1, #62, #75, ...

........................................................................
.............................. CYCLE   20 ..............................
........................................................................

 iter      E             dE          RMSdq      gap      omega  full diag
   1   -404.5772700 -0.404577E+03  0.372E-02    0.74       0.0  T
   2   -404.5762323  0.103773E-02  0.422E-02    0.76       1.0  T
   3   -404.5770213 -0.789025E-03  0.505E-02    0.73       1.0  T
   4   -404.5769207  0.100624E-03  0.189E-02    0.75       1.0  T
   5   -404.5763915  0.529169E-03  0.286E-02    0.76       1.0  T
   6   -404.5771020 -0.710500E-03  0.712E-03    0.74       1.0  T
   7   -404.5770007  0.101355E-03  0.252E-03    0.75       2.6  T
   8   -404.5770100 -0.935326E-05  0.155E-03    0.75       4.1  T
   9   -404.5770229 -0.128558E-04  0.117E-03    0.75       5.5  T
  10   -404.5770216  0.131335E-05  0.792E-04    0.75       8.1  T
  11   -404.5770213  0.225956E-06  0.607E-04    0.75      10.6  T
  12   -404.5770175  0.385837E-05  0.315E-04    0.75      20.4  T
  13   -404.5770199 -0.242365E-05  0.175E-04    0.75      36.8  T
  14   -404.5770179  0.202426E-05  0.117E-04    0.75      55.3  T
  15   -404.5770173  0.596753E-06  0.841E-05    0.75      76.6  T
     SCC iter.                  ...        0 min,  1.366 sec
     gradient                   ...        0 min,  0.270 sec
 * total energy  :  -399.6634234 Eh     change       -0.4113358E-03 Eh
   gradient norm :     0.0066607 Eh/α   predicted    -0.3611488E-03 ( -12.20%)
   displ. norm   :     0.0892600 α      lambda       -0.1492473E-03
   maximum displ.:     0.0189372 α      in ANC's #14, #33, #82, ...
 * RMSD in coord.:     0.4145704 α      energy gain  -0.4759435E-01 Eh

generating ANC from exact Hessian ...
Using Lindh-Hessian (1995)
 Shifting diagonal of input Hessian by    1.2516146181373873E-002
 Lowest  eigenvalues of input Hessian
    0.010000    0.012448    0.012469    0.000000    0.000000    0.000000
    0.000000    0.000000    0.000000    0.012555    0.012564    0.012581
    0.012606    0.012630    0.012638    0.012657    0.012687    0.012714
 Highest eigenvalues
    2.389344    2.598530    2.599214    2.741129    3.181856    3.253820


........................................................................
.............................. CYCLE   21 ..............................
........................................................................

 iter      E             dE          RMSdq      gap      omega  full diag
   1   -404.5759546 -0.404576E+03  0.167E-02    0.75       0.0  T
   2   -404.5756408  0.313762E-03  0.186E-02    0.75       1.0  T
   3   -404.5758035 -0.162686E-03  0.206E-02    0.75       1.0  T
   4   -404.5758516 -0.480802E-04  0.116E-02    0.75       1.0  T
   5   -404.5756095  0.242116E-03  0.100E-02    0.75       1.0  T
   6   -404.5758916 -0.282153E-03  0.404E-03    0.75       1.6  T
   7   -404.5758485  0.431468E-04  0.828E-04    0.75       7.8  T
   8   -404.5758530 -0.448314E-05  0.524E-04    0.75      12.3  T
   9   -404.5758474  0.554316E-05  0.331E-04    0.75      19.4  T
  10   -404.5758504 -0.294409E-05  0.238E-04    0.75      27.0  T
  11   -404.5758503  0.130815E-06  0.154E-04    0.75      41.9  T
  12   -404.5758491  0.119557E-05  0.119E-04    0.75      54.2  T
  13   -404.5758494 -0.355005E-06  0.638E-05    0.75     101.0  T
     SCC iter.                  ...        0 min,  1.175 sec
     gradient                   ...        0 min,  0.273 sec
 * total energy  :  -399.6635183 Eh     change       -0.9492507E-04 Eh
   gradient norm :     0.0029023 Eh/α   predicted     0.0000000E+00 (-100.00%)
   displ. norm   :     0.0595684 α      lambda       -0.6940323E-04
   maximum displ.:     0.0195027 α      in ANC's #1, #61, #9, ...

........................................................................
.............................. CYCLE   22 ..............................
........................................................................

 iter      E             dE          RMSdq      gap      omega  full diag
   1   -404.5763851 -0.404576E+03  0.854E-03    0.75       0.0  T
   2   -404.5765609 -0.175868E-03  0.701E-03    0.75       1.0  T
   3   -404.5763991  0.161828E-03  0.563E-03    0.75       1.1  T
   4   -404.5765696 -0.170509E-03  0.696E-03    0.75       1.0  T
   5   -404.5765203  0.493644E-04  0.439E-03    0.75       1.5  T
   6   -404.5764569  0.633882E-04  0.299E-03    0.75       2.2  T
   7   -404.5765054 -0.485185E-04  0.577E-04    0.75      11.2  T
   8   -404.5765081 -0.274540E-05  0.399E-04    0.75      16.1  T
   9   -404.5765055  0.263823E-05  0.268E-04    0.75      24.0  T
  10   -404.5765077 -0.217842E-05  0.178E-04    0.75      36.2  T
  11   -404.5765110 -0.335201E-05  0.126E-04    0.75      51.2  T
  12   -404.5765100  0.996375E-06  0.850E-05    0.75      75.8  T
  13   -404.5765103 -0.311857E-06  0.446E-05    0.75     144.5  T
     SCC iter.                  ...        0 min,  1.151 sec
     gradient                   ...        0 min,  0.275 sec
 * total energy  :  -399.6635705 Eh     change       -0.5216519E-04 Eh
   gradient norm :     0.0017330 Eh/α   predicted    -0.3492920E-04 ( -33.04%)
   displ. norm   :     0.3127738 α      lambda       -0.1872037E-03
   maximum displ.:     0.0715156 α      in ANC's #44, #102, #9, ...

........................................................................
.............................. CYCLE   23 ..............................
........................................................................

 iter      E             dE          RMSdq      gap      omega  full diag
   1   -404.5778539 -0.404578E+03  0.381E-02    0.74       0.0  T
   2   -404.5776074  0.246524E-03  0.359E-02    0.75       1.0  T
   3   -404.5780078 -0.400410E-03  0.396E-02    0.73       1.0  T
   4   -404.5774325  0.575370E-03  0.351E-02    0.75       1.0  T
   5   -404.5775275 -0.949936E-04  0.248E-02    0.75       1.0  T
   6   -404.5781653 -0.637875E-03  0.955E-03    0.74       1.0  T
   7   -404.5779960  0.169321E-03  0.240E-03    0.75       2.7  T
   8   -404.5780141 -0.180918E-04  0.137E-03    0.75       4.7  T
   9   -404.5780330 -0.188913E-04  0.101E-03    0.75       6.4  T
  10   -404.5780358 -0.278163E-05  0.830E-04    0.75       7.8  T
  11   -404.5780527 -0.168890E-04  0.556E-04    0.75      11.6  T
  12   -404.5780547 -0.199720E-05  0.300E-04    0.75      21.5  T
  13   -404.5780577 -0.300389E-05  0.175E-04    0.75      36.8  T
  14   -404.5780585 -0.843281E-06  0.111E-04    0.75      58.0  T
  15   -404.5780581  0.397851E-06  0.815E-05    0.75      79.0  T
     SCC iter.                  ...        0 min,  1.395 sec
     gradient                   ...        0 min,  0.270 sec
 * total energy  :  -399.6636869 Eh     change       -0.1163366E-03 Eh
   gradient norm :     0.0061346 Eh/α   predicted    -0.9767300E-04 ( -16.04%)
   displ. norm   :     0.1490721 α      lambda       -0.1410503E-03
   maximum displ.:     0.0399383 α      in ANC's #44, #102, #9, ...

........................................................................
.............................. CYCLE   24 ..............................
........................................................................

 iter      E             dE          RMSdq      gap      omega  full diag
   1   -404.5768902 -0.404577E+03  0.189E-02    0.75       0.0  T
   2   -404.5770490 -0.158792E-03  0.274E-02    0.74       1.0  T
   3   -404.5765478  0.501166E-03  0.260E-02    0.76       1.0  T
   4   -404.5768941 -0.346265E-03  0.128E-02    0.75       1.0  T
   5   -404.5771145 -0.220428E-03  0.168E-02    0.74       1.0  T
   6   -404.5768615  0.253032E-03  0.322E-03    0.75       2.0  T
   7   -404.5769165 -0.549610E-04  0.115E-03    0.75       5.6  T
   8   -404.5769170 -0.531179E-06  0.680E-04    0.75       9.5  T
   9   -404.5769096  0.738818E-05  0.452E-04    0.75      14.2  T
  10   -404.5769053  0.434958E-05  0.312E-04    0.75      20.7  T
  11   -404.5769039  0.139040E-05  0.168E-04    0.75      38.3  T
  12   -404.5769030  0.891390E-06  0.152E-04    0.75      42.4  T
     SCC iter.                  ...        0 min,  1.104 sec
     gradient                   ...        0 min,  0.275 sec
 * total energy  :  -399.6637885 Eh     change       -0.1016813E-03 Eh
   gradient norm :     0.0051304 Eh/α   predicted    -0.7209291E-04 ( -29.10%)
   displ. norm   :     0.2327676 α      lambda       -0.1740409E-03
   maximum displ.:     0.0671840 α      in ANC's #44, #102, #96, ...

........................................................................
.............................. CYCLE   25 ..............................
........................................................................

 iter      E             dE          RMSdq      gap      omega  full diag
   1   -404.5746465 -0.404575E+03  0.228E-02    0.75       0.0  T
   2   -404.5747197 -0.731962E-04  0.214E-02    0.75       1.0  T
   3   -404.5740374  0.682282E-03  0.373E-02    0.76       1.0  T
   4   -404.5746149 -0.577490E-03  0.172E-02    0.75       1.0  T
   5   -404.5748173 -0.202455E-03  0.159E-02    0.75       1.0  T
   6   -404.5745882  0.229113E-03  0.331E-03    0.75       1.9  T
   7   -404.5746658 -0.775870E-04  0.123E-03    0.75       5.2  T
   8   -404.5746556  0.101838E-04  0.586E-04    0.75      11.0  T
   9   -404.5746508  0.482081E-05  0.309E-04    0.75      20.9  T
  10   -404.5746512 -0.370272E-06  0.274E-04    0.75      23.5  T
  11   -404.5746505  0.680062E-06  0.179E-04    0.75      35.9  T
     SCC iter.                  ...        0 min,  1.007 sec
     gradient                   ...        0 min,  0.271 sec
 * total energy  :  -399.6639225 Eh     change       -0.1339625E-03 Eh
   gradient norm :     0.0037505 Eh/α   predicted    -0.9173545E-04 ( -31.52%)
   displ. norm   :     0.3631860 α      lambda       -0.2122245E-03
   maximum displ.:     0.1049078 α      in ANC's #44, #96, #102, ...

........................................................................
.............................. CYCLE   26 ..............................
........................................................................

 iter      E             dE          RMSdq      gap      omega  full diag
   1   -404.5719795 -0.404572E+03  0.345E-02    0.75       0.0  T
   2   -404.5720139 -0.343874E-04  0.234E-02    0.75       1.0  T
   3   -404.5711588  0.855071E-03  0.403E-02    0.77       1.0  T
   4   -404.5720469 -0.888054E-03  0.368E-02    0.74       1.0  T
   5   -404.5720596 -0.126564E-04  0.149E-02    0.75       1.0  T
   6   -404.5718800  0.179521E-03  0.412E-03    0.76       1.6  T
   7   -404.5719558 -0.757720E-04  0.108E-03    0.75       6.0  T
   8   -404.5719491  0.674692E-05  0.719E-04    0.75       9.0  T
   9   -404.5719519 -0.287344E-05  0.447E-04    0.75      14.4  T
  10   -404.5719468  0.511237E-05  0.296E-04    0.75      21.8  T
  11   -404.5719467  0.821660E-07  0.217E-04    0.75      29.7  T
  12   -404.5719465  0.202014E-06  0.163E-04    0.75      39.6  T
     SCC iter.                  ...        0 min,  1.116 sec
     gradient                   ...        0 min,  0.281 sec
 * total energy  :  -399.6640806 Eh     change       -0.1580894E-03 Eh
   gradient norm :     0.0066860 Eh/α   predicted    -0.1201104E-03 ( -24.02%)
   displ. norm   :     0.3926345 α      lambda       -0.2387870E-03
   maximum displ.:     0.1195937 α      in ANC's #96, #102, #44, ...

........................................................................
.............................. CYCLE   27 ..............................
........................................................................

 iter      E             dE          RMSdq      gap      omega  full diag
   1   -404.5703619 -0.404570E+03  0.384E-02    0.75       0.0  T
   2   -404.5704348 -0.729097E-04  0.267E-02    0.75       1.0  T
   3   -404.5700551  0.379746E-03  0.271E-02    0.76       1.0  T
   4   -404.5702086 -0.153532E-03  0.458E-02    0.74       1.0  T
   5   -404.5704944 -0.285758E-03  0.112E-02    0.75       1.0  T
   6   -404.5702455  0.248832E-03  0.669E-03    0.76       1.0  T
   7   -404.5703605 -0.114937E-03  0.109E-03    0.75       5.9  T
   8   -404.5703583  0.214971E-05  0.729E-04    0.75       8.8  T
   9   -404.5703639 -0.554380E-05  0.489E-04    0.75      13.2  T
  10   -404.5703575  0.637795E-05  0.386E-04    0.75      16.7  T
  11   -404.5703595 -0.203586E-05  0.263E-04    0.75      24.5  T
  12   -404.5703569  0.266495E-05  0.171E-04    0.75      37.8  T
  13   -404.5703560  0.851316E-06  0.125E-04    0.75      51.6  T
  14   -404.5703533  0.275124E-05  0.725E-05    0.75      88.8  T
  15   -404.5703532  0.164364E-07  0.526E-05    0.75     122.4  T
     SCC iter.                  ...        0 min,  1.503 sec
     gradient                   ...        0 min,  0.303 sec
 * total energy  :  -399.6642530 Eh     change       -0.1724408E-03 Eh
   gradient norm :     0.0098223 Eh/α   predicted    -0.1378009E-03 ( -20.09%)
   displ. norm   :     0.3854486 α      lambda       -0.3781042E-03
   maximum displ.:     0.1208884 α      in ANC's #96, #102, #44, ...

........................................................................
.............................. CYCLE   28 ..............................
........................................................................

 iter      E             dE          RMSdq      gap      omega  full diag
   1   -404.5733727 -0.404573E+03  0.392E-02    0.75       0.0  T
   2   -404.5731148  0.257883E-03  0.318E-02    0.76       1.0  T
   3   -404.5728763  0.238516E-03  0.558E-02    0.74       1.0  T
   4   -404.5727699  0.106429E-03  0.404E-02    0.76       1.0  T
   5   -404.5730963 -0.326444E-03  0.883E-03    0.76       1.0  T
   6   -404.5733466 -0.250255E-03  0.647E-03    0.75       1.0  T
   7   -404.5732025  0.144056E-03  0.164E-03    0.75       3.9  T
   8   -404.5732181 -0.155084E-04  0.814E-04    0.75       7.9  T
   9   -404.5732281 -0.999565E-05  0.575E-04    0.75      11.2  T
  10   -404.5732231  0.499946E-05  0.509E-04    0.75      12.7  T
  11   -404.5732219  0.112010E-05  0.274E-04    0.75      23.5  T
  12   -404.5732196  0.232361E-05  0.185E-04    0.75      34.8  T
  13   -404.5732209 -0.128163E-05  0.125E-04    0.75      51.6  T
  14   -404.5732166  0.428432E-05  0.763E-05    0.75      84.5  T
  15   -404.5732160  0.566706E-06  0.500E-05    0.75     128.8  T
  16   -404.5732154  0.612908E-06  0.386E-05    0.75     167.0  T
     SCC iter.                  ...        0 min,  1.636 sec
     gradient                   ...        0 min,  0.282 sec
 * total energy  :  -399.6645387 Eh     change       -0.2856433E-03 Eh
   gradient norm :     0.0094947 Eh/α   predicted    -0.2171404E-03 ( -23.98%)
   displ. norm   :     0.4712016 α      lambda       -0.4593850E-03
   maximum displ.:     0.1497384 α      in ANC's #96, #102, #44, ...

........................................................................
.............................. CYCLE   29 ..............................
........................................................................

 iter      E             dE          RMSdq      gap      omega  full diag
   1   -404.5755186 -0.404576E+03  0.461E-02    0.75       0.0  T
   2   -404.5753902  0.128402E-03  0.356E-02    0.75       1.0  T
   3   -404.5745099  0.880340E-03  0.741E-02    0.74       1.0  T
   4   -404.5749758 -0.465949E-03  0.424E-02    0.75       1.0  T
   5   -404.5754835 -0.507683E-03  0.563E-03    0.75       1.1  T
   6   -404.5754835  0.705937E-07  0.209E-03    0.75       3.1  T
   7   -404.5754160  0.674238E-04  0.272E-03    0.75       2.4  T
   8   -404.5754885 -0.724215E-04  0.103E-03    0.75       6.2  T
   9   -404.5754768  0.116559E-04  0.523E-04    0.75      12.3  T
  10   -404.5754738  0.301167E-05  0.498E-04    0.75      12.9  T
  11   -404.5754739 -0.102408E-06  0.267E-04    0.75      24.2  T
  12   -404.5754716  0.228969E-05  0.202E-04    0.75      31.9  T
  13   -404.5754723 -0.705957E-06  0.111E-04    0.75      57.8  T
     SCC iter.                  ...        0 min,  1.236 sec
     gradient                   ...        0 min,  0.284 sec
 * total energy  :  -399.6649153 Eh     change       -0.3765856E-03 Eh
   gradient norm :     0.0081457 Eh/α   predicted    -0.2806923E-03 ( -25.46%)
   displ. norm   :     0.5411416 α      lambda       -0.5571681E-03
   maximum displ.:     0.1741302 α      in ANC's #102, #96, #44, ...

........................................................................
.............................. CYCLE   30 ..............................
........................................................................

 iter      E             dE          RMSdq      gap      omega  full diag
   1   -404.5781000 -0.404578E+03  0.540E-02    0.75       0.0  T
   2   -404.5782043 -0.104268E-03  0.387E-02    0.75       1.0  T
   3   -404.5765466  0.165761E-02  0.855E-02    0.74       1.0  T
   4   -404.5775003 -0.953645E-03  0.488E-02    0.75       1.0  T
   5   -404.5783585 -0.858213E-03  0.125E-02    0.74       1.0  T
   6   -404.5779933  0.365157E-03  0.868E-03    0.75       1.0  T
   7   -404.5781878 -0.194471E-03  0.216E-03    0.75       3.0  T
   8   -404.5781824  0.543045E-05  0.979E-04    0.75       6.6  T
   9   -404.5781885 -0.608836E-05  0.603E-04    0.75      10.7  T
  10   -404.5781871  0.134107E-05  0.465E-04    0.75      13.8  T
  11   -404.5781873 -0.196890E-06  0.272E-04    0.75      23.7  T
  12   -404.5781847  0.262802E-05  0.218E-04    0.75      29.6  T
  13   -404.5781859 -0.120866E-05  0.108E-04    0.75      59.7  T
  14   -404.5781838  0.215459E-05  0.506E-05    0.75     127.2  T
  15   -404.5781827  0.105980E-05  0.390E-05    0.75     165.1  T
  16   -404.5781827  0.305849E-07  0.201E-05    0.75     321.2  T
     SCC iter.                  ...        0 min,  1.474 sec
     gradient                   ...        0 min,  0.295 sec
 * total energy  :  -399.6653494 Eh     change       -0.4341311E-03 Eh
   gradient norm :     0.0066039 Eh/α   predicted    -0.3601687E-03 ( -17.04%)
   displ. norm   :     0.6931174 α      lambda       -0.5656286E-03
   maximum displ.:     0.2278056 α      in ANC's #102, #96, #44, ...

........................................................................
.............................. CYCLE   31 ..............................
........................................................................

 iter      E             dE          RMSdq      gap      omega  full diag
   1   -404.5733476 -0.404573E+03  0.702E-02    0.75       0.0  T
   2   -404.5730400  0.307582E-03  0.446E-02    0.75       1.0  T
   3   -404.5733208 -0.280813E-03  0.571E-02    0.74       1.0  T
   4   -404.5704308  0.289004E-02  0.945E-02    0.77       1.0  T
   5   -404.5728798 -0.244897E-02  0.135E-02    0.76       1.0  T
   6   -404.5733298 -0.450087E-03  0.107E-02    0.75       1.0  T
   7   -404.5731958  0.134026E-03  0.171E-03    0.75       3.8  T
   8   -404.5732018 -0.594378E-05  0.864E-04    0.75       7.5  T
   9   -404.5731968  0.497784E-05  0.586E-04    0.75      11.0  T
  10   -404.5732016 -0.482705E-05  0.378E-04    0.75      17.0  T
  11   -404.5731983  0.333889E-05  0.305E-04    0.75      21.1  T
  12   -404.5731964  0.188041E-05  0.187E-04    0.75      34.5  T
  13   -404.5731944  0.199815E-05  0.152E-04    0.75      42.4  T
  14   -404.5731937  0.716650E-06  0.811E-05    0.75      79.5  T
  15   -404.5731916  0.212039E-05  0.459E-05    0.75     140.2  T
  16   -404.5731911  0.504920E-06  0.298E-05    0.75     216.1  T
     SCC iter.                  ...        0 min,  1.463 sec
     gradient                   ...        0 min,  0.281 sec
 * total energy  :  -399.6657248 Eh     change       -0.3753758E-03 Eh
   gradient norm :     0.0121801 Eh/α   predicted    -0.4186841E-03 (  11.54%)
   displ. norm   :     0.5480737 α      lambda       -0.1174474E-02
   maximum displ.:     0.1576775 α      in ANC's #22, #102, #44, ...

........................................................................
.............................. CYCLE   32 ..............................
........................................................................

 iter      E             dE          RMSdq      gap      omega  full diag
   1   -404.5914451 -0.404591E+03  0.803E-02    0.75       0.0  T
   2   -404.5905353  0.909834E-03  0.642E-02    0.76       1.0  T
   3   -404.5914432 -0.907875E-03  0.538E-02    0.74       1.0  T
   4   -404.5877232  0.372001E-02  0.887E-02    0.79       1.0  T
   5   -404.5902873 -0.256416E-02  0.357E-02    0.76       1.0  T
   6   -404.5912540 -0.966647E-03  0.214E-02    0.75       1.0  T
   7   -404.5910808  0.173206E-03  0.349E-03    0.75       1.8  T
   8   -404.5910713  0.945887E-05  0.159E-03    0.75       4.0  T
   9   -404.5910479  0.234040E-04  0.110E-03    0.75       5.9  T
  10   -404.5910580 -0.101387E-04  0.491E-04    0.75      13.1  T
  11   -404.5910582 -0.150970E-06  0.389E-04    0.75      16.6  T
  12   -404.5910530  0.517145E-05  0.270E-04    0.75      23.9  T
  13   -404.5910527  0.329526E-06  0.227E-04    0.75      28.4  T
     SCC iter.                  ...        0 min,  1.250 sec
     gradient                   ...        0 min,  0.281 sec
 * total energy  :  -399.6652904 Eh     change        0.4343415E-03 Eh
   gradient norm :     0.0256187 Eh/α   predicted    -0.7636434E-03 (-275.82%)
   displ. norm   :     0.2565307 α      lambda       -0.1818145E-02
   maximum displ.:     0.0869860 α      in ANC's #102, #96, #44, ...

........................................................................
.............................. CYCLE   33 ..............................
........................................................................

 iter      E             dE          RMSdq      gap      omega  full diag
   1   -404.5792848 -0.404579E+03  0.485E-02    0.75       0.0  T
   2   -404.5801979 -0.913127E-03  0.405E-02    0.75       1.0  T
   3   -404.5786680  0.152995E-02  0.404E-02    0.77       1.0  T
   4   -404.5800609 -0.139297E-02  0.509E-02    0.73       1.0  T
   5   -404.5799013  0.159633E-03  0.199E-02    0.75       1.0  T
   6   -404.5797625  0.138816E-03  0.176E-02    0.76       1.0  T
   7   -404.5798603 -0.977787E-04  0.332E-03    0.76       1.9  T
   8   -404.5798872 -0.269692E-04  0.960E-04    0.76       6.7  T
   9   -404.5798901 -0.281768E-05  0.736E-04    0.75       8.8  T
  10   -404.5798872  0.283568E-05  0.375E-04    0.76      17.2  T
  11   -404.5798902 -0.300095E-05  0.290E-04    0.76      22.2  T
  12   -404.5798925 -0.227170E-05  0.230E-04    0.76      28.0  T
  13   -404.5798919  0.607777E-06  0.175E-04    0.76      36.9  T
  14   -404.5798933 -0.142732E-05  0.126E-04    0.76      51.3  T
  15   -404.5798924  0.926944E-06  0.697E-05    0.76      92.4  T
     SCC iter.                  ...        0 min,  1.401 sec
     gradient                   ...        0 min,  0.281 sec
 * total energy  :  -399.6663038 Eh     change       -0.1013398E-02 Eh
   gradient norm :     0.0085042 Eh/α   predicted    -0.9688972E-03 (  -4.39%)
   displ. norm   :     0.3536418 α      lambda       -0.2684644E-03
   maximum displ.:     0.1068016 α      in ANC's #102, #44, #96, ...

........................................................................
.............................. CYCLE   34 ..............................
........................................................................

 iter      E             dE          RMSdq      gap      omega  full diag
   1   -404.5743117 -0.404574E+03  0.387E-02    0.75       0.0  T
   2   -404.5747071 -0.395318E-03  0.277E-02    0.75       1.0  T
   3   -404.5737941  0.912964E-03  0.322E-02    0.77       1.0  T
   4   -404.5746703 -0.876169E-03  0.420E-02    0.74       1.0  T
   5   -404.5746552  0.150778E-04  0.142E-02    0.75       1.0  T
   6   -404.5745053  0.149866E-03  0.642E-03    0.76       1.0  T
   7   -404.5745567 -0.514225E-04  0.136E-03    0.75       4.7  T
   8   -404.5745652 -0.846741E-05  0.742E-04    0.75       8.7  T
   9   -404.5745695 -0.433548E-05  0.618E-04    0.75      10.4  T
  10   -404.5745682  0.132838E-05  0.328E-04    0.75      19.7  T
  11   -404.5745651  0.315573E-05  0.259E-04    0.75      24.8  T
  12   -404.5745684 -0.331437E-05  0.169E-04    0.75      38.1  T
  13   -404.5745667  0.165008E-05  0.103E-04    0.75      62.7  T
  14   -404.5745654  0.134741E-05  0.627E-05    0.75     102.8  T
  15   -404.5745646  0.774345E-06  0.536E-05    0.75     120.1  T
  16   -404.5745639  0.745381E-06  0.380E-05    0.75     169.7  T
     SCC iter.                  ...        0 min,  1.450 sec
     gradient                   ...        0 min,  0.299 sec
 * total energy  :  -399.6664867 Eh     change       -0.1829143E-03 Eh
   gradient norm :     0.0089419 Eh/α   predicted    -0.1510197E-03 ( -17.44%)
   displ. norm   :     0.2432690 α      lambda       -0.4389839E-03
   maximum displ.:     0.0599575 α      in ANC's #55, #44, #5, ...

........................................................................
.............................. CYCLE   35 ..............................
........................................................................

 iter      E             dE          RMSdq      gap      omega  full diag
   1   -404.5764679 -0.404576E+03  0.373E-02    0.75       0.0  T
   2   -404.5770453 -0.577415E-03  0.329E-02    0.75       1.0  T
   3   -404.5760881  0.957141E-03  0.295E-02    0.76       1.0  T
   4   -404.5769393 -0.851106E-03  0.326E-02    0.74       1.0  T
   5   -404.5770554 -0.116108E-03  0.227E-02    0.74       1.0  T
   6   -404.5767862  0.269170E-03  0.105E-02    0.75       1.0  T
   7   -404.5768561 -0.698778E-04  0.192E-03    0.75       3.3  T
   8   -404.5768741 -0.180166E-04  0.810E-04    0.75       8.0  T
   9   -404.5768790 -0.492020E-05  0.720E-04    0.75       8.9  T
  10   -404.5768756  0.337050E-05  0.366E-04    0.75      17.6  T
  11   -404.5768778 -0.219189E-05  0.265E-04    0.75      24.3  T
  12   -404.5768826 -0.481574E-05  0.193E-04    0.75      33.3  T
  13   -404.5768820  0.674417E-06  0.124E-04    0.75      52.2  T
  14   -404.5768825 -0.520360E-06  0.752E-05    0.75      85.7  T
     SCC iter.                  ...        0 min,  1.313 sec
     gradient                   ...        0 min,  0.284 sec
 * total energy  :  -399.6667007 Eh     change       -0.2139644E-03 Eh
   gradient norm :     0.0082816 Eh/α   predicted    -0.2324861E-03 (   8.66%)
   displ. norm   :     0.4614886 α      lambda       -0.3310640E-03
   maximum displ.:     0.1478868 α      in ANC's #102, #44, #96, ...

........................................................................
.............................. CYCLE   36 ..............................
........................................................................

 iter      E             dE          RMSdq      gap      omega  full diag
   1   -404.5766374 -0.404577E+03  0.488E-02    0.76       0.0  T
   2   -404.5759921  0.645251E-03  0.350E-02    0.76       1.0  T
   3   -404.5767778 -0.785644E-03  0.436E-02    0.74       1.0  T
   4   -404.5747217  0.205607E-02  0.499E-02    0.78       1.0  T
   5   -404.5761485 -0.142674E-02  0.101E-02    0.76       1.0  T
   6   -404.5763180 -0.169492E-03  0.132E-02    0.75       1.0  T
   7   -404.5763019  0.160591E-04  0.116E-03    0.76       5.5  T
   8   -404.5762996  0.228413E-05  0.753E-04    0.76       8.6  T
   9   -404.5762937  0.589624E-05  0.426E-04    0.76      15.1  T
  10   -404.5762976 -0.390761E-05  0.294E-04    0.76      21.9  T
  11   -404.5762980 -0.373021E-06  0.213E-04    0.76      30.2  T
  12   -404.5762973  0.686745E-06  0.149E-04    0.76      43.3  T
     SCC iter.                  ...        0 min,  1.140 sec
     gradient                   ...        0 min,  0.280 sec
 * total energy  :  -399.6668865 Eh     change       -0.1858299E-03 Eh
   gradient norm :     0.0091835 Eh/α   predicted    -0.2007870E-03 (   8.05%)
   displ. norm   :     0.2141284 α      lambda       -0.2945466E-03
   maximum displ.:     0.0636876 α      in ANC's #22, #5, #13, ...

........................................................................
.............................. CYCLE   37 ..............................
........................................................................

 iter      E             dE          RMSdq      gap      omega  full diag
   1   -404.5816282 -0.404582E+03  0.263E-02    0.76       0.0  T
   2   -404.5810610  0.567238E-03  0.225E-02    0.76       1.0  T
   3   -404.5817003 -0.639384E-03  0.239E-02    0.75       1.0  T
   4   -404.5808129  0.887442E-03  0.233E-02    0.77       1.0  T
   5   -404.5812530 -0.440155E-03  0.614E-03    0.76       1.0  T
   6   -404.5813488 -0.957648E-04  0.120E-02    0.76       1.0  T
   7   -404.5813401  0.866923E-05  0.143E-03    0.76       4.5  T
   8   -404.5813239  0.162417E-04  0.666E-04    0.76       9.7  T
   9   -404.5813242 -0.276132E-06  0.519E-04    0.76      12.4  T
  10   -404.5813304 -0.618646E-05  0.344E-04    0.76      18.7  T
  11   -404.5813325 -0.214412E-05  0.289E-04    0.76      22.3  T
  12   -404.5813337 -0.119520E-05  0.212E-04    0.76      30.4  T
  13   -404.5813363 -0.257041E-05  0.148E-04    0.76      43.5  T
  14   -404.5813398 -0.349449E-05  0.761E-05    0.76      84.7  T
  15   -404.5813406 -0.847572E-06  0.594E-05    0.76     108.5  T
     SCC iter.                  ...        0 min,  1.388 sec
     gradient                   ...        0 min,  0.282 sec
 * total energy  :  -399.6670446 Eh     change       -0.1580339E-03 Eh
   gradient norm :     0.0072180 Eh/α   predicted    -0.1540289E-03 (  -2.53%)
   displ. norm   :     0.3510747 α      lambda       -0.2048302E-03
   maximum displ.:     0.0997586 α      in ANC's #44, #102, #5, ...

........................................................................
.............................. CYCLE   38 ..............................
........................................................................

 iter      E             dE          RMSdq      gap      omega  full diag
   1   -404.5795236 -0.404580E+03  0.371E-02    0.76       0.0  T
   2   -404.5798362 -0.312667E-03  0.243E-02    0.75       1.0  T
   3   -404.5790304  0.805810E-03  0.304E-02    0.77       1.0  T
   4   -404.5799240 -0.893586E-03  0.329E-02    0.74       1.0  T
   5   -404.5797625  0.161537E-03  0.829E-03    0.75       1.0  T
   6   -404.5795954  0.167091E-03  0.103E-02    0.76       1.0  T
   7   -404.5797168 -0.121370E-03  0.128E-03    0.76       5.0  T
   8   -404.5797274 -0.105917E-04  0.626E-04    0.76      10.3  T
   9   -404.5797288 -0.143203E-05  0.479E-04    0.76      13.5  T
  10   -404.5797272  0.155961E-05  0.274E-04    0.76      23.5  T
  11   -404.5797262  0.106534E-05  0.242E-04    0.76      26.6  T
  12   -404.5797278 -0.160412E-05  0.140E-04    0.76      46.0  T
  13   -404.5797265  0.131676E-05  0.766E-05    0.76      84.1  T
  14   -404.5797259  0.525735E-06  0.393E-05    0.76     163.8  T
  15   -404.5797255  0.457866E-06  0.362E-05    0.76     178.1  T
     SCC iter.                  ...        0 min,  1.374 sec
     gradient                   ...        0 min,  0.288 sec
 * total energy  :  -399.6671850 Eh     change       -0.1404208E-03 Eh
   gradient norm :     0.0040842 Eh/α   predicted    -0.1150398E-03 ( -18.07%)
   displ. norm   :     0.3391355 α      lambda       -0.1691609E-03
   maximum displ.:     0.0859173 α      in ANC's #5, #102, #13, ...

........................................................................
.............................. CYCLE   39 ..............................
........................................................................

 iter      E             dE          RMSdq      gap      omega  full diag
   1   -404.5814922 -0.404581E+03  0.340E-02    0.75       0.0  T
   2   -404.5818546 -0.362415E-03  0.250E-02    0.75       1.0  T
   3   -404.5809301  0.924513E-03  0.299E-02    0.77       1.0  T
   4   -404.5818103 -0.880215E-03  0.365E-02    0.74       1.0  T
   5   -404.5817655  0.447598E-04  0.135E-02    0.75       1.0  T
   6   -404.5816177  0.147850E-03  0.608E-03    0.76       1.1  T
   7   -404.5816612 -0.434698E-04  0.830E-04    0.76       7.8  T
   8   -404.5816618 -0.634610E-06  0.610E-04    0.76      10.6  T
   9   -404.5816695 -0.771899E-05  0.479E-04    0.76      13.5  T
  10   -404.5816695 -0.262029E-07  0.245E-04    0.76      26.3  T
     SCC iter.                  ...        0 min,  0.968 sec
     gradient                   ...        0 min,  0.280 sec
 * total energy  :  -399.6672764 Eh     change       -0.9144880E-04 Eh
   gradient norm :     0.0043623 Eh/α   predicted    -0.9431137E-04 (   3.13%)
   displ. norm   :     0.2248373 α      lambda       -0.1163305E-03
   maximum displ.:     0.0583639 α      in ANC's #13, #5, #44, ...

........................................................................
.............................. CYCLE   40 ..............................
........................................................................

 iter      E             dE          RMSdq      gap      omega  full diag
   1   -404.5808517 -0.404581E+03  0.226E-02    0.76       0.0  T
   2   -404.5808782 -0.264637E-04  0.146E-02    0.75       1.0  T
   3   -404.5807085  0.169677E-03  0.183E-02    0.76       1.0  T
   4   -404.5807262 -0.177350E-04  0.267E-02    0.75       1.0  T
   5   -404.5809131 -0.186842E-03  0.398E-03    0.75       1.6  T
   6   -404.5807757  0.137336E-03  0.331E-03    0.76       1.9  T
   7   -404.5808513 -0.755440E-04  0.700E-04    0.76       9.2  T
   8   -404.5808429  0.843252E-05  0.375E-04    0.76      17.2  T
   9   -404.5808476 -0.476839E-05  0.259E-04    0.76      24.8  T
  10   -404.5808467  0.913299E-06  0.158E-04    0.76      40.8  T
  11   -404.5808491 -0.242030E-05  0.118E-04    0.76      54.8  T
  12   -404.5808490  0.943483E-07  0.868E-05    0.76      74.2  T
     SCC iter.                  ...        0 min,  1.113 sec
     gradient                   ...        0 min,  0.290 sec
 * total energy  :  -399.6673452 Eh     change       -0.6879483E-04 Eh
   gradient norm :     0.0033716 Eh/α   predicted    -0.6110644E-04 ( -11.18%)
   displ. norm   :     0.2549841 α      lambda       -0.7039199E-04
   maximum displ.:     0.0701637 α      in ANC's #44, #13, #5, ...

........................................................................
.............................. CYCLE   41 ..............................
........................................................................

 iter      E             dE          RMSdq      gap      omega  full diag
   1   -404.5790906 -0.404579E+03  0.257E-02    0.76       0.0  T
   2   -404.5789300  0.160554E-03  0.172E-02    0.76       1.0  T
   3   -404.5792331 -0.303041E-03  0.217E-02    0.75       1.0  T
   4   -404.5784108  0.822269E-03  0.269E-02    0.77       1.0  T
   5   -404.5788652 -0.454389E-03  0.727E-03    0.76       1.0  T
   6   -404.5790071 -0.141912E-03  0.273E-03    0.76       2.4  T
   7   -404.5789822  0.248828E-04  0.642E-04    0.76      10.0  T
   8   -404.5789807  0.148065E-05  0.469E-04    0.76      13.7  T
   9   -404.5789770  0.374141E-05  0.221E-04    0.76      29.2  T
  10   -404.5789802 -0.320210E-05  0.147E-04    0.76      43.8  T
  11   -404.5789807 -0.561580E-06  0.111E-04    0.76      58.2  T
  12   -404.5789806  0.177300E-06  0.961E-05    0.76      67.0  T
     SCC iter.                  ...        0 min,  1.099 sec
     gradient                   ...        0 min,  0.286 sec
 * total energy  :  -399.6673887 Eh     change       -0.4343033E-04 Eh
   gradient norm :     0.0028905 Eh/α   predicted    -0.3748929E-04 ( -13.68%)
   displ. norm   :     0.1755025 α      lambda       -0.8577174E-04
   maximum displ.:     0.0458897 α      in ANC's #7, #13, #4, ...

........................................................................
.............................. CYCLE   42 ..............................
........................................................................

 iter      E             dE          RMSdq      gap      omega  full diag
   1   -404.5842615 -0.404584E+03  0.165E-02    0.76       0.0  T
   2   -404.5840888  0.172760E-03  0.134E-02    0.76       1.0  T
   3   -404.5842278 -0.138986E-03  0.188E-02    0.75       1.0  T
   4   -404.5840742  0.153512E-03  0.184E-02    0.76       1.0  T
   5   -404.5839210  0.153262E-03  0.952E-03    0.76       1.0  T
   6   -404.5841643 -0.243346E-03  0.263E-03    0.76       2.5  T
   7   -404.5841399  0.244476E-04  0.127E-03    0.76       5.1  T
   8   -404.5841282  0.117144E-04  0.595E-04    0.76      10.8  T
   9   -404.5841287 -0.483848E-06  0.396E-04    0.76      16.3  T
  10   -404.5841305 -0.179998E-05  0.284E-04    0.76      22.7  T
  11   -404.5841300  0.495782E-06  0.181E-04    0.76      35.5  T
     SCC iter.                  ...        0 min,  1.042 sec
     gradient                   ...        0 min,  0.284 sec
 * total energy  :  -399.6674145 Eh     change       -0.2581673E-04 Eh
   gradient norm :     0.0043726 Eh/α   predicted    -0.4420820E-04 (  71.24%)
   displ. norm   :     0.1401343 α      lambda       -0.6322019E-04
   maximum displ.:     0.0376593 α      in ANC's #13, #44, #5, ...
 * RMSD in coord.:     0.3879796 α      energy gain  -0.3991047E-02 Eh

generating ANC from exact Hessian ...
Using Lindh-Hessian (1995)
 Shifting diagonal of input Hessian by    1.1699887823884886E-002
 Lowest  eigenvalues of input Hessian
    0.010000    0.011629    0.011651    0.000000    0.000000    0.000000
    0.000000    0.000000    0.000000    0.011738    0.011747    0.011756
    0.011787    0.011803    0.011815    0.011834    0.011856    0.011876
 Highest eigenvalues
    2.389151    2.597663    2.601045    2.739232    3.193579    3.236976


........................................................................
.............................. CYCLE   43 ..............................
........................................................................

 iter      E             dE          RMSdq      gap      omega  full diag
   1   -404.5816966 -0.404582E+03  0.141E-02    0.76       0.0  T
   2   -404.5817483 -0.516894E-04  0.849E-03    0.76       1.0  T
   3   -404.5814069  0.341414E-03  0.137E-02    0.76       1.0  T
   4   -404.5818165 -0.409663E-03  0.879E-03    0.75       1.0  T
   5   -404.5817326  0.838836E-04  0.352E-03    0.76       1.8  T
   6   -404.5816983  0.343466E-04  0.183E-03    0.76       3.5  T
   7   -404.5817218 -0.234865E-04  0.515E-04    0.76      12.5  T
   8   -404.5817143  0.747490E-05  0.207E-04    0.76      31.2  T
   9   -404.5817158 -0.153321E-05  0.129E-04    0.76      49.8  T
  10   -404.5817163 -0.497282E-06  0.834E-05    0.76      77.3  T
  11   -404.5817168 -0.511343E-06  0.620E-05    0.76     104.0  T
     SCC iter.                  ...        0 min,  0.985 sec
     gradient                   ...        0 min,  0.298 sec
 * total energy  :  -399.6674469 Eh     change       -0.3243624E-04 Eh
   gradient norm :     0.0027593 Eh/α   predicted     0.0000000E+00 (-100.00%)
   displ. norm   :     0.0313830 α      lambda       -0.2910045E-04
   maximum displ.:     0.0086674 α      in ANC's #2, #107, #80, ...

........................................................................
.............................. CYCLE   44 ..............................
........................................................................

 iter      E             dE          RMSdq      gap      omega  full diag
   1   -404.5812248 -0.404581E+03  0.547E-03    0.76       0.0  T
   2   -404.5813756 -0.150832E-03  0.632E-03    0.75       1.0  T
   3   -404.5812345  0.141189E-03  0.475E-03    0.76       1.4  T
   4   -404.5813232 -0.887016E-04  0.456E-03    0.76       1.4  T
   5   -404.5813775 -0.543727E-04  0.448E-03    0.75       1.4  T
   6   -404.5813070  0.705282E-04  0.108E-03    0.76       6.0  T
   7   -404.5813178 -0.107973E-04  0.301E-04    0.76      21.4  T
   8   -404.5813202 -0.239541E-05  0.216E-04    0.76      29.8  T
   9   -404.5813216 -0.141991E-05  0.130E-04    0.76      49.6  T
  10   -404.5813215  0.140735E-06  0.751E-05    0.76      85.8  T
  11   -404.5813214  0.122039E-06  0.550E-05    0.76     117.1  T
     SCC iter.                  ...        0 min,  1.006 sec
     gradient                   ...        0 min,  0.289 sec
 * total energy  :  -399.6674669 Eh     change       -0.1999887E-04 Eh
   gradient norm :     0.0012672 Eh/α   predicted    -0.1456818E-04 ( -27.16%)
   displ. norm   :     0.1062788 α      lambda       -0.3717788E-04
   maximum displ.:     0.0336450 α      in ANC's #107, #2, #7, ...

........................................................................
.............................. CYCLE   45 ..............................
........................................................................

 iter      E             dE          RMSdq      gap      omega  full diag
   1   -404.5803551 -0.404580E+03  0.108E-02    0.75       0.0  T
   2   -404.5803318  0.233173E-04  0.673E-03    0.76       1.0  T
   3   -404.5803616 -0.297682E-04  0.693E-03    0.75       1.0  T
   4   -404.5802684  0.931798E-04  0.149E-02    0.76       1.0  T
   5   -404.5803712 -0.102763E-03  0.104E-03    0.75       6.2  T
   6   -404.5803514  0.197447E-04  0.986E-04    0.76       6.5  T
   7   -404.5803850 -0.335739E-04  0.881E-04    0.75       7.3  T
   8   -404.5803648  0.202201E-04  0.249E-04    0.75      25.9  T
   9   -404.5803712 -0.645588E-05  0.143E-04    0.75      45.0  T
  10   -404.5803692  0.198530E-05  0.790E-05    0.75      81.5  T
  11   -404.5803701 -0.906299E-06  0.537E-05    0.75     120.0  T
  12   -404.5803711 -0.974492E-06  0.381E-05    0.75     168.9  T
     SCC iter.                  ...        0 min,  1.071 sec
     gradient                   ...        0 min,  0.287 sec
 * total energy  :  -399.6674857 Eh     change       -0.1876409E-04 Eh
   gradient norm :     0.0036219 Eh/α   predicted    -0.1868752E-04 (  -0.41%)
   displ. norm   :     0.0510616 α      lambda       -0.2811257E-04
   maximum displ.:     0.0178289 α      in ANC's #2, #107, #7, ...

........................................................................
.............................. CYCLE   46 ..............................
........................................................................

 iter      E             dE          RMSdq      gap      omega  full diag
   1   -404.5804875 -0.404580E+03  0.577E-03    0.76       0.0  T
   2   -404.5804185  0.690480E-04  0.618E-03    0.76       1.0  T
   3   -404.5804562 -0.377389E-04  0.617E-03    0.76       1.0  T
   4   -404.5804585 -0.230503E-05  0.477E-03    0.76       1.3  T
   5   -404.5803833  0.752389E-04  0.296E-03    0.76       2.2  T
   6   -404.5804574 -0.741626E-04  0.122E-03    0.76       5.3  T
   7   -404.5804441  0.133581E-04  0.266E-04    0.76      24.3  T
   8   -404.5804434  0.667436E-06  0.157E-04    0.76      41.1  T
   9   -404.5804415  0.192148E-05  0.110E-04    0.76      58.7  T
  10   -404.5804416 -0.138576E-06  0.746E-05    0.76      86.4  T
     SCC iter.                  ...        0 min,  0.904 sec
     gradient                   ...        0 min,  0.292 sec
 * total energy  :  -399.6675077 Eh     change       -0.2205058E-04 Eh
   gradient norm :     0.0028321 Eh/α   predicted    -0.1409411E-04 ( -36.08%)
   displ. norm   :     0.1209909 α      lambda       -0.4850124E-04
   maximum displ.:     0.0458080 α      in ANC's #2, #107, #7, ...

........................................................................
.............................. CYCLE   47 ..............................
........................................................................

 iter      E             dE          RMSdq      gap      omega  full diag
   1   -404.5808816 -0.404581E+03  0.101E-02    0.76       0.0  T
   2   -404.5808492  0.323298E-04  0.658E-03    0.76       1.0  T
   3   -404.5809374 -0.881420E-04  0.743E-03    0.75       1.0  T
   4   -404.5807235  0.213855E-03  0.121E-02    0.76       1.0  T
   5   -404.5808233 -0.997701E-04  0.330E-03    0.76       1.9  T
   6   -404.5808953 -0.720245E-04  0.117E-03    0.75       5.5  T
   7   -404.5808748  0.204956E-04  0.372E-04    0.76      17.3  T
   8   -404.5808727  0.215628E-05  0.231E-04    0.76      27.9  T
   9   -404.5808763 -0.365102E-05  0.146E-04    0.76      44.0  T
  10   -404.5808755  0.830925E-06  0.937E-05    0.76      68.7  T
  11   -404.5808754  0.460681E-07  0.805E-05    0.76      80.0  T
     SCC iter.                  ...        0 min,  0.993 sec
     gradient                   ...        0 min,  0.286 sec
 * total energy  :  -399.6675389 Eh     change       -0.3118831E-04 Eh
   gradient norm :     0.0015829 Eh/α   predicted    -0.2460593E-04 ( -21.11%)
   displ. norm   :     0.2194801 α      lambda       -0.3405780E-04
   maximum displ.:     0.0858431 α      in ANC's #2, #107, #7, ...

........................................................................
.............................. CYCLE   48 ..............................
........................................................................

 iter      E             dE          RMSdq      gap      omega  full diag
   1   -404.5811707 -0.404581E+03  0.181E-02    0.76       0.0  T
   2   -404.5810413  0.129444E-03  0.156E-02    0.75       1.0  T
   3   -404.5810747 -0.334501E-04  0.142E-02    0.76       1.0  T
   4   -404.5809854  0.892713E-04  0.259E-02    0.75       1.0  T
   5   -404.5810115 -0.260387E-04  0.479E-03    0.76       1.3  T
   6   -404.5811270 -0.115563E-03  0.277E-03    0.75       2.3  T
   7   -404.5810662  0.608671E-04  0.808E-04    0.76       8.0  T
   8   -404.5810725 -0.634819E-05  0.351E-04    0.76      18.4  T
   9   -404.5810695  0.304537E-05  0.255E-04    0.76      25.3  T
  10   -404.5810721 -0.257505E-05  0.175E-04    0.76      36.9  T
  11   -404.5810719  0.146520E-06  0.124E-04    0.76      51.9  T
  12   -404.5810708  0.116096E-05  0.906E-05    0.76      71.1  T
  13   -404.5810727 -0.190003E-05  0.702E-05    0.76      91.8  T
  14   -404.5810726  0.236450E-07  0.476E-05    0.76     135.3  T
     SCC iter.                  ...        0 min,  1.283 sec
     gradient                   ...        0 min,  0.296 sec
 * total energy  :  -399.6675695 Eh     change       -0.3059974E-04 Eh
   gradient norm :     0.0027511 Eh/α   predicted    -0.1739359E-04 ( -43.16%)
   displ. norm   :     0.1926447 α      lambda       -0.4267658E-04
   maximum displ.:     0.0783964 α      in ANC's #2, #107, #7, ...

........................................................................
.............................. CYCLE   49 ..............................
........................................................................

 iter      E             dE          RMSdq      gap      omega  full diag
   1   -404.5809139 -0.404581E+03  0.159E-02    0.75       0.0  T
   2   -404.5808145  0.994904E-04  0.122E-02    0.76       1.0  T
   3   -404.5809816 -0.167145E-03  0.131E-02    0.75       1.0  T
   4   -404.5806074  0.374164E-03  0.205E-02    0.76       1.0  T
   5   -404.5807854 -0.178002E-03  0.664E-03    0.76       1.0  T
   6   -404.5809400 -0.154607E-03  0.328E-03    0.75       2.0  T
   7   -404.5808825  0.575512E-04  0.615E-04    0.76      10.5  T
   8   -404.5808862 -0.374455E-05  0.440E-04    0.76      14.6  T
   9   -404.5808918 -0.560368E-05  0.272E-04    0.76      23.7  T
  10   -404.5808950 -0.315616E-05  0.203E-04    0.76      31.7  T
  11   -404.5808972 -0.223024E-05  0.143E-04    0.76      45.1  T
  12   -404.5808993 -0.205105E-05  0.899E-05    0.76      71.7  T
  13   -404.5809018 -0.251569E-05  0.668E-05    0.75      96.5  T
  14   -404.5809014  0.365453E-06  0.358E-05    0.76     180.0  T
  15   -404.5809020 -0.604721E-06  0.239E-05    0.76     269.9  T
     SCC iter.                  ...        0 min,  1.334 sec
     gradient                   ...        0 min,  0.287 sec
 * total energy  :  -399.6675961 Eh     change       -0.2654540E-04 Eh
   gradient norm :     0.0028953 Eh/α   predicted    -0.2213068E-04 ( -16.63%)
   displ. norm   :     0.1890717 α      lambda       -0.4317562E-04
   maximum displ.:     0.0809984 α      in ANC's #2, #7, #107, ...

........................................................................
.............................. CYCLE   50 ..............................
........................................................................

 iter      E             dE          RMSdq      gap      omega  full diag
   1   -404.5808665 -0.404581E+03  0.140E-02    0.75       0.0  T
   2   -404.5810190 -0.152488E-03  0.968E-03    0.75       1.0  T
   3   -404.5806651  0.353941E-03  0.151E-02    0.76       1.0  T
   4   -404.5809700 -0.304919E-03  0.147E-02    0.75       1.0  T
   5   -404.5810660 -0.960244E-04  0.868E-03    0.75       1.0  T
   6   -404.5809436  0.122466E-03  0.126E-03    0.75       5.1  T
   7   -404.5809439 -0.343228E-06  0.473E-04    0.75      13.6  T
   8   -404.5809503 -0.640621E-05  0.272E-04    0.75      23.7  T
   9   -404.5809515 -0.119649E-05  0.185E-04    0.75      34.8  T
  10   -404.5809536 -0.212884E-05  0.107E-04    0.75      59.9  T
  11   -404.5809542 -0.575172E-06  0.784E-05    0.75      82.2  T
     SCC iter.                  ...        0 min,  0.996 sec
     gradient                   ...        0 min,  0.292 sec
 * total energy  :  -399.6676249 Eh     change       -0.2886130E-04 Eh
   gradient norm :     0.0017734 Eh/α   predicted    -0.2236083E-04 ( -22.52%)
   displ. norm   :     0.2926291 α      lambda       -0.3945748E-04
   maximum displ.:     0.1294700 α      in ANC's #2, #7, #16, ...

........................................................................
.............................. CYCLE   51 ..............................
........................................................................

 iter      E             dE          RMSdq      gap      omega  full diag
   1   -404.5815191 -0.404582E+03  0.217E-02    0.75       0.0  T
   2   -404.5813492  0.169916E-03  0.147E-02    0.75       1.0  T
   3   -404.5814770 -0.127806E-03  0.196E-02    0.75       1.0  T
   4   -404.5810838  0.393197E-03  0.310E-02    0.76       1.0  T
   5   -404.5813572 -0.273441E-03  0.363E-03    0.75       1.8  T
   6   -404.5814542 -0.969346E-04  0.274E-03    0.75       2.3  T
   7   -404.5813790  0.752092E-04  0.125E-03    0.75       5.2  T
   8   -404.5814044 -0.254298E-04  0.435E-04    0.75      14.8  T
   9   -404.5814089 -0.449160E-05  0.247E-04    0.75      26.1  T
  10   -404.5814106 -0.171524E-05  0.149E-04    0.75      43.3  T
  11   -404.5814104  0.141056E-06  0.115E-04    0.75      56.2  T
  12   -404.5814125 -0.200875E-05  0.848E-05    0.75      76.0  T
  13   -404.5814129 -0.478283E-06  0.691E-05    0.75      93.2  T
     SCC iter.                  ...        0 min,  1.172 sec
     gradient                   ...        0 min,  0.290 sec
 * total energy  :  -399.6676435 Eh     change       -0.1861530E-04 Eh
   gradient norm :     0.0026011 Eh/α   predicted    -0.2048218E-04 (  10.03%)
   displ. norm   :     0.0489027 α      lambda       -0.2697878E-04
   maximum displ.:     0.0193163 α      in ANC's #2, #12, #7, ...

........................................................................
.............................. CYCLE   52 ..............................
........................................................................

 iter      E             dE          RMSdq      gap      omega  full diag
   1   -404.5816903 -0.404582E+03  0.725E-03    0.75       0.0  T
   2   -404.5818368 -0.146527E-03  0.612E-03    0.75       1.1  T
   3   -404.5816186  0.218202E-03  0.867E-03    0.76       1.0  T
   4   -404.5817662 -0.147595E-03  0.556E-03    0.75       1.2  T
   5   -404.5818301 -0.639078E-04  0.479E-03    0.75       1.3  T
   6   -404.5817376  0.925407E-04  0.170E-03    0.75       3.8  T
   7   -404.5817475 -0.997563E-05  0.364E-04    0.75      17.7  T
   8   -404.5817522 -0.463178E-05  0.232E-04    0.75      27.8  T
   9   -404.5817495  0.270513E-05  0.126E-04    0.75      51.2  T
  10   -404.5817486  0.889356E-06  0.100E-04    0.75      64.2  T
  11   -404.5817500 -0.140819E-05  0.664E-05    0.75      97.0  T
  12   -404.5817496  0.375560E-06  0.431E-05    0.75     149.6  T
     SCC iter.                  ...        0 min,  1.069 sec
     gradient                   ...        0 min,  0.286 sec
 * total energy  :  -399.6676658 Eh     change       -0.2226770E-04 Eh
   gradient norm :     0.0021643 Eh/α   predicted    -0.1352411E-04 ( -39.27%)
   displ. norm   :     0.0824538 α      lambda       -0.3441177E-04
   maximum displ.:     0.0315166 α      in ANC's #2, #12, #7, ...

........................................................................
.............................. CYCLE   53 ..............................
........................................................................

 iter      E             dE          RMSdq      gap      omega  full diag
   1   -404.5819838 -0.404582E+03  0.771E-03    0.75       0.0  T
   2   -404.5819990 -0.152651E-04  0.630E-03    0.75       1.0  T
   3   -404.5820063 -0.721762E-05  0.403E-03    0.75       1.6  T
   4   -404.5818705  0.135753E-03  0.974E-03    0.76       1.0  T
   5   -404.5819509 -0.804338E-04  0.217E-03    0.75       3.0  T
   6   -404.5820163 -0.653162E-04  0.194E-03    0.75       3.3  T
   7   -404.5819761  0.401374E-04  0.487E-04    0.75      13.2  T
   8   -404.5819821 -0.595224E-05  0.203E-04    0.75      31.7  T
   9   -404.5819818  0.298367E-06  0.127E-04    0.75      50.8  T
  10   -404.5819815  0.221812E-06  0.968E-05    0.75      66.5  T
     SCC iter.                  ...        0 min,  0.920 sec
     gradient                   ...        0 min,  0.288 sec
 * total energy  :  -399.6676908 Eh     change       -0.2497636E-04 Eh
   gradient norm :     0.0011991 Eh/α   predicted    -0.1732415E-04 ( -30.64%)
   displ. norm   :     0.2097859 α      lambda       -0.2922931E-04
   maximum displ.:     0.0918652 α      in ANC's #2, #12, #7, ...

........................................................................
.............................. CYCLE   54 ..............................
........................................................................

 iter      E             dE          RMSdq      gap      omega  full diag
   1   -404.5819454 -0.404582E+03  0.137E-02    0.75       0.0  T
   2   -404.5818522  0.931811E-04  0.107E-02    0.76       1.0  T
   3   -404.5819253 -0.730763E-04  0.102E-02    0.75       1.0  T
   4   -404.5816637  0.261579E-03  0.207E-02    0.76       1.0  T
   5   -404.5817527 -0.889867E-04  0.489E-03    0.76       1.3  T
   6   -404.5818920 -0.139348E-03  0.221E-03    0.75       2.9  T
   7   -404.5818525  0.394628E-04  0.459E-04    0.76      14.0  T
   8   -404.5818554 -0.286914E-05  0.256E-04    0.75      25.2  T
   9   -404.5818578 -0.239139E-05  0.184E-04    0.75      35.1  T
  10   -404.5818574  0.437266E-06  0.128E-04    0.75      50.2  T
  11   -404.5818580 -0.608955E-06  0.972E-05    0.75      66.3  T
     SCC iter.                  ...        0 min,  1.034 sec
     gradient                   ...        0 min,  0.280 sec
 * total energy  :  -399.6677184 Eh     change       -0.2766430E-04 Eh
   gradient norm :     0.0020603 Eh/α   predicted    -0.1490096E-04 ( -46.14%)
   displ. norm   :     0.1834994 α      lambda       -0.2729618E-04
   maximum displ.:     0.0850104 α      in ANC's #2, #7, #12, ...

........................................................................
.............................. CYCLE   55 ..............................
........................................................................

 iter      E             dE          RMSdq      gap      omega  full diag
   1   -404.5816916 -0.404582E+03  0.110E-02    0.75       0.0  T
   2   -404.5815728  0.118744E-03  0.839E-03    0.76       1.0  T
   3   -404.5817672 -0.194354E-03  0.841E-03    0.75       1.0  T
   4   -404.5813334  0.433752E-03  0.125E-02    0.76       1.0  T
   5   -404.5816133 -0.279885E-03  0.205E-03    0.76       3.1  T
   6   -404.5816249 -0.115293E-04  0.242E-03    0.75       2.7  T
   7   -404.5816289 -0.406550E-05  0.331E-04    0.75      19.5  T
   8   -404.5816305 -0.156374E-05  0.210E-04    0.75      30.7  T
   9   -404.5816310 -0.523507E-06  0.169E-04    0.75      38.1  T
  10   -404.5816328 -0.180770E-05  0.121E-04    0.75      53.3  T
  11   -404.5816333 -0.448433E-06  0.908E-05    0.75      71.0  T
     SCC iter.                  ...        0 min,  1.007 sec
     gradient                   ...        0 min,  0.292 sec
 * total energy  :  -399.6677395 Eh     change       -0.2107655E-04 Eh
   gradient norm :     0.0019361 Eh/α   predicted    -0.1410790E-04 ( -33.06%)
   displ. norm   :     0.5841308 α      lambda       -0.5638280E-04
   maximum displ.:     0.2703805 α      in ANC's #2, #7, #12, ...

........................................................................
.............................. CYCLE   56 ..............................
........................................................................

 iter      E             dE          RMSdq      gap      omega  full diag
   1   -404.5809339 -0.404581E+03  0.339E-02    0.75       0.0  T
   2   -404.5806491  0.284795E-03  0.244E-02    0.76       1.0  T
   3   -404.5810634 -0.414370E-03  0.237E-02    0.75       1.0  T
   4   -404.5796463  0.141711E-02  0.394E-02    0.77       1.0  T
   5   -404.5807101 -0.106375E-02  0.836E-03    0.75       1.0  T
   6   -404.5807963 -0.862399E-04  0.637E-03    0.75       1.0  T
   7   -404.5807724  0.239746E-04  0.894E-04    0.75       7.2  T
   8   -404.5807768 -0.449096E-05  0.547E-04    0.75      11.8  T
   9   -404.5807821 -0.521830E-05  0.427E-04    0.75      15.1  T
  10   -404.5807866 -0.452536E-05  0.288E-04    0.75      22.4  T
  11   -404.5807864  0.188152E-06  0.236E-04    0.75      27.3  T
  12   -404.5807885 -0.211226E-05  0.156E-04    0.75      41.4  T
  13   -404.5807891 -0.597155E-06  0.119E-04    0.75      54.1  T
     SCC iter.                  ...        0 min,  1.229 sec
     gradient                   ...        0 min,  0.287 sec
 * total energy  :  -399.6677780 Eh     change       -0.3844185E-04 Eh
   gradient norm :     0.0023565 Eh/α   predicted    -0.3247167E-04 ( -15.53%)
   displ. norm   :     0.1410537 α      lambda       -0.2952083E-04
   maximum displ.:     0.0670795 α      in ANC's #2, #7, #12, ...

........................................................................
.............................. CYCLE   57 ..............................
........................................................................

 iter      E             dE          RMSdq      gap      omega  full diag
   1   -404.5811422 -0.404581E+03  0.828E-03    0.75       0.0  T
   2   -404.5812028 -0.606324E-04  0.561E-03    0.75       1.1  T
   3   -404.5810889  0.113905E-03  0.626E-03    0.76       1.0  T
   4   -404.5812900 -0.201134E-03  0.105E-02    0.75       1.0  T
   5   -404.5812057  0.843764E-04  0.224E-03    0.75       2.9  T
   6   -404.5811591  0.465368E-04  0.156E-03    0.75       4.1  T
   7   -404.5811792 -0.200932E-04  0.253E-04    0.75      25.4  T
   8   -404.5811818 -0.253972E-05  0.140E-04    0.75      46.1  T
   9   -404.5811819 -0.189034E-06  0.994E-05    0.75      64.8  T
  10   -404.5811811  0.811673E-06  0.647E-05    0.75      99.6  T
     SCC iter.                  ...        0 min,  0.908 sec
     gradient                   ...        0 min,  0.291 sec
 * total energy  :  -399.6677981 Eh     change       -0.2010797E-04 Eh
   gradient norm :     0.0016276 Eh/α   predicted    -0.1505460E-04 ( -25.13%)
   displ. norm   :     0.2625455 α      lambda       -0.3768678E-04
   maximum displ.:     0.1233572 α      in ANC's #2, #12, #7, ...

........................................................................
.............................. CYCLE   58 ..............................
........................................................................

 iter      E             dE          RMSdq      gap      omega  full diag
   1   -404.5827728 -0.404583E+03  0.158E-02    0.75       0.0  T
   2   -404.5828199 -0.471157E-04  0.109E-02    0.75       1.0  T
   3   -404.5829203 -0.100425E-03  0.971E-03    0.75       1.0  T
   4   -404.5825338  0.386563E-03  0.162E-02    0.76       1.0  T
   5   -404.5828332 -0.299440E-03  0.324E-03    0.75       2.0  T
   6   -404.5828970 -0.637771E-04  0.285E-03    0.75       2.3  T
   7   -404.5828639  0.330636E-04  0.771E-04    0.75       8.4  T
   8   -404.5828679 -0.394500E-05  0.378E-04    0.75      17.0  T
   9   -404.5828641  0.377197E-05  0.228E-04    0.75      28.2  T
  10   -404.5828676 -0.345311E-05  0.133E-04    0.75      48.5  T
  11   -404.5828688 -0.126505E-05  0.147E-04    0.75      43.9  T
  12   -404.5828689 -0.980571E-07  0.514E-05    0.75     125.3  T
  13   -404.5828698 -0.915735E-06  0.398E-05    0.75     161.8  T
     SCC iter.                  ...        0 min,  1.176 sec
     gradient                   ...        0 min,  0.282 sec
 * total energy  :  -399.6678365 Eh     change       -0.3846307E-04 Eh
   gradient norm :     0.0019895 Eh/α   predicted    -0.1942595E-04 ( -49.49%)
   displ. norm   :     0.3639064 α      lambda       -0.3090509E-04
   maximum displ.:     0.1718182 α      in ANC's #2, #12, #7, ...

........................................................................
.............................. CYCLE   59 ..............................
........................................................................

 iter      E             dE          RMSdq      gap      omega  full diag
   1   -404.5821450 -0.404582E+03  0.198E-02    0.75       0.0  T
   2   -404.5822704 -0.125369E-03  0.139E-02    0.75       1.0  T
   3   -404.5820311  0.239297E-03  0.144E-02    0.76       1.0  T
   4   -404.5823407 -0.309586E-03  0.234E-02    0.75       1.0  T
   5   -404.5823144  0.262965E-04  0.730E-03    0.75       1.0  T
   6   -404.5821825  0.131899E-03  0.332E-03    0.76       1.9  T
   7   -404.5822372 -0.546413E-04  0.655E-04    0.75       9.8  T
   8   -404.5822312  0.598202E-05  0.464E-04    0.75      13.9  T
   9   -404.5822362 -0.500221E-05  0.275E-04    0.75      23.4  T
  10   -404.5822361  0.527980E-07  0.153E-04    0.75      42.1  T
  11   -404.5822366 -0.443529E-06  0.111E-04    0.75      57.9  T
     SCC iter.                  ...        0 min,  1.051 sec
     gradient                   ...        0 min,  0.293 sec
 * total energy  :  -399.6678721 Eh     change       -0.3559872E-04 Eh
   gradient norm :     0.0018940 Eh/α   predicted    -0.1636520E-04 ( -54.03%)
   displ. norm   :     0.5163967 α      lambda       -0.3939428E-04
   maximum displ.:     0.2410492 α      in ANC's #2, #12, #7, ...

........................................................................
.............................. CYCLE   60 ..............................
........................................................................

 iter      E             dE          RMSdq      gap      omega  full diag
   1   -404.5816237 -0.404582E+03  0.275E-02    0.75       0.0  T
   2   -404.5814086  0.215134E-03  0.218E-02    0.76       1.0  T
   3   -404.5817509 -0.342332E-03  0.204E-02    0.75       1.0  T
   4   -404.5806864  0.106445E-02  0.423E-02    0.77       1.0  T
   5   -404.5813593 -0.672877E-03  0.965E-03    0.76       1.0  T
   6   -404.5816242 -0.264847E-03  0.601E-03    0.75       1.1  T
   7   -404.5815748  0.493329E-04  0.997E-04    0.75       6.5  T
   8   -404.5815728  0.199345E-05  0.499E-04    0.75      12.9  T
   9   -404.5815736 -0.762901E-06  0.337E-04    0.75      19.1  T
  10   -404.5815787 -0.512992E-05  0.185E-04    0.75      34.9  T
  11   -404.5815767  0.203410E-05  0.200E-04    0.75      32.3  T
  12   -404.5815788 -0.212769E-05  0.837E-05    0.75      77.0  T
  13   -404.5815794 -0.546474E-06  0.550E-05    0.75     117.1  T
     SCC iter.                  ...        0 min,  1.230 sec
     gradient                   ...        0 min,  0.287 sec
 * total energy  :  -399.6679092 Eh     change       -0.3707762E-04 Eh
   gradient norm :     0.0020608 Eh/α   predicted    -0.2203489E-04 ( -40.57%)
   displ. norm   :     0.1866563 α      lambda       -0.2308535E-04
   maximum displ.:     0.0871330 α      in ANC's #2, #12, #7, ...

........................................................................
.............................. CYCLE   61 ..............................
........................................................................

 iter      E             dE          RMSdq      gap      omega  full diag
   1   -404.5817018 -0.404582E+03  0.103E-02    0.75       0.0  T
   2   -404.5817160 -0.142496E-04  0.817E-03    0.75       1.0  T
   3   -404.5816330  0.829966E-04  0.702E-03    0.75       1.0  T
   4   -404.5817335 -0.100486E-03  0.137E-02    0.75       1.0  T
   5   -404.5817699 -0.363759E-04  0.474E-03    0.75       1.4  T
   6   -404.5816513  0.118573E-03  0.242E-03    0.75       2.7  T
   7   -404.5816967 -0.453429E-04  0.342E-04    0.75      18.8  T
   8   -404.5816905  0.621763E-05  0.244E-04    0.75      26.4  T
   9   -404.5816935 -0.304823E-05  0.167E-04    0.75      38.6  T
  10   -404.5816925  0.101452E-05  0.111E-04    0.75      58.0  T
  11   -404.5816911  0.136829E-05  0.759E-05    0.75      84.8  T
  12   -404.5816899  0.118788E-05  0.600E-05    0.75     107.4  T
  13   -404.5816901 -0.138935E-06  0.342E-05    0.75     188.5  T
  14   -404.5816889  0.121820E-05  0.245E-05    0.75     263.4  T
  15   -404.5816886  0.210849E-06  0.147E-05    0.75     438.4  T
     SCC iter.                  ...        0 min,  1.343 sec
     gradient                   ...        0 min,  0.299 sec
 * total energy  :  -399.6679273 Eh     change       -0.1813117E-04 Eh
   gradient norm :     0.0014604 Eh/α   predicted    -0.1194937E-04 ( -34.09%)
   displ. norm   :     0.4214472 α      lambda       -0.3519451E-04
   maximum displ.:     0.1908975 α      in ANC's #2, #12, #3, ...

........................................................................
.............................. CYCLE   62 ..............................
........................................................................

 iter      E             dE          RMSdq      gap      omega  full diag
   1   -404.5823584 -0.404582E+03  0.222E-02    0.75       0.0  T
   2   -404.5821962  0.162268E-03  0.187E-02    0.75       1.0  T
   3   -404.5822911 -0.949754E-04  0.156E-02    0.75       1.0  T
   4   -404.5818274  0.463725E-03  0.341E-02    0.76       1.0  T
   5   -404.5822286 -0.401233E-03  0.416E-03    0.75       1.5  T
   6   -404.5822783 -0.496375E-04  0.197E-03    0.75       3.3  T
   7   -404.5822001  0.781789E-04  0.196E-03    0.75       3.3  T
   8   -404.5822368 -0.366665E-04  0.450E-04    0.75      14.3  T
   9   -404.5822387 -0.189576E-05  0.330E-04    0.75      19.5  T
  10   -404.5822384  0.300064E-06  0.218E-04    0.75      29.5  T
  11   -404.5822355  0.284574E-05  0.184E-04    0.75      34.9  T
  12   -404.5822347  0.800918E-06  0.123E-04    0.75      52.4  T
     SCC iter.                  ...        0 min,  1.132 sec
     gradient                   ...        0 min,  0.292 sec
 * total energy  :  -399.6679620 Eh     change       -0.3468325E-04 Eh
   gradient norm :     0.0016513 Eh/α   predicted    -0.1898951E-04 ( -45.25%)
   displ. norm   :     0.2551249 α      lambda       -0.1583964E-04
   maximum displ.:     0.1179208 α      in ANC's #2, #12, #3, ...

........................................................................
.............................. CYCLE   63 ..............................
........................................................................

 iter      E             dE          RMSdq      gap      omega  full diag
   1   -404.5813732 -0.404581E+03  0.139E-02    0.75       0.0  T
   2   -404.5812415  0.131737E-03  0.118E-02    0.75       1.0  T
   3   -404.5814213 -0.179768E-03  0.815E-03    0.75       1.0  T
   4   -404.5809082  0.513072E-03  0.172E-02    0.76       1.0  T
   5   -404.5812699 -0.361686E-03  0.424E-03    0.75       1.5  T
   6   -404.5813152 -0.452799E-04  0.365E-03    0.75       1.8  T
   7   -404.5813036  0.115660E-04  0.422E-04    0.75      15.3  T
   8   -404.5813023  0.126871E-05  0.278E-04    0.75      23.2  T
   9   -404.5813016  0.775554E-06  0.154E-04    0.75      41.8  T
  10   -404.5813034 -0.182395E-05  0.114E-04    0.75      56.5  T
  11   -404.5813014  0.197513E-05  0.105E-04    0.75      61.3  T
  12   -404.5813013  0.967953E-07  0.591E-05    0.75     108.9  T
     SCC iter.                  ...        0 min,  1.114 sec
     gradient                   ...        0 min,  0.291 sec
 * total energy  :  -399.6679770 Eh     change       -0.1493370E-04 Eh
   gradient norm :     0.0016614 Eh/α   predicted    -0.8149636E-05 ( -45.43%)
   displ. norm   :     0.4216702 α      lambda       -0.3826442E-04
   maximum displ.:     0.1820613 α      in ANC's #12, #2, #3, ...

........................................................................
.............................. CYCLE   64 ..............................
........................................................................

 iter      E             dE          RMSdq      gap      omega  full diag
   1   -404.5829755 -0.404583E+03  0.215E-02    0.75       0.0  T
   2   -404.5828392  0.136334E-03  0.182E-02    0.75       1.0  T
   3   -404.5829834 -0.144219E-03  0.109E-02    0.75       1.0  T
   4   -404.5824678  0.515590E-03  0.219E-02    0.76       1.0  T
   5   -404.5828924 -0.424565E-03  0.661E-03    0.75       1.0  T
   6   -404.5829511 -0.587037E-04  0.513E-03    0.75       1.3  T
   7   -404.5828800  0.711102E-04  0.790E-04    0.75       8.1  T
   8   -404.5828849 -0.487782E-05  0.506E-04    0.75      12.7  T
   9   -404.5828852 -0.375370E-06  0.275E-04    0.75      23.4  T
  10   -404.5828855 -0.294225E-06  0.214E-04    0.75      30.1  T
     SCC iter.                  ...        0 min,  0.954 sec
     gradient                   ...        0 min,  0.288 sec
 * total energy  :  -399.6680151 Eh     change       -0.3815932E-04 Eh
   gradient norm :     0.0020039 Eh/α   predicted    -0.2064561E-04 ( -45.90%)
   displ. norm   :     0.2916160 α      lambda       -0.3143544E-04
   maximum displ.:     0.1282978 α      in ANC's #2, #12, #3, ...

........................................................................
.............................. CYCLE   65 ..............................
........................................................................

 iter      E             dE          RMSdq      gap      omega  full diag
   1   -404.5817019 -0.404582E+03  0.158E-02    0.75       0.0  T
   2   -404.5816929  0.897283E-05  0.124E-02    0.75       1.0  T
   3   -404.5816584  0.345142E-04  0.101E-02    0.75       1.0  T
   4   -404.5816254  0.330601E-04  0.231E-02    0.75       1.0  T
   5   -404.5817527 -0.127381E-03  0.386E-03    0.75       1.7  T
   6   -404.5816274  0.125321E-03  0.320E-03    0.75       2.0  T
   7   -404.5816987 -0.712985E-04  0.465E-04    0.75      13.9  T
   8   -404.5816934  0.535816E-05  0.328E-04    0.75      19.6  T
   9   -404.5816967 -0.336719E-05  0.161E-04    0.75      40.0  T
  10   -404.5816978 -0.110714E-05  0.123E-04    0.75      52.3  T
  11   -404.5816984 -0.542960E-06  0.889E-05    0.75      72.4  T
  12   -404.5816994 -0.103628E-05  0.566E-05    0.75     113.9  T
  13   -404.5816996 -0.209009E-06  0.482E-05    0.75     133.7  T
     SCC iter.                  ...        0 min,  1.183 sec
     gradient                   ...        0 min,  0.289 sec
 * total energy  :  -399.6680318 Eh     change       -0.1670422E-04 Eh
   gradient norm :     0.0019220 Eh/α   predicted    -0.1705460E-04 (   2.10%)
   displ. norm   :     0.3784187 α      lambda       -0.2844250E-04
   maximum displ.:     0.1653032 α      in ANC's #12, #2, #3, ...

........................................................................
.............................. CYCLE   66 ..............................
........................................................................

 iter      E             dE          RMSdq      gap      omega  full diag
   1   -404.5804658 -0.404580E+03  0.207E-02    0.75       0.0  T
   2   -404.5804780 -0.121220E-04  0.167E-02    0.75       1.0  T
   3   -404.5803676  0.110335E-03  0.151E-02    0.75       1.0  T
   4   -404.5803057  0.619118E-04  0.322E-02    0.75       1.0  T
   5   -404.5805889 -0.283211E-03  0.663E-03    0.75       1.0  T
   6   -404.5803879  0.201019E-03  0.420E-03    0.75       1.5  T
   7   -404.5804735 -0.855504E-04  0.633E-04    0.75      10.2  T
   8   -404.5804682  0.527078E-05  0.451E-04    0.75      14.3  T
   9   -404.5804728 -0.461262E-05  0.191E-04    0.75      33.7  T
  10   -404.5804734 -0.609789E-06  0.142E-04    0.75      45.4  T
  11   -404.5804743 -0.944857E-06  0.991E-05    0.75      65.0  T
     SCC iter.                  ...        0 min,  1.046 sec
     gradient                   ...        0 min,  0.297 sec
 * total energy  :  -399.6680556 Eh     change       -0.2376648E-04 Eh
   gradient norm :     0.0017785 Eh/α   predicted    -0.1513034E-04 ( -36.34%)
   displ. norm   :     0.1899890 α      lambda       -0.2164864E-04
   maximum displ.:     0.0842585 α      in ANC's #12, #2, #3, ...
 * RMSD in coord.:     0.2865925 α      energy gain  -0.6411121E-03 Eh

generating ANC from exact Hessian ...
Using Lindh-Hessian (1995)
 Shifting diagonal of input Hessian by    1.1655792371767689E-002
 Lowest  eigenvalues of input Hessian
    0.010000    0.011586    0.011606    0.000000    0.000000    0.000000
    0.000000    0.000000    0.000000    0.011694    0.011702    0.011705
    0.011746    0.011761    0.011768    0.011783    0.011809    0.011833
 Highest eigenvalues
    2.389264    2.598255    2.598697    2.734695    3.191676    3.235037


........................................................................
.............................. CYCLE   67 ..............................
........................................................................

 iter      E             dE          RMSdq      gap      omega  full diag
   1   -404.5808130 -0.404581E+03  0.122E-02    0.75       0.0  T
   2   -404.5808361 -0.230762E-04  0.974E-03    0.75       1.0  T
   3   -404.5807464  0.896968E-04  0.123E-02    0.75       1.0  T
   4   -404.5807664 -0.200277E-04  0.169E-02    0.75       1.0  T
   5   -404.5809352 -0.168760E-03  0.496E-03    0.75       1.3  T
   6   -404.5807879  0.147257E-03  0.282E-03    0.75       2.3  T
   7   -404.5808424 -0.544826E-04  0.538E-04    0.75      12.0  T
   8   -404.5808433 -0.883016E-06  0.390E-04    0.75      16.5  T
   9   -404.5808487 -0.539362E-05  0.247E-04    0.75      26.1  T
  10   -404.5808506 -0.192194E-05  0.193E-04    0.75      33.4  T
  11   -404.5808556 -0.493892E-05  0.118E-04    0.75      54.7  T
  12   -404.5808566 -0.103448E-05  0.777E-05    0.75      82.9  T
  13   -404.5808584 -0.185142E-05  0.668E-05    0.75      96.5  T
  14   -404.5808582  0.255420E-06  0.401E-05    0.75     160.7  T
     SCC iter.                  ...        0 min,  1.348 sec
     gradient                   ...        0 min,  0.294 sec
 * total energy  :  -399.6680801 Eh     change       -0.2452113E-04 Eh
   gradient norm :     0.0013116 Eh/α   predicted     0.0000000E+00 (-100.00%)
   displ. norm   :     0.0289890 α      lambda       -0.9808085E-05
   maximum displ.:     0.0055368 α      in ANC's #12, #35, #61, ...

........................................................................
.............................. CYCLE   68 ..............................
........................................................................

 iter      E             dE          RMSdq      gap      omega  full diag
   1   -404.5816007 -0.404582E+03  0.522E-03    0.75       0.0  T
   2   -404.5815645  0.361758E-04  0.371E-03    0.75       1.7  T
   3   -404.5815735 -0.899613E-05  0.323E-03    0.75       2.0  T
   4   -404.5816011 -0.276353E-04  0.242E-03    0.75       2.7  T
   5   -404.5815450  0.561731E-04  0.236E-03    0.75       2.7  T
   6   -404.5815555 -0.104841E-04  0.869E-04    0.75       7.4  T
   7   -404.5815741 -0.186168E-04  0.455E-04    0.75      14.2  T
   8   -404.5815652  0.882221E-05  0.162E-04    0.75      39.9  T
   9   -404.5815655 -0.294372E-06  0.108E-04    0.75      59.4  T
  10   -404.5815657 -0.116910E-06  0.795E-05    0.75      81.1  T
     SCC iter.                  ...        0 min,  0.934 sec
     gradient                   ...        0 min,  0.291 sec
 * total energy  :  -399.6680930 Eh     change       -0.1288178E-04 Eh
   gradient norm :     0.0010192 Eh/α   predicted    -0.4993719E-05 ( -61.23%)
   displ. norm   :     0.0681012 α      lambda       -0.1553771E-04
   maximum displ.:     0.0158157 α      in ANC's #12, #10, #98, ...

........................................................................
.............................. CYCLE   69 ..............................
........................................................................

 iter      E             dE          RMSdq      gap      omega  full diag
   1   -404.5826099 -0.404583E+03  0.712E-03    0.75       0.0  T
   2   -404.5827110 -0.101046E-03  0.516E-03    0.75       1.2  T
   3   -404.5824262  0.284836E-03  0.926E-03    0.76       1.0  T
   4   -404.5826762 -0.249998E-03  0.423E-03    0.75       1.5  T
   5   -404.5826559  0.202667E-04  0.310E-03    0.75       2.1  T
   6   -404.5826285  0.274174E-04  0.169E-03    0.75       3.8  T
   7   -404.5826429 -0.143844E-04  0.453E-04    0.75      14.2  T
   8   -404.5826407  0.220551E-05  0.272E-04    0.75      23.7  T
   9   -404.5826407 -0.439028E-07  0.187E-04    0.75      34.5  T
  10   -404.5826413 -0.621684E-06  0.149E-04    0.75      43.3  T
     SCC iter.                  ...        0 min,  0.959 sec
     gradient                   ...        0 min,  0.292 sec
 * total energy  :  -399.6681068 Eh     change       -0.1376747E-04 Eh
   gradient norm :     0.0015662 Eh/α   predicted    -0.7786064E-05 ( -43.45%)
   displ. norm   :     0.0482018 α      lambda       -0.9461163E-05
   maximum displ.:     0.0134239 α      in ANC's #12, #10, #13, ...

........................................................................
.............................. CYCLE   70 ..............................
........................................................................

 iter      E             dE          RMSdq      gap      omega  full diag
   1   -404.5823074 -0.404582E+03  0.573E-03    0.75       0.0  T
   2   -404.5822487  0.586774E-04  0.516E-03    0.75       1.2  T
   3   -404.5823715 -0.122734E-03  0.586E-03    0.75       1.1  T
   4   -404.5822323  0.139130E-03  0.524E-03    0.75       1.2  T
   5   -404.5822421 -0.981265E-05  0.452E-03    0.75       1.4  T
   6   -404.5823123 -0.701776E-04  0.930E-04    0.75       6.9  T
   7   -404.5822983  0.140556E-04  0.290E-04    0.75      22.2  T
   8   -404.5823015 -0.326391E-05  0.189E-04    0.75      34.0  T
   9   -404.5823020 -0.488267E-06  0.146E-04    0.75      44.1  T
  10   -404.5823037 -0.166209E-05  0.959E-05    0.75      67.1  T
  11   -404.5823051 -0.139576E-05  0.545E-05    0.75     118.3  T
  12   -404.5823049  0.214621E-06  0.454E-05    0.75     142.0  T
     SCC iter.                  ...        0 min,  1.107 sec
     gradient                   ...        0 min,  0.290 sec
 * total energy  :  -399.6681075 Eh     change       -0.7005971E-06 Eh
   gradient norm :     0.0012984 Eh/α   predicted    -0.4742528E-05 ( 576.93%)
   displ. norm   :     0.0715701 α      lambda       -0.1135235E-04
   maximum displ.:     0.0224498 α      in ANC's #12, #26, #1, ...

........................................................................
.............................. CYCLE   71 ..............................
........................................................................

 iter      E             dE          RMSdq      gap      omega  full diag
   1   -404.5813173 -0.404581E+03  0.109E-02    0.75       0.0  T
   2   -404.5814195 -0.102239E-03  0.126E-02    0.75       1.0  T
   3   -404.5813385  0.810483E-04  0.115E-02    0.75       1.0  T
   4   -404.5813477 -0.922370E-05  0.685E-03    0.75       1.0  T
   5   -404.5814881 -0.140363E-03  0.539E-03    0.75       1.2  T
   6   -404.5813545  0.133601E-03  0.298E-03    0.75       2.2  T
   7   -404.5814048 -0.502943E-04  0.659E-04    0.75       9.8  T
   8   -404.5814041  0.700247E-06  0.491E-04    0.75      13.1  T
   9   -404.5814110 -0.690783E-05  0.332E-04    0.75      19.4  T
  10   -404.5814118 -0.813756E-06  0.181E-04    0.75      35.6  T
     SCC iter.                  ...        0 min,  0.986 sec
     gradient                   ...        0 min,  0.294 sec
 * total energy  :  -399.6681137 Eh     change       -0.6276617E-05 Eh
   gradient norm :     0.0014010 Eh/α   predicted    -0.5690375E-05 (  -9.34%)
   displ. norm   :     0.0485577 α      lambda       -0.1195160E-04
   maximum displ.:     0.0173363 α      in ANC's #1, #12, #26, ...

........................................................................
.............................. CYCLE   72 ..............................
........................................................................

 iter      E             dE          RMSdq      gap      omega  full diag
   1   -404.5810048 -0.404581E+03  0.774E-03    0.75       0.0  T
   2   -404.5811565 -0.151610E-03  0.847E-03    0.75       1.0  T
   3   -404.5809469  0.209517E-03  0.846E-03    0.76       1.0  T
   4   -404.5810948 -0.147899E-03  0.459E-03    0.75       1.4  T
   5   -404.5811194 -0.245129E-04  0.490E-03    0.75       1.3  T
   6   -404.5810298  0.895640E-04  0.176E-03    0.75       3.7  T
   7   -404.5810595 -0.296815E-04  0.457E-04    0.75      14.1  T
   8   -404.5810575  0.198184E-05  0.303E-04    0.75      21.3  T
   9   -404.5810541  0.334191E-05  0.213E-04    0.75      30.3  T
  10   -404.5810513  0.281634E-05  0.139E-04    0.75      46.3  T
  11   -404.5810510  0.294343E-06  0.932E-05    0.75      69.1  T
  12   -404.5810506  0.427942E-06  0.722E-05    0.75      89.2  T
     SCC iter.                  ...        0 min,  1.136 sec
     gradient                   ...        0 min,  0.296 sec
 * total energy  :  -399.6681217 Eh     change       -0.7947667E-05 Eh
   gradient norm :     0.0012748 Eh/α   predicted    -0.5983845E-05 ( -24.71%)
   displ. norm   :     0.0451782 α      lambda       -0.9240653E-05
   maximum displ.:     0.0163012 α      in ANC's #12, #10, #3, ...

........................................................................
.............................. CYCLE   73 ..............................
........................................................................

 iter      E             dE          RMSdq      gap      omega  full diag
   1   -404.5818112 -0.404582E+03  0.677E-03    0.75       0.0  T
   2   -404.5817230  0.882633E-04  0.662E-03    0.75       1.0  T
   3   -404.5818098 -0.867975E-04  0.297E-03    0.75       2.2  T
   4   -404.5816338  0.175984E-03  0.632E-03    0.76       1.0  T
   5   -404.5817589 -0.125092E-03  0.204E-03    0.75       3.2  T
   6   -404.5817739 -0.149864E-04  0.268E-03    0.75       2.4  T
   7   -404.5817622  0.116232E-04  0.432E-04    0.75      14.9  T
   8   -404.5817668 -0.454754E-05  0.342E-04    0.75      18.9  T
   9   -404.5817660  0.828047E-06  0.174E-04    0.75      37.0  T
  10   -404.5817672 -0.124995E-05  0.142E-04    0.75      45.4  T
  11   -404.5817688 -0.156664E-05  0.958E-05    0.75      67.2  T
  12   -404.5817708 -0.199099E-05  0.647E-05    0.75      99.6  T
  13   -404.5817709 -0.144384E-06  0.322E-05    0.75     199.9  T
     SCC iter.                  ...        0 min,  1.247 sec
     gradient                   ...        0 min,  0.296 sec
 * total energy  :  -399.6681240 Eh     change       -0.2350749E-05 Eh
   gradient norm :     0.0009866 Eh/α   predicted    -0.4627773E-05 (  96.86%)
   displ. norm   :     0.0531833 α      lambda       -0.6165468E-05
   maximum displ.:     0.0221800 α      in ANC's #12, #3, #10, ...

   *** GEOMETRY OPTIMIZATION CONVERGED AFTER 73 ITERATIONS ***

------------------------------------------------------------------------
 total energy gain   :        -0.0522950 Eh      -32.8156 kcal/mol
 total RMSD          :         0.7879658 a0        0.4170 Å
 total power (kW/mol):        -1.8808270 (step)   -1.1945 (real)
------------------------------------------------------------------------

 ANCopt (total)                0 d,  0 h,  1 min, 54.947 sec
 optimizer setup                ...        0 min,  0.000 sec (  0.000%)
 model hessian                  ...        0 min,  0.581 sec (  0.505%)
 ANC generation                 ...        0 min,  0.146 sec (  0.127%)
 coordinate transformation      ...        0 min,  0.013 sec (  0.011%)
 single point calculation       ...        1 min, 54.116 sec ( 99.277%)
 optimization log               ...        0 min,  0.024 sec (  0.021%)
 hessian update                 ...        0 min,  0.008 sec (  0.007%)
 rational function              ...        0 min,  0.050 sec (  0.044%)

================
 final structure:
================
241
 xtb: 6.7.1 (edcfbbe)
Ru           0.16245356824488        1.00323983682946       -1.55755350630717
N           -3.15635425494480       -1.14774324859819        3.17146561673502
N           -4.77588776152680       -2.24226824584930        2.05637083535139
N            1.41132197784176       -4.38355666919814       -0.50822555756583
N            2.61765843144303       -4.18002072908662        1.43118689399179
N           -7.67480203504849       -1.05946287509755        0.39238168168858
N            5.97649971483779       -2.96874648848265        1.53018226934139
C           -0.51521410413894        1.57412196967177        4.92421939287158
C           -0.15760571842781        0.25212076302574        4.68119947462673
C           -1.06844831678346       -0.62381290189782        4.11699037951456
C           -2.36195367025294       -0.20754461510114        3.78060477210889
C           -2.73369270282422        1.11162498709198        4.05060311233079
C           -1.80864618362732        1.97414758940438        4.61959228060045
C            1.22400822704942       -0.23718452071756        4.94507394631833
C           -4.46168578801661       -1.16332877596621        2.77301737694125
C           -6.08964435696296       -2.54704716026247        1.54619881507838
C           -6.11816072387090       -4.02131765242697        1.05502025270688
C           -7.48964777178119       -4.33767580321559        0.45301758753409
C           -5.88116428143289       -4.93902576231969        2.25925562542821
C           -5.03747290884055       -4.27722349743259       -0.00202120284584
C           -2.22569435362274       -4.79464772490700       -3.65490738215379
C           -0.75153482873804       -4.61870445091221       -3.42943748100281
C            1.95813344217628       -4.40276539734509       -2.91484717149075
C            1.48083201300142       -4.46033598375278       -4.21487579833459
C            0.12890399759422       -4.57653003733376       -4.50313301571802
C            2.62705796037569       -4.37246053814830        0.10784092161999
C            3.85196287106618       -4.04421174609509        2.18194926217962
C            3.57685009666844       -3.88596662107021        3.70618639156304
C            4.90619537824551       -3.77526181485768        4.45647361645655
C            2.82973935252397       -5.13393370633435        4.19064624860798
C            2.72855650573883       -2.62480054753637        3.93001005263328
C            2.44463326695755       -2.22518786189389        5.37875314402225
C            4.65397633102850       -2.84257713500456        1.64667665845851
C           -6.43683694972455       -1.55412377053185        0.42466490749860
C           -8.72163250697697       -1.18353505720676        1.39794548192719
C           -9.86625878648267       -0.32293725292931        0.86177073640036
C           -9.65608790471560       -0.37067239610958       -0.64732690233163
C           -8.12753748095805       -0.29966703700668       -0.76722269775402
C            6.76634404204382       -4.19193762653576        1.50904868891164
C            8.12892052858140       -3.73716068403216        0.99287244499131
C            8.23619133275823       -2.31818603184352        1.53746924984105
C            6.80858897820198       -1.78214894140133        1.35454499783918
C            2.47442436793823       -4.44202934192198       -5.34333193451410
C           -2.18241839222299        3.39728619325832        4.91433731850204
C           -7.65983366748721        1.13171518950407       -0.78331770604127
C           -7.61328784174693        1.80343783178735       -2.00529815703155
C           -7.32791981590952        1.81310823594455        0.38406966610944
C           -6.93453581447333        3.13495188141688        0.33386667327596
C           -6.86291106749688        3.78289891501052       -0.89657352488875
C            6.64424401919153       -1.09226592340557        0.02658924876644
C            7.04025470509237        0.24238346527049       -0.07045556894337
C            6.14559921793133       -1.74071533702050       -1.09824865967407
C            6.87789994030887        0.94074101510495       -1.24442170958064
C            5.95993980900448       -1.04922139177449       -2.27787963302185
C            6.29903184143994        0.30029301645608       -2.33885915964189
C           -7.21250070748137        3.11888595929477       -2.07182062679609
O            2.22287614571062        0.42239000188160        4.75253804168851
O            1.21346370993708       -1.48444383503061        5.38713880970472
O           -5.60517402037695       -1.25646821362851       -0.43472434122200
O            4.09246300105419       -1.76511801830753        1.42469625514657
F            1.97409661654479       -3.91744454444867       -6.47319022216543
F            2.89485529198215       -5.68274223642961       -5.66986522123610
F            3.58149073127728       -3.73990819585404       -5.06104794092175
F           -1.93310217537776        3.74073918437470        6.19214757875515
F           -3.47189909436673        3.68285815826351        4.69742252457459
F           -1.47806113545418        4.27543002836850        4.16501840660239
F           -2.62319800218128       -6.06616350460801       -3.43026784547519
F           -2.97942450286849       -4.03114675665109       -2.84625817381427
F           -2.61477436849473       -4.50610707001961       -4.90511424075539
S            4.07081008423827       -4.66814823917350       -0.66653462221467
S           -5.60269417670511       -0.01951418463259        3.16115790517367
H            0.19716977248010        2.26226226188587        5.35011271122702
H           -0.77278975135043       -1.64267299049988        3.90737817812937
H           -3.73168320731920        1.45185838153318        3.82429796701116
H           -2.67794319354743       -2.04148551138781        2.99674594176833
H           -4.03204117442401       -2.90820572806798        1.87839296538464
H           -6.80576738086031       -2.42662822469357        2.36576906967043
H           -7.50121199085785       -5.36601362809406        0.10155225117318
H           -8.27001661746521       -4.22881429601686        1.20027544104047
H           -7.70047631726489       -3.68736818832442       -0.39123194689771
H           -6.63400733136615       -4.77221455908111        3.02569940868330
H           -5.92958794662368       -5.97766491778087        1.94303343514435
H           -4.89891602041039       -4.76767483966646        2.69647535192396
H           -4.03603742085413       -4.30103018577756        0.42846262257351
H           -5.05204002933455       -3.50900453834684       -0.77118802159604
H           -0.22435044272332       -4.62699899706694       -5.52020964950914
H            1.73148090681065       -3.98192578090213        1.89299591464594
H            4.43542917915728       -4.95801857166453        2.02858538001591
H            4.71587778598968       -3.68431474597203        5.52151533737436
H            5.50414159330868       -4.66679329853664        4.29362339690533
H            5.46330209870466       -2.90090687599668        4.13279963413676
H            2.79972186368162       -5.15702038110577        5.27565678200606
H            1.80557583512823       -5.14435809796406        3.82497219693859
H            3.33154982984407       -6.03366565659864        3.84488150104674
H            1.74973644302952       -2.77852318461186        3.47266772889202
H            3.18886490703344       -1.77411052730634        3.42344996566316
H            3.24105359204410       -1.60679348511034        5.80004153744056
H            2.24345965759130       -3.08695421972838        6.01253937354045
H           -9.03794867704597       -2.22401888102849        1.48603736824787
H           -8.35870422918623       -0.83375385401033        2.36771415730210
H           -9.77571338056493        0.70116623153106        1.22100820375935
H          -10.83540293104764       -0.71296389675633        1.16094527044571
H            6.85734592571138       -4.60185490721043        2.51677357664756
H            6.30172841237765       -4.92894870327164        0.85163420929842
H            8.13420244923594       -3.72340490728631       -0.09617961571582
H            8.93022043914632       -4.38253993143499        1.34189719449254
H           -5.20538437618634       -5.24047829369617       -0.47648160372049
H          -10.14340401471097        0.44831479144479       -1.16882517785102
H          -10.01123987171741       -1.31754181409275       -1.05159436710545
H           -7.88489125731458        1.27928263123074       -2.90791866608028
H           -7.34552079812144        1.30720467919399        1.33671143715540
H           -6.67446404801475        3.67203253606631        1.23285786048006
H            8.48942768525977       -2.33675517653613        2.59640956707625
H            8.96391872294789       -1.71270087147996        1.00453215373737
H            7.45784246569257        0.73460609774206        0.79320025855244
H            5.86736094224489       -2.78165717819077       -1.04693185795864
H            7.15955183024886        1.97780195460540       -1.33528002730270
H            5.55394304198327       -1.53530611751714       -3.15129764288927
H           -7.15958660449524        3.64753742680205       -3.01054991277741
Ru          -1.60375661738317        3.13499491195415       -1.27587940356726
C            1.76155510539148        2.04470521613837       -1.51558490832962
S           -0.63661205994165        1.92097647054157        0.48290252330885
S           -0.73121295037365        2.29785922723809       -3.30753010743870
Cl           0.12921454197437        4.84504383313022       -1.10143383202511
C            1.37588882568491       -0.89162526367751       -1.62219680990150
C            0.61605387022839       -0.70776106861594       -2.82865919079018
C           -0.79407510169269       -0.86839510742072       -2.49925693173770
C           -0.89603558733571       -1.00846625336527       -1.10883647147298
C            0.44515132950043       -0.98483977832546       -0.55141277760193
C            2.85937444157406       -1.06604348309020       -1.57869964493355
H            3.11301650460046       -2.02783847325717       -2.02338375700349
H            3.24482142203359       -1.04197809088668       -0.56175702854127
H            3.35511582331945       -0.28710721978413       -2.15353564614629
C            1.16555588512877       -0.72660606738603       -4.21951059464022
H            0.53306467244398       -0.14767392176019       -4.88859105000393
H            1.19768242914887       -1.75461960222526       -4.57979412077495
H            2.17684573729798       -0.32473174051054       -4.24480810715306
C           -1.84458522201006       -1.02942947833113       -3.54330050143685
H           -2.81923952059219       -1.20172475103531       -3.09763262618547
H           -1.58486172937121       -1.88285078310970       -4.16890433993483
H           -1.88408919561123       -0.15156581655826       -4.18718775072874
C           -2.08842394830075       -1.38540437188503       -0.29297652594986
H           -2.15690480892639       -0.76933035143753        0.60266556465807
H           -1.97803756915695       -2.42228894251746        0.03572544465679
H           -3.01758070246574       -1.29987721652640       -0.84932504826703
C            0.75461136742701       -1.25086948213443        0.88599603306094
C           -3.20918082235771        4.76436908314230       -1.24404850415622
C           -3.27490371485117        3.96070786243178       -0.06165227911163
C           -3.62588091269973        2.61441500448208       -0.45183982384143
C           -3.69466271828786        2.57361594691918       -1.87246564485211
C           -3.41051457706034        3.90753804140511       -2.36747863013590
C           -3.10055986670730        6.25186211282466       -1.25905276231705
H           -3.16876098187573        6.63731815612283       -2.27147369505844
H           -3.90913994647201        6.67062833678789       -0.65857892529780
H           -2.15990973090851        6.58309831403573       -0.81869511187720
C           -3.30865084760887        4.51026401549726        1.32653430646063
H           -3.29255999792473        3.71202093275932        2.06301416279441
H           -4.22322454391136        5.09355909804073        1.45436492564536
H           -2.46501447721530        5.17682045455239        1.50762599072428
C           -3.99950817012909        1.54494137902749        0.51498132123511
H           -4.41974613568358        0.67707506061975        0.01266561375388
H           -4.73528819737964        1.92788209661561        1.21988465968374
H           -3.13220949232015        1.22441230898492        1.09556245160767
C           -4.20673406864070        1.47220544369394       -2.73368681347918
H           -3.49719249413745        1.24843154975507       -3.52676346544775
H           -4.39603258979360        0.57403824119175       -2.15188964992610
H           -5.13867471432549        1.79395408536790       -3.19502448495584
C           -3.59660346183076        4.36077055262867       -3.77831910320835
H           -2.84158202297969        5.09555112625447       -4.05117293725802
H           -4.57640094523197        4.83539902586908       -3.85989348183171
H           -3.54152594918401        3.52092782288137       -4.46357130601335
C            0.54515890949035        2.80539427255999        1.53386066580846
H           -0.03021081424916        3.45287553552185        2.19039692512348
H            1.22772759229264        3.39191278107188        0.92546073325652
H            1.08809748862218        2.06685348880671        2.11799041703441
C            0.49226408904937        3.33550461493106       -4.15062427547197
H            0.87203990749266        4.09087949483104       -3.46795631464031
H           -0.01416181693447        3.79575017886950       -4.99338052073828
H            1.29643239822445        2.69037326271363       -4.49112334517991
S           -1.14937358495324       -4.42868268873827        2.21904539055082
O            0.03164495501812       -3.72056613207623        2.73154686021061
O           -1.06124793574610       -4.58909726725763        0.76122799989686
O           -2.39364918895162       -3.74171484327466        2.59729032691634
C           -1.14346471602805       -6.01898817390878        2.94722846168957
C            2.88108026524657        2.49528454240038       -1.24256890802929
C            4.07133112475962        3.02219220064122       -0.87128101084424
C            4.67498362163939        2.72805785635071        0.37916087298283
H            4.57874938131474        3.71174112983412       -1.53417134509213
C            5.86708940084822        3.40199629167861        0.77310097200076
C            4.10173405806793        1.79319516387755        1.26119105913909
C            4.65481409033278        1.54251430656211        2.49147794581442
C            5.81008092939574        2.22001025993111        2.87323586729204
C            6.41215460549207        3.13167271605965        2.02754352225872
H            1.82806875745103       -1.31297174537284        1.05765330843573
H            0.28980045190010       -2.18687836421722        1.19816010508888
H            0.34915355224480       -0.47399301053402        1.53719034427818
H            7.30600010824233        3.63673601115442        2.35326651986374
H            3.21293416437310        1.27076066161761        0.93962634760929
H            3.01998637277733       -4.33546109034495       -2.74391453313079
O            6.38640978534332        4.26046987648236       -0.11329796892485
C            7.57852965165411        4.96895866017494        0.20364960609051
H            8.38267619300727        4.25546773587574        0.43407979380633
H            7.41144653453913        5.60370215803604        1.08358543422148
H            0.58528751314466       -4.37413005116945        0.10701894546721
N            6.01130706617789        1.04974155596760       -3.50853532408723
N           -6.41600056347291        5.12656407330600       -0.96129580882138
O           -6.31019068713676        5.65547004570467       -2.05652046369064
O            6.47446367263992        2.17616390832309       -3.61150774487758
O           -6.14593555094261        5.70772668713926        0.08196766938535
O            5.28614083936708        0.55114987306577       -4.35626160519353
H            4.18523203132164        0.83837000748823        3.16096318834698
C            1.06613739078318       -4.44702869928312       -1.84100140658280
C           -0.30098731055064       -4.55314828325831       -2.12580032973319
H           -1.00341962697832       -4.59283411641338       -1.30807296018662
C            7.94835422068518        5.79994124793085       -0.98792002322385
H            7.41851784371362        5.54676199234912       -1.89428585752378
C            8.85783296904431        6.76693779379736       -0.96703917575721
C            9.61023809767126        7.12245302616972        0.28305167787062
H           10.32908069447035        7.91208983860323        0.08743562308488
H            8.92375636216812        7.46361033452227        1.05700224969301
H           10.14076369942970        6.25474963625785        0.67073257180747
C            9.19422232415603        7.56211164858886       -2.18886518461419
H           10.24958568051069        7.44562473869739       -2.43139151521921
H            8.60064987784043        7.24430991193179       -3.04143554250346
H            9.01023278481124        8.61988497651443       -2.00602110030252
H            6.53780675072395       -1.05569493464131        2.12962496805923
H           -7.75564660342781       -0.79337292556752       -1.67063648382497
H            6.24391855061801        2.03012126151824        3.84250590963270
C           -2.05230035174018       -6.33634288198999        3.92775499953961
C           -1.99373203141367       -7.58948385871161        4.51429828529581
C           -1.02410020472982       -8.50848621194709        4.12342520431613
C           -0.11214661938008       -8.15226738728700        3.13168863194099
C           -0.17000908190370       -6.90306952047311        2.54035893452639
H           -2.78958996624825       -5.60118837338614        4.20987080384217
H           -2.70508134244556       -7.85457518201808        5.28104264064104
H            0.64365236165417       -8.85765690740610        2.82319759626572
H            0.51638957467326       -6.60238178653388        1.76448305090088
C           -0.94447739340701       -9.85341630148240        4.77256928218325
H           -1.90342033952838      -10.13639111225207        5.19627272296801
H           -0.62995610359276      -10.60786873452857        4.05696460043680
H           -0.21115833579549       -9.82729035031416        5.57771752700784

 Bond Distances (Angstroems)
 ---------------------------
Ru1-Ru120=2.7827     Ru1-C121=1.9088      Ru1-S122=2.3758      Ru1-S123=2.3531      Ru1-C125=2.2510      Ru1-C126=2.1792      
Ru1-C127=2.3032      Ru1-C128=2.3170      Ru1-C129=2.2460      N2-C11=1.3734        N2-C15=1.3649        N2-H75=1.0287        
N3-C15=1.3328        N3-C16=1.4419        N3-H76=1.0141        N4-C26=1.3630        N4-H204=1.0300       N4-C212=1.3782       
N5-C26=1.3373        N5-C27=1.4511        N5-H87=1.0187        N6-C34=1.3335        N6-C35=1.4568        N6-C38=1.4584        
N7-C33=1.3336        N7-C39=1.4562        N7-C42=1.4599        C8-C9=1.3909         C8-C13=1.3877        C8-H72=1.0782        
C9-C8=1.3909         C9-C10=1.3839        C9-C14=1.4893        C10-C9=1.3839        C10-C11=1.3999       C10-H73=1.0814       
C11-N2=1.3734        C11-C10=1.3999       C11-C12=1.3969       C12-C11=1.3969       C12-C13=1.3869       C12-H74=1.0784       
C13-C8=1.3877        C13-C12=1.3869       C13-C44=1.5006       C14-C9=1.4893        C14-O57=1.2124       C14-O58=1.3233       
C15-N2=1.3649        C15-N3=1.3328        C15-S71=1.6616       C16-N3=1.4419        C16-C17=1.5542       C16-C34=1.5376       
C16-H77=1.0950       C17-C16=1.5542       C17-C18=1.5308       C17-C19=1.5325       C17-C20=1.5332       C18-C17=1.5308       
C18-H78=1.0868       C18-H79=1.0859       C18-H80=1.0863       C19-C17=1.5325       C19-H81=1.0872       C19-H82=1.0868       
C19-H83=1.0887       C20-C17=1.5332       C20-H84=1.0903       C20-H85=1.0872       C20-H107=1.0868      C21-C22=1.5016       
C21-F67=1.3510       C21-F68=1.3435       C21-F69=1.3408       C22-C21=1.5016       C22-C25=1.3892       C22-C213=1.3809      
C23-C24=1.3861       C23-H199=1.0776      C23-C212=1.3967      C24-C23=1.3861       C24-C25=1.3872       C24-C43=1.5037       
C25-C22=1.3892       C25-C24=1.3872       C25-H86=1.0779       C26-N4=1.3630        C26-N5=1.3373        C26-S70=1.6648       
C27-N5=1.4511        C27-C28=1.5569       C27-C33=1.5407       C27-H88=1.0950       C28-C27=1.5569       C28-C29=1.5305       
C28-C30=1.5331       C28-C31=1.5363       C29-C28=1.5305       C29-H89=1.0857       C29-H90=1.0858       C29-H91=1.0861       
C30-C28=1.5331       C30-H92=1.0857       C30-H93=1.0875       C30-H94=1.0867       C31-C28=1.5363       C31-C32=1.5294       
C31-H95=1.0913       C31-H96=1.0919       C32-C31=1.5294       C32-O58=1.4369       C32-H97=1.0928       C32-H98=1.0885       
C33-N7=1.3336        C33-C27=1.5407       C33-O60=1.2351       C34-N6=1.3335        C34-C16=1.5376       C34-O59=1.2324       
C35-N6=1.4568        C35-C36=1.5291       C35-H99=1.0911       C35-H100=1.0929      C36-C35=1.5291       C36-C37=1.5244       
C36-H101=1.0891      C36-H102=1.0867      C37-C36=1.5244       C37-C38=1.5349       C37-H108=1.0864      C37-H109=1.0891      
C38-N6=1.4584        C38-C37=1.5349       C38-C45=1.5059       C38-H227=1.0946      C39-N7=1.4562        C39-C40=1.5264       
C39-H103=1.0917      C39-H104=1.0914      C40-C39=1.5264       C40-C41=1.5237       C40-H105=1.0892      C40-H106=1.0865      
C41-C40=1.5237       C41-C42=1.5359       C41-H113=1.0890      C41-H114=1.0864      C42-N7=1.4599        C42-C41=1.5359       
C42-C50=1.5055       C42-H226=1.0963      C43-C24=1.5037       C43-F61=1.3424       C43-F62=1.3501       C43-F63=1.3410       
C44-C13=1.5006       C44-F64=1.3464       C44-F65=1.3384       C44-F66=1.3523       C45-C38=1.5059       C45-C46=1.3952       
C45-C47=1.3919       C46-C45=1.3952       C46-C56=1.3768       C46-H110=1.0785      C47-C45=1.3919       C47-C48=1.3801       
C47-H111=1.0788      C48-C47=1.3801       C48-C49=1.3925       C48-H112=1.0790      C49-C48=1.3925       C49-C56=1.3944       
C49-N206=1.4175      C50-C42=1.5055       C50-C51=1.3955       C50-C52=1.3908       C51-C50=1.3955       C51-C53=1.3756       
C51-H115=1.0782      C52-C50=1.3908       C52-C54=1.3799       C52-H116=1.0787      C53-C51=1.3756       C53-C55=1.3939       
C53-H117=1.0785      C54-C52=1.3799       C54-C55=1.3928       C54-H118=1.0789      C55-C53=1.3939       C55-C54=1.3928       
C55-N205=1.4187      C56-C46=1.3768       C56-C49=1.3944       C56-H119=1.0786      O57-C14=1.2124       O58-C14=1.3233       
O58-C32=1.4369       O59-C34=1.2324       O60-C33=1.2351       F61-C43=1.3424       F62-C43=1.3501       F63-C43=1.3410       
F64-C44=1.3464       F65-C44=1.3384       F66-C44=1.3523       F67-C21=1.3510       F68-C21=1.3435       F69-C21=1.3408       
S70-C26=1.6648       S71-C15=1.6616       H72-C8=1.0782        H73-C10=1.0814       H74-C12=1.0784       H75-N2=1.0287        
H76-N3=1.0141        H77-C16=1.0950       H78-C18=1.0868       H79-C18=1.0859       H80-C18=1.0863       H81-C19=1.0872       
H82-C19=1.0868       H83-C19=1.0887       H84-C20=1.0903       H85-C20=1.0872       H86-C25=1.0779       H87-N5=1.0187        
H88-C27=1.0950       H89-C29=1.0857       H90-C29=1.0858       H91-C29=1.0861       H92-C30=1.0857       H93-C30=1.0875       
H94-C30=1.0867       H95-C31=1.0913       H96-C31=1.0919       H97-C32=1.0928       H98-C32=1.0885       H99-C35=1.0911       
H100-C35=1.0929      H101-C36=1.0891      H102-C36=1.0867      H103-C39=1.0917      H104-C39=1.0914      H105-C40=1.0892      
H106-C40=1.0865      H107-C20=1.0868      H108-C37=1.0864      H109-C37=1.0891      H110-C46=1.0785      H111-C47=1.0788      
H112-C48=1.0790      H113-C41=1.0890      H114-C41=1.0864      H115-C51=1.0782      H116-C52=1.0787      H117-C53=1.0785      
H118-C54=1.0789      H119-C56=1.0786      Ru120-Ru1=2.7827     Ru120-S122=2.3457    Ru120-S123=2.3643    Ru120-Cl124=2.4409   
Ru120-C147=2.2876    Ru120-C148=2.2246    Ru120-C149=2.2448    Ru120-C150=2.2457    Ru120-C151=2.2478    C121-Ru1=1.9088      
C121-C185=1.2373     S122-Ru1=2.3758      S122-Ru120=2.3457    S122-C172=1.8120     S123-Ru1=2.3531      S123-Ru120=2.3643    
S123-C176=1.8123     Cl124-Ru120=2.4409   C125-Ru1=2.2510      C125-C126=1.4376     C125-C129=1.4218     C125-C130=1.4943     
C126-Ru1=2.1792      C126-C125=1.4376     C126-C127=1.4570     C126-C134=1.4956     C127-Ru1=2.3032      C127-C126=1.4570     
C127-C128=1.4012     C127-C138=1.4898     C128-Ru1=2.3170      C128-C127=1.4012     C128-C129=1.4526     C128-C142=1.4932     
C129-Ru1=2.2460      C129-C125=1.4218     C129-C128=1.4526     C129-C146=1.4942     C130-C125=1.4943     C130-H131=1.0896     
C130-H132=1.0878     C130-H133=1.0876     H131-C130=1.0896     H132-C130=1.0878     H133-C130=1.0876     C134-C126=1.4956     
C134-H135=1.0876     C134-H136=1.0898     C134-H137=1.0885     H135-C134=1.0876     H136-C134=1.0898     H137-C134=1.0885     
C138-C127=1.4898     C138-H139=1.0855     C138-H140=1.0896     C138-H141=1.0894     H139-C138=1.0855     H140-C138=1.0896     
H141-C138=1.0894     C142-C128=1.4932     C142-H143=1.0892     C142-H144=1.0933     C142-H145=1.0864     H143-C142=1.0892     
H144-C142=1.0933     H145-C142=1.0864     C146-C129=1.4942     C146-H194=1.0889     C146-H195=1.0907     C146-H196=1.0918     
C147-Ru120=2.2876    C147-C148=1.4312     C147-C151=1.4272     C147-C152=1.4915     C148-Ru120=2.2246    C148-C147=1.4312     
C148-C149=1.4450     C148-C156=1.4934     C149-Ru120=2.2448    C149-C148=1.4450     C149-C150=1.4229     C149-C160=1.4893     
C150-Ru120=2.2457    C150-C149=1.4229     C150-C151=1.4509     C150-C164=1.4890     C151-Ru120=2.2478    C151-C147=1.4272     
C151-C150=1.4509     C151-C168=1.4935     C152-C147=1.4915     C152-H153=1.0855     C152-H154=1.0908     C152-H155=1.0902     
H153-C152=1.0855     H154-C152=1.0908     H155-C152=1.0902     C156-C148=1.4934     C156-H157=1.0862     C156-H158=1.0923     
C156-H159=1.0903     H157-C156=1.0862     H158-C156=1.0923     H159-C156=1.0903     C160-C149=1.4893     C160-H161=1.0873     
C160-H162=1.0885     C160-H163=1.0918     H161-C160=1.0873     H162-C160=1.0885     H163-C160=1.0918     C164-C150=1.4890     
C164-H165=1.0874     C164-H166=1.0868     C164-H167=1.0885     H165-C164=1.0874     H166-C164=1.0868     H167-C164=1.0885     
C168-C151=1.4935     C168-H169=1.0883     C168-H170=1.0918     C168-H171=1.0853     H169-C168=1.0883     H170-C168=1.0918     
H171-C168=1.0853     C172-S122=1.8120     C172-H173=1.0869     C172-H174=1.0863     C172-H175=1.0869     H173-C172=1.0869     
H174-C172=1.0863     H175-C172=1.0869     C176-S123=1.8123     C176-H177=1.0867     C176-H178=1.0856     C176-H179=1.0857     
H177-C176=1.0867     H178-C176=1.0856     H179-C176=1.0857     S180-O181=1.4693     S180-O182=1.4693     S180-O183=1.4708     
S180-C184=1.7491     O181-S180=1.4693     O182-S180=1.4693     O183-S180=1.4708     C184-S180=1.7491     C184-C229=1.3741     
C184-C233=1.3765     C185-C121=1.2373     C185-C186=1.3536     C186-C185=1.3536     C186-C187=1.4193     C186-H188=1.0828     
C187-C186=1.4193     C187-C189=1.4250     C187-C190=1.4073     H188-C186=1.0828     C189-C187=1.4250     C189-C193=1.3942     
C189-O200=1.3388     C190-C187=1.4073     C190-C191=1.3720     C190-H198=1.0800     C191-C190=1.3720     C191-C192=1.3926     
C191-H211=1.0791     C192-C191=1.3926     C192-C193=1.3816     C192-H228=1.0788     C193-C189=1.3942     C193-C192=1.3816     
C193-H197=1.0771     H194-C146=1.0889     H195-C146=1.0907     H196-C146=1.0918     H197-C193=1.0771     H198-C190=1.0800     
H199-C23=1.0776      O200-C189=1.3388     O200-C201=1.4225     C201-O200=1.4225     C201-H202=1.0995     C201-H203=1.0978     
C201-C215=1.4990     H202-C201=1.0995     H203-C201=1.0978     H204-N4=1.0300       N205-C55=1.4187      N205-O208=1.2223     
N205-O210=1.2219     N206-C49=1.4175      N206-O207=1.2208     N206-O209=1.2244     O207-N206=1.2208     O208-N205=1.2223     
O209-N206=1.2244     O210-N205=1.2219     H211-C191=1.0791     C212-N4=1.3782       C212-C23=1.3967      C212-C213=1.4005     
C213-C22=1.3809      C213-C212=1.4005     C213-H214=1.0787     H214-C213=1.0787     C215-C201=1.4990     C215-H216=1.0800     
C215-C217=1.3277     H216-C215=1.0800     C217-C215=1.3277     C217-C218=1.5017     C217-C222=1.4961     C218-C217=1.5017     
C218-H219=1.0856     C218-H220=1.0893     C218-H221=1.0884     H219-C218=1.0856     H220-C218=1.0893     H221-C218=1.0884     
C222-C217=1.4961     C222-H223=1.0891     C222-H224=1.0864     C222-H225=1.0891     H223-C222=1.0891     H224-C222=1.0864     
H225-C222=1.0891     H226-C42=1.0963      H227-C38=1.0946      H228-C192=1.0788     C229-C184=1.3741     C229-C230=1.3849     
C229-H234=1.0787     C230-C229=1.3849     C230-C231=1.3920     C230-H235=1.0790     C231-C230=1.3920     C231-C232=1.3936     
C231-C238=1.4955     C232-C231=1.3936     C232-C233=1.3833     C232-H236=1.0789     C233-C184=1.3765     C233-C232=1.3833     
C233-H237=1.0787     H234-C229=1.0787     H235-C230=1.0790     H236-C232=1.0789     H237-C233=1.0787     C238-C231=1.4955     
C238-H239=1.0859     C238-H240=1.0864     C238-H241=1.0894     H239-C238=1.0859     H240-C238=1.0864     H241-C238=1.0894     
 C  H  Rav=1.0866 sigma=0.0050  Rmin=1.0771  Rmax=1.0995   106
 C  C  Rav=1.4451 sigma=0.0657  Rmin=1.2373  Rmax=1.5569    87
 N  H  Rav=1.0229 sigma=0.0067  Rmin=1.0141  Rmax=1.0300     4
 N  C  Rav=1.3986 sigma=0.0496  Rmin=1.3328  Rmax=1.4599    16
 O  C  Rav=1.3145 sigma=0.0852  Rmin=1.2124  Rmax=1.4369     7
 O  N  Rav=1.2224 sigma=0.0013  Rmin=1.2208  Rmax=1.2244     4
 F  C  Rav=1.3451 sigma=0.0048  Rmin=1.3384  Rmax=1.3523     9
 S  C  Rav=1.7400 sigma=0.0668  Rmin=1.6616  Rmax=1.8123     5
 S  O  Rav=1.4698 sigma=0.0007  Rmin=1.4693  Rmax=1.4708     3
 Ru C  Rav=2.2233 sigma=0.1057  Rmin=1.9088  Rmax=2.3170    11
 Ru S  Rav=2.3597 sigma=0.0114  Rmin=2.3457  Rmax=2.3758     4
 Ru Cl Rav=2.4409 sigma=0.0000  Rmin=2.4409  Rmax=2.4409     1
 Ru Ru Rav=2.7827 sigma=0.0000  Rmin=2.7827  Rmax=2.7827     1

 selected bond angles (degree)
 --------------------
C121-Ru1-Ru120= 96.40          S122-Ru1-Ru120= 53.39          S122-Ru1-C121= 92.99           S123-Ru1-Ru120= 54.04          
S123-Ru1-C121= 91.97           S123-Ru1-S122=107.37           C125-Ru1-Ru120=171.86          C125-Ru1-C121= 90.48           
C125-Ru1-S122=122.08           C125-Ru1-S123=130.28           C126-Ru1-Ru120=142.43          C126-Ru1-C121=105.48           
C126-Ru1-S122=150.96           C126-Ru1-S123= 94.43           C126-Ru1-C125= 37.83           C127-Ru1-Ru120=113.60          
C127-Ru1-C121=143.16           C127-Ru1-S122=121.69           C127-Ru1-S123= 89.16           C127-Ru1-C125= 61.84           
C127-Ru1-C126= 37.81           C128-Ru1-Ru120=110.83          C128-Ru1-C121=148.45           C128-Ru1-S122= 90.88           
C128-Ru1-S123=116.63           C128-Ru1-C125= 61.38           C128-Ru1-C126= 61.73           C128-Ru1-C127= 35.31           
C129-Ru1-Ru120=135.45          C129-Ru1-C121=111.57           C129-Ru1-S122= 89.97           C129-Ru1-S123=150.22           
C129-Ru1-C125= 36.86           C129-Ru1-C126= 62.62           C129-Ru1-C127= 61.06           C129-Ru1-C128= 37.08           
C15-N2-C11=133.67              H75-N2-C11=113.65              H75-N2-C15=112.66              C16-N3-C15=125.18              
H76-N3-C15=116.94              H76-N3-C16=117.87              H204-N4-C26=116.44             C212-N4-C26=131.37             
C212-N4-H204=112.16            C27-N5-C26=121.30              H87-N5-C26=118.86              H87-N5-C27=119.16              
C35-N6-C34=128.23              C38-N6-C34=120.05              C38-N6-C35=111.72              C39-N7-C33=128.22              
C42-N7-C33=119.92              C42-N7-C39=111.83              C13-C8-C9=118.38               H72-C8-C9=120.38               
H72-C8-C13=121.24              C10-C9-C8=120.24               C14-C9-C8=121.32               C14-C9-C10=118.35              
C11-C10-C9=121.19              H73-C10-C9=119.70              H73-C10-C11=119.09             

 selected dihedral angles (degree)
 ---------------------------------
C10-C9-C8-C13=  1.63          C10-C9-C8-H72=180.91          C14-C9-C8-C13=178.14          C14-C9-C8-H72=357.42          
C11-C10-C9-C8=359.92          C11-C10-C9-C14=183.31         H73-C10-C9-C8=178.37          H73-C10-C9-C14=  1.76         

 CMA Distance (Angstroems)
 ---------------------------
R(CMA):  4.9494
           -------------------------------------------------
          |                Final Singlepoint                |
           -------------------------------------------------

          ...................................................
          :                      SETUP                      :
          :.................................................:
          :  # basis functions                 682          :
          :  # atomic orbitals                 674          :
          :  # shells                          380          :
          :  # electrons                       714          :
          :  max. iterations                   250          :
          :  Hamiltonian                  GFN2-xTB          :
          :  restarted?                      false          :
          :  GBSA solvation                   true          :
          :  PC potential                    false          :
          :  electronic temp.          300.0000000     K    :
          :  accuracy                    1.0000000          :
          :  -> integral cutoff          0.2500000E+02      :
          :  -> integral neglect         0.1000000E-07      :
          :  -> SCF convergence          0.1000000E-05 Eh   :
          :  -> wf. convergence          0.1000000E-03 e    :
          :  Broyden damping             0.4000000          :
          :  net charge                          0          :
          :  unpaired electrons                  0          :
          ...................................................

 iter      E             dE          RMSdq      gap      omega  full diag
   1   -404.5817719 -0.404582E+03  0.221E-05    0.75       0.0  T
   2   -404.5817711  0.841322E-06  0.463E-05    0.75     139.0  T
   3   -404.5817719 -0.792130E-06  0.208E-05    0.75     309.6  T

   *** convergence criteria satisfied after 3 iterations ***

         #    Occupation            Energy/Eh            Energy/eV
      -------------------------------------------------------------
         1        2.0000           -1.0532325             -28.6599
       ...           ...                  ...                  ...
       351        2.0000           -0.3802785             -10.3479
       352        2.0000           -0.3778966             -10.2831
       353        2.0000           -0.3659832              -9.9589
       354        2.0000           -0.3646556              -9.9228
       355        2.0000           -0.3635304              -9.8922
       356        2.0000           -0.3629283              -9.8758
       357        2.0000           -0.3605778              -9.8118 (HOMO)
       358        0.0000           -0.3328976              -9.0586 (LUMO)
       359                         -0.3305634              -8.9951
       360                         -0.3292298              -8.9588
       361                         -0.3275452              -8.9130
       362                         -0.3028690              -8.2415
       ...                                ...                  ...
       674                         11.2357521             305.7404
      -------------------------------------------------------------
                  HL-Gap            0.0276801 Eh            0.7532 eV
             Fermi-level           -0.3467227 Eh           -9.4348 eV

 SCC (total)                   0 d,  0 h,  0 min,  0.619 sec
 SCC setup                      ...        0 min,  0.006 sec (  0.915%)
 Dispersion                     ...        0 min,  0.003 sec (  0.505%)
 classical contributions        ...        0 min,  0.001 sec (  0.098%)
 integral evaluation            ...        0 min,  0.019 sec (  3.089%)
 iterations                     ...        0 min,  0.276 sec ( 44.505%)
 molecular gradient             ...        0 min,  0.292 sec ( 47.130%)
 printout                       ...        0 min,  0.023 sec (  3.756%)

         :::::::::::::::::::::::::::::::::::::::::::::::::::::
         ::                     SUMMARY                     ::
         :::::::::::::::::::::::::::::::::::::::::::::::::::::
         :: total energy            -399.668124986592 Eh    ::
         :: total w/o Gsasa/hb      -399.659627575512 Eh    ::
         :: gradient norm              0.000995421986 Eh/a0 ::
         :: HOMO-LUMO gap              0.753214203865 eV    ::
         ::.................................................::
         :: SCC energy              -404.542729646497 Eh    ::
         :: -> isotropic ES            0.673146919803 Eh    ::
         :: -> anisotropic ES         -0.093268707691 Eh    ::
         :: -> anisotropic XC          0.074721021722 Eh    ::
         :: -> dispersion             -0.408357233599 Eh    ::
         :: -> Gsolv                  -0.130827009433 Eh    ::
         ::    -> Gelec               -0.122329598353 Eh    ::
         ::    -> Gsasa               -0.008497411080 Eh    ::
         ::    -> Ghb                  0.000000000000 Eh    ::
         ::    -> Gshift               0.000000000000 Eh    ::
         :: repulsion energy           4.874469565959 Eh    ::
         :: add. restraining           0.000135093946 Eh    ::
         :: total charge               0.000000000003 e     ::
         :::::::::::::::::::::::::::::::::::::::::::::::::::::

           -------------------------------------------------
          |                Property Printout                |
           -------------------------------------------------

    * Orbital Energies and Occupations

         #    Occupation            Energy/Eh            Energy/eV
      -------------------------------------------------------------
         1        2.0000           -1.0532325             -28.6599
       ...           ...                  ...                  ...
       345        2.0000           -0.3991133             -10.8604
       346        2.0000           -0.3959469             -10.7743
       347        2.0000           -0.3925110             -10.6808
       348        2.0000           -0.3846435             -10.4667
       349        2.0000           -0.3826890             -10.4135
       350        2.0000           -0.3808068             -10.3623
       351        2.0000           -0.3802785             -10.3479
       352        2.0000           -0.3778966             -10.2831
       353        2.0000           -0.3659832              -9.9589
       354        2.0000           -0.3646556              -9.9228
       355        2.0000           -0.3635304              -9.8922
       356        2.0000           -0.3629283              -9.8758
       357        2.0000           -0.3605778              -9.8118 (HOMO)
       358        0.0000           -0.3328976              -9.0586 (LUMO)
       359                         -0.3305634              -8.9951
       360                         -0.3292298              -8.9588
       361                         -0.3275452              -8.9130
       362                         -0.3028690              -8.2415
       363                         -0.2987340              -8.1290
       364                         -0.2970724              -8.0838
       365                         -0.2822741              -7.6811
       366                         -0.2809243              -7.6443
       367                         -0.2804905              -7.6325
       368                         -0.2797158              -7.6115
       ...                                ...                  ...
       674                         11.2357521             305.7404
      -------------------------------------------------------------
                  HL-Gap            0.0276801 Eh            0.7532 eV
             Fermi-level           -0.3467227 Eh           -9.4348 eV

     #   Z          covCN         q      C6AA      α(0)
     1  44 Ru       7.441    -0.140   311.989    29.710
     2   7 N        2.750    -0.160    24.461     7.346
     3   7 N        2.778    -0.151    24.267     7.316
     4   7 N        2.743    -0.153    24.314     7.323
     5   7 N        2.776    -0.162    24.496     7.351
     6   7 N        2.757    -0.072    22.631     7.065
     7   7 N        2.756    -0.069    22.571     7.056
     8   6 C        2.922    -0.027    28.669     8.781
     9   6 C        2.973    -0.010    28.263     8.720
    10   6 C        2.936    -0.040    29.005     8.833
    11   6 C        2.901     0.097    25.857     8.338
    12   6 C        2.919    -0.039    28.971     8.826
    13   6 C        2.977    -0.019    28.472     8.753
    14   6 C        2.721     0.363    20.850     7.475
    15   6 C        2.805     0.208    23.593     7.958
    16   6 C        3.796     0.020    20.239     6.406
    17   6 C        3.900     0.027    20.063     6.367
    18   6 C        3.761    -0.119    22.821     6.810
    19   6 C        3.761    -0.113    22.713     6.794
    20   6 C        3.758    -0.107    22.590     6.776
    21   6 C        3.338     0.489    17.223     6.569
    22   6 C        2.977    -0.011    28.281     8.723
    23   6 C        2.922    -0.036    28.900     8.816
    24   6 C        2.979    -0.011    28.295     8.725
    25   6 C        2.919    -0.028    28.692     8.784
    26   6 C        2.810     0.207    23.609     7.961
    27   6 C        3.805     0.022    20.196     6.398
    28   6 C        3.898     0.024    20.125     6.377
    29   6 C        3.760    -0.126    22.963     6.832
    30   6 C        3.760    -0.120    22.856     6.815
    31   6 C        3.807    -0.070    21.834     6.652
    32   6 C        3.695     0.071    19.550     6.326
    33   6 C        2.762     0.267    22.499     7.768
    34   6 C        2.761     0.264    22.540     7.775
    35   6 C        3.766    -0.010    20.797     6.500
    36   6 C        3.831    -0.066    21.739     6.634
    37   6 C        3.836    -0.066    21.731     6.632
    38   6 C        3.836     0.039    19.890     6.345
    39   6 C        3.769    -0.014    20.852     6.508
    40   6 C        3.833    -0.066    21.741     6.634
    41   6 C        3.836    -0.066    21.735     6.633
    42   6 C        3.834     0.041    19.854     6.339
    43   6 C        3.337     0.489    17.220     6.569
    44   6 C        3.338     0.489    17.216     6.567
    45   6 C        2.972     0.038    27.147     8.546
    46   6 C        2.925    -0.025    28.623     8.774
    47   6 C        2.922    -0.022    28.553     8.763
    48   6 C        2.918    -0.013    28.350     8.731
    49   6 C        2.917     0.005    27.912     8.664
    50   6 C        2.972     0.036    27.182     8.552
    51   6 C        2.926    -0.030    28.757     8.794
    52   6 C        2.922    -0.022    28.566     8.765
    53   6 C        2.917    -0.017    28.443     8.746
    54   6 C        2.918    -0.016    28.401     8.739
    55   6 C        2.918     0.005    27.913     8.664
    56   6 C        2.917    -0.015    28.376     8.735
    57   8 O        0.856    -0.453    22.770     6.398
    58   8 O        1.705    -0.266    18.405     5.792
    59   8 O        0.859    -0.523    24.305     6.610
    60   8 O        0.859    -0.538    24.648     6.656
    61   9 F        0.791    -0.205    11.289     3.969
    62   9 F        0.791    -0.217    11.411     3.990
    63   9 F        0.791    -0.205    11.289     3.969
    64   9 F        0.791    -0.213    11.374     3.984
    65   9 F        0.791    -0.203    11.271     3.966
    66   9 F        0.791    -0.220    11.444     3.996
    67   9 F        0.791    -0.220    11.447     3.997
    68   9 F        0.791    -0.211    11.345     3.979
    69   9 F        0.791    -0.200    11.238     3.960
    70  16 S        1.106    -0.506   161.825    21.512
    71  16 S        1.082    -0.520   162.506    21.559
    72   1 H        0.926     0.072     2.062     2.246
    73   1 H        0.925     0.054     2.266     2.354
    74   1 H        0.926     0.090     1.875     2.141
    75   1 H        0.859     0.220     1.008     1.573
    76   1 H        0.860     0.204     1.086     1.632
    77   1 H        0.924     0.075     2.034     2.230
    78   1 H        0.925     0.056     2.248     2.345
    79   1 H        0.925     0.059     2.211     2.325
    80   1 H        0.925     0.048     2.344     2.394
    81   1 H        0.925     0.053     2.285     2.364
    82   1 H        0.925     0.054     2.273     2.358
    83   1 H        0.925     0.022     2.708     2.573
    84   1 H        0.924     0.012     2.860     2.645
    85   1 H        0.925     0.048     2.349     2.397
    86   1 H        0.926     0.095     1.828     2.114
    87   1 H        0.860     0.204     1.088     1.634
    88   1 H        0.924     0.083     1.951     2.184
    89   1 H        0.925     0.060     2.194     2.316
    90   1 H        0.925     0.069     2.098     2.265
    91   1 H        0.925     0.048     2.345     2.395
    92   1 H        0.925     0.059     2.213     2.326
    93   1 H        0.925     0.030     2.593     2.518
    94   1 H        0.925     0.061     2.187     2.312
    95   1 H        0.924     0.047     2.359     2.402
    96   1 H        0.924     0.042     2.421     2.433
    97   1 H        0.924     0.069     2.092     2.262
    98   1 H        0.925     0.087     1.907     2.159
    99   1 H        0.924     0.074     2.040     2.233
   100   1 H        0.924     0.060     2.204     2.321
   101   1 H        0.925     0.059     2.206     2.323
   102   1 H        0.925     0.068     2.112     2.273
   103   1 H        0.924     0.078     2.002     2.213
   104   1 H        0.924     0.069     2.101     2.267
   105   1 H        0.925     0.060     2.194     2.316
   106   1 H        0.925     0.071     2.079     2.255
   107   1 H        0.925     0.052     2.300     2.372
   108   1 H        0.925     0.070     2.087     2.259
   109   1 H        0.925     0.070     2.081     2.256
   110   1 H        0.926     0.090     1.882     2.145
   111   1 H        0.926     0.070     2.088     2.260
   112   1 H        0.926     0.070     2.081     2.256
   113   1 H        0.925     0.072     2.065     2.247
   114   1 H        0.925     0.069     2.102     2.267
   115   1 H        0.926     0.077     2.005     2.214
   116   1 H        0.926     0.076     2.019     2.222
   117   1 H        0.926     0.081     1.970     2.195
   118   1 H        0.926     0.084     1.935     2.175
   119   1 H        0.926     0.094     1.844     2.124
   120  44 Ru       7.360    -0.134   311.636    29.693
   121   6 C        1.908    -0.059    32.691     9.234
   122  16 S        2.767    -0.144   147.130    20.415
   123  16 S        2.768     0.024   140.063    19.919
   124  17 Cl       0.786    -0.579   118.509    16.653
   125   6 C        3.811     0.026    20.127     6.386
   126   6 C        3.894     0.028    20.055     6.366
   127   6 C        3.770     0.022    20.245     6.412
   128   6 C        3.759     0.010    20.456     6.448
   129   6 C        3.845     0.024    20.140     6.384
   130   6 C        3.753    -0.103    22.531     6.769
   131   1 H        0.925     0.079     1.987     2.205
   132   1 H        0.925     0.052     2.296     2.370
   133   1 H        0.925     0.074     2.046     2.237
   134   6 C        3.753    -0.116    22.772     6.805
   135   1 H        0.925     0.100     1.788     2.091
   136   1 H        0.925     0.079     1.984     2.203
   137   1 H        0.925     0.075     2.027     2.226
   138   6 C        3.753    -0.116    22.789     6.807
   139   1 H        0.925     0.067     2.124     2.279
   140   1 H        0.925     0.077     2.013     2.219
   141   1 H        0.925     0.101     1.780     2.086
   142   6 C        3.753    -0.089    22.252     6.727
   143   1 H        0.925     0.044     2.394     2.419
   144   1 H        0.924     0.035     2.519     2.482
   145   1 H        0.925     0.064     2.156     2.296
   146   6 C        3.752    -0.092    22.313     6.736
   147   6 C        3.783     0.033    20.037     6.376
   148   6 C        3.853     0.017    20.251     6.400
   149   6 C        3.827     0.025    20.138     6.385
   150   6 C        3.826     0.024    20.149     6.387
   151   6 C        3.833     0.030    20.051     6.371
   152   6 C        3.753    -0.103    22.517     6.767
   153   1 H        0.925     0.078     1.996     2.209
   154   1 H        0.924     0.076     2.022     2.224
   155   1 H        0.925     0.061     2.182     2.310
   156   6 C        3.753    -0.097    22.402     6.749
   157   1 H        0.925     0.056     2.245     2.343
   158   1 H        0.924     0.080     1.977     2.199
   159   1 H        0.924     0.052     2.289     2.366
   160   6 C        3.753    -0.096    22.386     6.747
   161   1 H        0.925     0.063     2.168     2.302
   162   1 H        0.925     0.072     2.060     2.244
   163   1 H        0.924     0.053     2.280     2.361
   164   6 C        3.753    -0.120    22.863     6.818
   165   1 H        0.925     0.103     1.754     2.071
   166   1 H        0.925     0.060     2.201     2.320
   167   1 H        0.925     0.100     1.788     2.091
   168   6 C        3.753    -0.118    22.811     6.811
   169   1 H        0.925     0.075     2.029     2.227
   170   1 H        0.924     0.092     1.858     2.132
   171   1 H        0.925     0.099     1.797     2.096
   172   6 C        3.744    -0.031    21.194     6.567
   173   1 H        0.925     0.063     2.162     2.300
   174   1 H        0.925     0.061     2.182     2.310
   175   1 H        0.925     0.062     2.174     2.306
   176   6 C        3.745    -0.068    21.883     6.673
   177   1 H        0.925     0.075     2.033     2.230
   178   1 H        0.925     0.111     1.691     2.033
   179   1 H        0.925     0.106     1.730     2.057
   180  16 S        3.679     1.286    98.824    16.731
   181   8 O        0.859    -0.736    29.718     7.309
   182   8 O        0.859    -0.732    29.600     7.294
   183   8 O        0.859    -0.731    29.570     7.291
   184   6 C        2.979    -0.119    31.010     9.135
   185   6 C        1.977    -0.039    32.089     9.148
   186   6 C        2.900     0.017    27.642     8.620
   187   6 C        2.976    -0.000    28.025     8.684
   188   1 H        0.925     0.080     1.979     2.200
   189   6 C        2.864     0.159    24.560     8.123
   190   6 C        2.923    -0.022    28.548     8.762
   191   6 C        2.912    -0.033    28.826     8.804
   192   6 C        2.920    -0.014    28.355     8.732
   193   6 C        2.912    -0.064    29.586     8.919
   194   1 H        0.925     0.056     2.250     2.346
   195   1 H        0.924     0.052     2.295     2.369
   196   1 H        0.924     0.044     2.392     2.418
   197   1 H        0.926     0.077     2.014     2.219
   198   1 H        0.926     0.038     2.472     2.459
   199   1 H        0.926     0.098     1.807     2.102
   200   8 O        1.706    -0.250    18.146     5.751
   201   6 C        3.696     0.075    19.483     6.314
   202   1 H        0.923     0.064     2.155     2.296
   203   1 H        0.924     0.058     2.224     2.332
   204   1 H        0.859     0.218     1.018     1.581
   205   7 N        2.762     0.541    13.575     5.472
   206   7 N        2.762     0.540    13.589     5.475
   207   8 O        0.930    -0.424    22.138     6.310
   208   8 O        0.930    -0.435    22.364     6.342
   209   8 O        0.930    -0.447    22.616     6.378
   210   8 O        0.930    -0.434    22.325     6.337
   211   1 H        0.926     0.035     2.517     2.481
   212   6 C        2.901     0.102    25.745     8.320
   213   6 C        2.934    -0.042    29.048     8.839
   214   1 H        0.926     0.073     2.049     2.239
   215   6 C        2.896    -0.075    29.870     8.961
   216   1 H        0.926     0.040     2.449     2.447
   217   6 C        2.939     0.013    27.718     8.635
   218   6 C        3.759    -0.119    22.821     6.811
   219   1 H        0.925     0.054     2.271     2.357
   220   1 H        0.925     0.050     2.316     2.380
   221   1 H        0.925     0.054     2.276     2.359
   222   6 C        3.760    -0.114    22.740     6.798
   223   1 H        0.925     0.056     2.241     2.341
   224   1 H        0.925     0.041     2.432     2.439
   225   1 H        0.925     0.055     2.261     2.352
   226   1 H        0.924     0.068     2.106     2.270
   227   1 H        0.924     0.078     1.997     2.210
   228   1 H        0.926     0.068     2.102     2.267
   229   6 C        2.970    -0.029    28.722     8.791
   230   6 C        2.929    -0.035    28.880     8.813
   231   6 C        2.966     0.033    27.269     8.565
   232   6 C        2.929    -0.035    28.864     8.811
   233   6 C        2.989    -0.030    28.738     8.794
   234   1 H        0.926     0.036     2.503     2.474
   235   1 H        0.926     0.066     2.135     2.285
   236   1 H        0.926     0.068     2.106     2.269
   237   1 H        0.926     0.039     2.461     2.453
   238   6 C        3.759    -0.122    22.893     6.821
   239   1 H        0.925     0.063     2.163     2.300
   240   1 H        0.925     0.066     2.132     2.284
   241   1 H        0.925     0.073     2.055     2.242

 Mol. C6AA /au·bohr⁶  :     722940.061801
 Mol. C8AA /au·bohr⁸  :   19634380.700045
 Mol. α(0) /au        :       1307.095461


Wiberg/Mayer (AO) data.
largest (>0.10) Wiberg bond orders for each atom

 ---------------------------------------------------------------------------
     #   Z sym  total        # sym  WBO       # sym  WBO       # sym  WBO
 ---------------------------------------------------------------------------
     1  44 Ru   6.267 --   121 C    1.207   123 S    0.869   122 S    0.748
                           120 Ru   0.631   126 C    0.545   129 C    0.440
                           125 C    0.381   127 C    0.333   128 C    0.312
                           186 C    0.177   185 C    0.107
     2   7 N    3.505 --    15 C    1.180    11 C    1.148    75 H    0.859
     3   7 N    3.494 --    15 C    1.328    16 C    0.982    76 H    0.888
                            71 S    0.145
     4   7 N    3.513 --    26 C    1.195   212 C    1.143   204 H    0.861
     5   7 N    3.481 --    26 C    1.321    27 C    0.982    87 H    0.882
                            70 S    0.140
     6   7 N    3.541 --    34 C    1.326    35 C    0.971    38 C    0.962
                            59 O    0.195
     7   7 N    3.540 --    33 C    1.326    39 C    0.969    42 C    0.963
                            60 O    0.190
     8   6 C    3.967 --    13 C    1.411     9 C    1.376    72 H    0.965
     9   6 C    3.987 --    10 C    1.428     8 C    1.376    14 C    0.981
    10   6 C    3.987 --     9 C    1.428    11 C    1.334    73 H    0.959
    11   6 C    3.970 --    12 C    1.342    10 C    1.334     2 N    1.148
    12   6 C    3.980 --    13 C    1.421    11 C    1.342    74 H    0.952
    13   6 C    3.970 --    12 C    1.421     8 C    1.411    44 C    0.952
    14   6 C    3.919 --    57 O    1.692    58 O    1.172     9 C    0.981
    15   6 C    3.952 --    71 S    1.368     3 N    1.328     2 N    1.180
    16   6 C    3.952 --     3 N    0.982    17 C    0.949    77 H    0.946
                            34 C    0.932
    17   6 C    3.985 --    20 C    1.000    18 C    0.998    19 C    0.997
                            16 C    0.949
    18   6 C    3.991 --    17 C    0.998    80 H    0.984    78 H    0.983
                            79 H    0.979
    19   6 C    3.994 --    17 C    0.997    81 H    0.984    82 H    0.983
                            83 H    0.982
    20   6 C    3.993 --    17 C    1.000   107 H    0.982    85 H    0.981
                            84 H    0.978
    21   6 C    3.820 --    69 F    0.954    22 C    0.951    68 F    0.945
                            67 F    0.932
    22   6 C    3.971 --   213 C    1.447    25 C    1.390    21 C    0.951
    23   6 C    3.979 --    24 C    1.424   212 C    1.347   199 H    0.945
    24   6 C    3.974 --    23 C    1.424    25 C    1.407    43 C    0.950
    25   6 C    3.963 --    24 C    1.407    22 C    1.390    86 H    0.961
    26   6 C    3.953 --    70 S    1.362     5 N    1.321     4 N    1.195
    27   6 C    3.954 --     5 N    0.982    28 C    0.949    88 H    0.945
                            33 C    0.933
    28   6 C    3.984 --    29 C    0.998    30 C    0.996    31 C    0.985
                            27 C    0.949
    29   6 C    3.989 --    28 C    0.998    91 H    0.983    89 H    0.981
                            90 H    0.979
    30   6 C    3.992 --    28 C    0.996    94 H    0.983    93 H    0.981
                            92 H    0.980
    31   6 C    3.987 --    32 C    0.994    28 C    0.985    96 H    0.968
                            95 H    0.957
    32   6 C    3.901 --    31 C    0.994    97 H    0.970    98 H    0.966
                            58 O    0.913
    33   6 C    3.950 --    60 O    1.571     7 N    1.326    27 C    0.933
    34   6 C    3.953 --    59 O    1.584     6 N    1.326    16 C    0.932
    35   6 C    3.959 --    36 C    1.003     6 N    0.971   100 H    0.964
                            99 H    0.960
    36   6 C    3.991 --    37 C    1.006    35 C    1.003   101 H    0.976
                           102 H    0.974
    37   6 C    3.983 --    36 C    1.006   108 H    0.974   109 H    0.974
                            38 C    0.967
    38   6 C    3.963 --    45 C    0.998    37 C    0.967     6 N    0.962
                           227 H    0.949
    39   6 C    3.956 --    40 C    1.004     7 N    0.969   104 H    0.961
                           103 H    0.960
    40   6 C    3.990 --    41 C    1.006    39 C    1.004   105 H    0.977
                           106 H    0.974
    41   6 C    3.983 --    40 C    1.006   114 H    0.974   113 H    0.974
                            42 C    0.967
    42   6 C    3.965 --    50 C    0.999    41 C    0.967     7 N    0.963
                           226 H    0.948
    43   6 C    3.822 --    63 F    0.951    24 C    0.950    61 F    0.949
                            62 F    0.934
    44   6 C    3.817 --    65 F    0.955    13 C    0.952    64 F    0.941
                            66 F    0.931
    45   6 C    3.983 --    47 C    1.394    46 C    1.378    38 C    0.998
    46   6 C    3.985 --    56 C    1.481    45 C    1.378   110 H    0.961
    47   6 C    3.988 --    48 C    1.464    45 C    1.394   111 H    0.960
    48   6 C    3.986 --    47 C    1.464    49 C    1.356   112 H    0.962
    49   6 C    3.948 --    48 C    1.356    56 C    1.342   206 N    1.005
    50   6 C    3.983 --    52 C    1.396    51 C    1.377    42 C    0.999
    51   6 C    3.986 --    53 C    1.484    50 C    1.377   115 H    0.962
    52   6 C    3.986 --    54 C    1.463    50 C    1.396   116 H    0.956
    53   6 C    3.984 --    51 C    1.484    55 C    1.344   117 H    0.959
    54   6 C    3.984 --    52 C    1.463    55 C    1.356   118 H    0.960
    55   6 C    3.949 --    54 C    1.356    53 C    1.344   205 N    1.003
    56   6 C    3.981 --    46 C    1.481    49 C    1.342   119 H    0.958
    57   8 O    1.994 --    14 C    1.692    58 O    0.177
    58   8 O    2.326 --    14 C    1.172    32 C    0.913    57 O    0.177
    59   8 O    1.920 --    34 C    1.584     6 N    0.195
    60   8 O    1.916 --    33 C    1.571     7 N    0.190
    61   9 F    1.073 --    43 C    0.949
    62   9 F    1.062 --    43 C    0.934
    63   9 F    1.074 --    43 C    0.951
    64   9 F    1.065 --    44 C    0.941
    65   9 F    1.077 --    44 C    0.955
    66   9 F    1.059 --    44 C    0.931
    67   9 F    1.059 --    21 C    0.932
    68   9 F    1.069 --    21 C    0.945
    69   9 F    1.077 --    21 C    0.954
    70  16 S    1.736 --    26 C    1.362     5 N    0.140
    71  16 S    1.710 --    15 C    1.368     3 N    0.145
    72   1 H    0.995 --     8 C    0.965
    73   1 H    0.997 --    10 C    0.959
    74   1 H    0.991 --    12 C    0.952
    75   1 H    0.951 --     2 N    0.859
    76   1 H    0.958 --     3 N    0.888
    77   1 H    0.993 --    16 C    0.946
    78   1 H    0.996 --    18 C    0.983
    79   1 H    0.997 --    18 C    0.979
    80   1 H    0.998 --    18 C    0.984
    81   1 H    0.997 --    19 C    0.984
    82   1 H    0.996 --    19 C    0.983
    83   1 H    1.000 --    19 C    0.982
    84   1 H    1.000 --    20 C    0.978
    85   1 H    0.998 --    20 C    0.981
    86   1 H    0.991 --    25 C    0.961
    87   1 H    0.958 --     5 N    0.882
    88   1 H    0.992 --    27 C    0.945
    89   1 H    0.996 --    29 C    0.981
    90   1 H    0.995 --    29 C    0.979
    91   1 H    0.998 --    29 C    0.983
    92   1 H    0.995 --    30 C    0.980
    93   1 H    0.999 --    30 C    0.981
    94   1 H    0.996 --    30 C    0.983
    95   1 H    0.998 --    31 C    0.957
    96   1 H    0.998 --    31 C    0.968
    97   1 H    0.995 --    32 C    0.970
    98   1 H    0.992 --    32 C    0.966
    99   1 H    0.994 --    35 C    0.960
   100   1 H    0.996 --    35 C    0.964
   101   1 H    0.996 --    36 C    0.976
   102   1 H    0.994 --    36 C    0.974
   103   1 H    0.994 --    39 C    0.960
   104   1 H    0.995 --    39 C    0.961
   105   1 H    0.996 --    40 C    0.977
   106   1 H    0.994 --    40 C    0.974
   107   1 H    0.997 --    20 C    0.982
   108   1 H    0.995 --    37 C    0.974
   109   1 H    0.994 --    37 C    0.974
   110   1 H    0.991 --    46 C    0.961
   111   1 H    0.995 --    47 C    0.960
   112   1 H    0.995 --    48 C    0.962
   113   1 H    0.994 --    41 C    0.974
   114   1 H    0.995 --    41 C    0.974
   115   1 H    0.993 --    51 C    0.962
   116   1 H    0.994 --    52 C    0.956
   117   1 H    0.993 --    53 C    0.959
   118   1 H    0.993 --    54 C    0.960
   119   1 H    0.991 --    56 C    0.958
   120  44 Ru   5.626 --   123 S    0.830   122 S    0.795     1 Ru   0.631
                           124 Cl   0.586   148 C    0.474   151 C    0.465
                           150 C    0.443   149 C    0.428   147 C    0.407
   121   6 C    3.806 --   185 C    2.287     1 Ru   1.207
   122  16 S    2.811 --   172 C    0.966   120 Ru   0.795     1 Ru   0.748
   123  16 S    2.967 --   176 C    0.971     1 Ru   0.869   120 Ru   0.830
   124  17 Cl   0.734 --   120 Ru   0.586
   125   6 C    3.978 --   129 C    1.235   126 C    1.163   130 C    1.008
                             1 Ru   0.381
   126   6 C    3.978 --   125 C    1.163   127 C    1.096   134 C    1.007
                             1 Ru   0.545
   127   6 C    3.975 --   128 C    1.351   126 C    1.096   138 C    1.023
                             1 Ru   0.333
   128   6 C    3.979 --   127 C    1.351   129 C    1.121   142 C    1.020
                             1 Ru   0.312
   129   6 C    3.981 --   125 C    1.235   128 C    1.121   146 C    1.014
                             1 Ru   0.440
   130   6 C    3.989 --   125 C    1.008   132 H    0.969   133 H    0.957
                           131 H    0.954
   131   1 H    0.992 --   130 C    0.954
   132   1 H    0.997 --   130 C    0.969
   133   1 H    0.993 --   130 C    0.957
   134   6 C    3.980 --   126 C    1.007   137 H    0.967   135 H    0.961
                           136 H    0.951
   135   1 H    0.988 --   134 C    0.961
   136   1 H    0.991 --   134 C    0.951
   137   1 H    0.992 --   134 C    0.967
   138   6 C    3.986 --   127 C    1.023   139 H    0.976   140 H    0.956
                           141 H    0.946
   139   1 H    0.995 --   138 C    0.976
   140   1 H    0.992 --   138 C    0.956
   141   1 H    0.989 --   138 C    0.946
   142   6 C    3.992 --   128 C    1.020   145 H    0.975   143 H    0.963
                           144 H    0.958
   143   1 H    0.997 --   142 C    0.963
   144   1 H    0.996 --   142 C    0.958
   145   1 H    0.995 --   142 C    0.975
   146   6 C    3.989 --   129 C    1.014   194 H    0.969   196 H    0.956
                           195 H    0.950
   147   6 C    3.981 --   151 C    1.208   148 C    1.196   152 C    1.021
                           120 Ru   0.407
   148   6 C    3.981 --   147 C    1.196   149 C    1.139   156 C    1.015
                           120 Ru   0.474
   149   6 C    3.980 --   150 C    1.234   148 C    1.139   160 C    1.020
                           120 Ru   0.428
   150   6 C    3.977 --   149 C    1.234   151 C    1.121   164 C    1.022
                           120 Ru   0.443
   151   6 C    3.973 --   147 C    1.208   150 C    1.121   168 C    1.014
                           120 Ru   0.465
   152   6 C    3.989 --   147 C    1.021   153 H    0.976   155 H    0.956
                           154 H    0.954
   153   1 H    0.993 --   152 C    0.976
   154   1 H    0.993 --   152 C    0.954
   155   1 H    0.995 --   152 C    0.956
   156   6 C    3.989 --   148 C    1.015   157 H    0.977   159 H    0.965
                           158 H    0.950
   157   1 H    0.996 --   156 C    0.977
   158   1 H    0.991 --   156 C    0.950
   159   1 H    0.995 --   156 C    0.965
   160   6 C    3.990 --   149 C    1.020   161 H    0.968   162 H    0.955
                           163 H    0.945
   161   1 H    0.995 --   160 C    0.968
   162   1 H    0.993 --   160 C    0.955
   163   1 H    0.995 --   160 C    0.945
   164   6 C    3.981 --   150 C    1.022   166 H    0.973   167 H    0.947
                           165 H    0.945
   165   1 H    0.988 --   164 C    0.945
   166   1 H    0.996 --   164 C    0.973
   167   1 H    0.988 --   164 C    0.947
   168   6 C    3.979 --   151 C    1.014   171 H    0.969   169 H    0.962
                           170 H    0.947
   169   1 H    0.992 --   168 C    0.962
   170   1 H    0.989 --   168 C    0.947
   171   1 H    0.989 --   168 C    0.969
   172   6 C    3.971 --   173 H    0.971   175 H    0.971   174 H    0.967
                           122 S    0.966
   173   1 H    0.994 --   172 C    0.971
   174   1 H    0.994 --   172 C    0.967
   175   1 H    0.994 --   172 C    0.971
   176   6 C    3.954 --   123 S    0.971   178 H    0.965   177 H    0.959
                           179 H    0.956
   177   1 H    0.992 --   176 C    0.959
   178   1 H    0.985 --   176 C    0.965
   179   1 H    0.985 --   176 C    0.956
   180  16 S    4.960 --   182 O    1.384   181 O    1.383   183 O    1.379
                           184 C    0.745
   181   8 O    1.748 --   180 S    1.383
   182   8 O    1.754 --   180 S    1.384
   183   8 O    1.755 --   180 S    1.379
   184   6 C    3.966 --   229 C    1.426   233 C    1.416   180 S    0.745
                           231 C    0.101
   185   6 C    3.974 --   121 C    2.287   186 C    1.448     1 Ru   0.107
   186   6 C    3.946 --   185 C    1.448   187 C    1.243   188 H    0.944
                             1 Ru   0.177
   187   6 C    3.986 --   190 C    1.303   186 C    1.243   189 C    1.220
   188   1 H    0.992 --   186 C    0.944
   189   6 C    3.898 --   193 C    1.357   187 C    1.220   200 O    1.135
   190   6 C    3.982 --   191 C    1.505   187 C    1.303   198 H    0.962
   191   6 C    3.989 --   190 C    1.505   192 C    1.374   211 H    0.968
   192   6 C    3.935 --   193 C    1.458   191 C    1.374   228 H    0.968
   193   6 C    3.982 --   192 C    1.458   189 C    1.357   197 H    0.960
   194   1 H    0.996 --   146 C    0.969
   195   1 H    0.995 --   146 C    0.950
   196   1 H    0.996 --   146 C    0.956
   197   1 H    0.993 --   193 C    0.960
   198   1 H    0.998 --   190 C    0.962
   199   1 H    0.990 --    23 C    0.945
   200   8 O    2.281 --   189 C    1.135   201 C    0.940
   201   6 C    3.921 --   215 C    1.015   203 H    0.953   202 H    0.948
                           200 O    0.940
   202   1 H    0.994 --   201 C    0.948
   203   1 H    0.994 --   201 C    0.953
   204   1 H    0.952 --     4 N    0.861
   205   7 N    3.899 --   210 O    1.421   208 O    1.419    55 C    1.003
   206   7 N    3.899 --   207 O    1.422   209 O    1.411    49 C    1.005
   207   8 O    1.891 --   206 N    1.422   209 O    0.322
   208   8 O    1.885 --   205 N    1.419   210 O    0.326
   209   8 O    1.881 --   206 N    1.411   207 O    0.322
   210   8 O    1.888 --   205 N    1.421   208 O    0.326
   211   1 H    0.998 --   191 C    0.968
   212   6 C    3.969 --    23 C    1.347   213 C    1.332     4 N    1.143
   213   6 C    3.985 --    22 C    1.447   212 C    1.332   214 H    0.952
   214   1 H    0.994 --   213 C    0.952
   215   6 C    3.977 --   217 C    1.877   201 C    1.015   216 H    0.963
   216   1 H    0.998 --   215 C    0.963
   217   6 C    3.987 --   215 C    1.877   222 C    1.029   218 C    1.024
   218   6 C    3.996 --   217 C    1.024   219 H    0.986   221 H    0.972
                           220 H    0.968
   219   1 H    0.997 --   218 C    0.986
   220   1 H    0.997 --   218 C    0.968
   221   1 H    0.997 --   218 C    0.972
   222   6 C    3.995 --   217 C    1.029   224 H    0.985   225 H    0.969
                           223 H    0.969
   223   1 H    0.997 --   222 C    0.969
   224   1 H    0.998 --   222 C    0.985
   225   1 H    0.997 --   222 C    0.969
   226   1 H    0.993 --    42 C    0.948
   227   1 H    0.992 --    38 C    0.949
   228   1 H    0.995 --   192 C    0.968
   229   6 C    3.989 --   230 C    1.439   184 C    1.426   234 H    0.966
                           232 C    0.108
   230   6 C    3.987 --   229 C    1.439   231 C    1.408   235 H    0.966
                           233 C    0.108
   231   6 C    3.986 --   230 C    1.408   232 C    1.399   238 C    1.033
                           184 C    0.101
   232   6 C    3.987 --   233 C    1.449   231 C    1.399   236 H    0.966
                           229 C    0.108
   233   6 C    3.989 --   232 C    1.449   184 C    1.416   237 H    0.966
                           230 C    0.108
   234   1 H    0.998 --   229 C    0.966
   235   1 H    0.995 --   230 C    0.966
   236   1 H    0.995 --   232 C    0.966
   237   1 H    0.998 --   233 C    0.966
   238   6 C    3.991 --   231 C    1.033   239 H    0.980   240 H    0.976
                           241 H    0.959
   239   1 H    0.996 --   238 C    0.980
   240   1 H    0.995 --   238 C    0.976
   241   1 H    0.994 --   238 C    0.959
 ---------------------------------------------------------------------------

Topologies differ in total number of bonds
Writing topology from bond orders to xtbtopo.mol

molecular dipole:
                 x           y           z       tot (Debye)
 q only:        0.960      -4.340      -0.515
   full:        0.773      -4.691       1.872      12.988
molecular quadrupole (traceless):
                xx          xy          yy          xz          yz          zz
 q only:      212.759      39.023    -105.395     134.216    -104.387    -107.364
  q+dip:      178.343      59.963     -80.869     128.821     -98.116     -97.475
   full:      180.311      55.150     -80.310     125.891     -96.742    -100.002

           -------------------------------------------------
          |                Geometry Summary                 |
           -------------------------------------------------

      molecular mass/u    :     2112.8215252
   center of mass at/Å    :       -0.1228348      -0.2980117       0.0449842
  moments of inertia/u·Å² :        0.4479011E+05   0.5667460E+05   0.6930399E+05
rotational constants/cm⁻¹ :        0.3763695E-03   0.2974460E-03   0.2432419E-03

 * 235 selected distances

     #   Z          #   Z                                           value/Å
     8   6 C        9   6 C                                       1.3909098
     9   6 C       10   6 C                                       1.3839170
     2   7 N       11   6 C                                       1.3733523
    10   6 C       11   6 C                                       1.3998539
    11   6 C       12   6 C                                       1.3968886
     8   6 C       13   6 C                                       1.3877266
    12   6 C       13   6 C                                       1.3868689
     2   7 N       15   6 C                                       1.3648790
     3   7 N       15   6 C                                       1.3328225
     3   7 N       16   6 C                                       1.4419162
    17   6 C       18   6 C                                       1.5308386
    17   6 C       19   6 C                                       1.5324943
    17   6 C       20   6 C                                       1.5332029
    23   6 C       24   6 C                                       1.3860757
    22   6 C       25   6 C                                       1.3891629
    24   6 C       25   6 C                                       1.3871925
     4   7 N       26   6 C                                       1.3629656
     5   7 N       26   6 C                                       1.3372981
     5   7 N       27   6 C                                       1.4510672
    28   6 C       29   6 C                                       1.5304724
    28   6 C       30   6 C                                       1.5330682
    28   6 C       31   6 C                                       1.5363070
    31   6 C       32   6 C                                       1.5294312
     7   7 N       33   6 C                                       1.3336259
     6   7 N       34   6 C                                       1.3335252
     6   7 N       35   6 C                                       1.4568483
    35   6 C       36   6 C                                       1.5291441
    36   6 C       37   6 C                                       1.5244102
     6   7 N       38   6 C                                       1.4584039
    37   6 C       38   6 C                                       1.5348888
     7   7 N       39   6 C                                       1.4561929
    39   6 C       40   6 C                                       1.5263928
    40   6 C       41   6 C                                       1.5236739
     7   7 N       42   6 C                                       1.4598750
    41   6 C       42   6 C                                       1.5358535
    45   6 C       46   6 C                                       1.3952112
    45   6 C       47   6 C                                       1.3918538
    47   6 C       48   6 C                                       1.3800516
    48   6 C       49   6 C                                       1.3924615
    50   6 C       51   6 C                                       1.3955399
    50   6 C       52   6 C                                       1.3908249
    51   6 C       53   6 C                                       1.3755941
    52   6 C       54   6 C                                       1.3799141
    53   6 C       55   6 C                                       1.3939353
    54   6 C       55   6 C                                       1.3927998
    46   6 C       56   6 C                                       1.3767569
    49   6 C       56   6 C                                       1.3943931
    14   6 C       57   8 O                                       1.2123721
    14   6 C       58   8 O                                       1.3233248
    32   6 C       58   8 O                                       1.4368545
    34   6 C       59   8 O                                       1.2324010
    33   6 C       60   8 O                                       1.2351077
    43   6 C       61   9 F                                       1.3424221
    43   6 C       62   9 F                                       1.3500944
    43   6 C       63   9 F                                       1.3409902
    44   6 C       64   9 F                                       1.3464464
    44   6 C       65   9 F                                       1.3384185
    44   6 C       66   9 F                                       1.3523073
    21   6 C       67   9 F                                       1.3510088
    21   6 C       68   9 F                                       1.3434868
    21   6 C       69   9 F                                       1.3407671
    26   6 C       70  16 S                                       1.6647851
    15   6 C       71  16 S                                       1.6615853
     8   6 C       72   1 H                                       1.0781527
    10   6 C       73   1 H                                       1.0814006
    12   6 C       74   1 H                                       1.0784053
     2   7 N       75   1 H                                       1.0286785
     3   7 N       76   1 H                                       1.0141286 (min)
    16   6 C       77   1 H                                       1.0950016
    18   6 C       78   1 H                                       1.0868029
    18   6 C       79   1 H                                       1.0859194
    18   6 C       80   1 H                                       1.0863269
    19   6 C       81   1 H                                       1.0872143
    19   6 C       82   1 H                                       1.0867902
    19   6 C       83   1 H                                       1.0887305
    20   6 C       84   1 H                                       1.0903010
    20   6 C       85   1 H                                       1.0871938
    25   6 C       86   1 H                                       1.0778594
     5   7 N       87   1 H                                       1.0187345
    27   6 C       88   1 H                                       1.0949870
    29   6 C       89   1 H                                       1.0857284
    29   6 C       90   1 H                                       1.0857663
    29   6 C       91   1 H                                       1.0861075
    30   6 C       92   1 H                                       1.0856713
    30   6 C       93   1 H                                       1.0875373
    30   6 C       94   1 H                                       1.0866852
    31   6 C       95   1 H                                       1.0912752
    31   6 C       96   1 H                                       1.0918611
    32   6 C       97   1 H                                       1.0927859
    32   6 C       98   1 H                                       1.0884839
    35   6 C       99   1 H                                       1.0910650
    35   6 C      100   1 H                                       1.0929389
    36   6 C      101   1 H                                       1.0890538
    36   6 C      102   1 H                                       1.0866769
    39   6 C      103   1 H                                       1.0917065
    39   6 C      104   1 H                                       1.0914426
    40   6 C      105   1 H                                       1.0891518
    40   6 C      106   1 H                                       1.0864688
    20   6 C      107   1 H                                       1.0868151
    37   6 C      108   1 H                                       1.0863598
    37   6 C      109   1 H                                       1.0890946
    46   6 C      110   1 H                                       1.0785319
    47   6 C      111   1 H                                       1.0787839
    48   6 C      112   1 H                                       1.0790173
    41   6 C      113   1 H                                       1.0889574
    41   6 C      114   1 H                                       1.0863800
    51   6 C      115   1 H                                       1.0782227
    52   6 C      116   1 H                                       1.0787076
    53   6 C      117   1 H                                       1.0784612
    54   6 C      118   1 H                                       1.0788749
    56   6 C      119   1 H                                       1.0786497
     1  44 Ru     120  44 Ru                                      2.7826642 (max)
     1  44 Ru     121   6 C                                       1.9088054
     1  44 Ru     122  16 S                                       2.3757543
   120  44 Ru     122  16 S                                       2.3457460
     1  44 Ru     123  16 S                                       2.3531040
   120  44 Ru     123  16 S                                       2.3642619
   120  44 Ru     124  17 Cl                                      2.4408787
     1  44 Ru     126   6 C                                       2.1792173
   125   6 C      126   6 C                                       1.4376046
   126   6 C      127   6 C                                       1.4569740
   127   6 C      128   6 C                                       1.4011728
   125   6 C      129   6 C                                       1.4218087
   128   6 C      129   6 C                                       1.4526053
   125   6 C      130   6 C                                       1.4943372
   130   6 C      131   1 H                                       1.0895541
   130   6 C      132   1 H                                       1.0878056
   130   6 C      133   1 H                                       1.0876295
   126   6 C      134   6 C                                       1.4955854
   134   6 C      135   1 H                                       1.0876012
   134   6 C      136   1 H                                       1.0897928
   134   6 C      137   1 H                                       1.0885083
   127   6 C      138   6 C                                       1.4898090
   138   6 C      139   1 H                                       1.0854754
   138   6 C      140   1 H                                       1.0895708
   138   6 C      141   1 H                                       1.0894018
   128   6 C      142   6 C                                       1.4931511
   142   6 C      143   1 H                                       1.0892253
   142   6 C      144   1 H                                       1.0933252
   142   6 C      145   1 H                                       1.0863568
   129   6 C      146   6 C                                       1.4942161
   147   6 C      148   6 C                                       1.4311716
   148   6 C      149   6 C                                       1.4449693
   149   6 C      150   6 C                                       1.4228751
   147   6 C      151   6 C                                       1.4271616
   150   6 C      151   6 C                                       1.4509054
   147   6 C      152   6 C                                       1.4915293
   152   6 C      153   1 H                                       1.0854603
   152   6 C      154   1 H                                       1.0907502
   152   6 C      155   1 H                                       1.0901629
   148   6 C      156   6 C                                       1.4933899
   156   6 C      157   1 H                                       1.0862107
   156   6 C      158   1 H                                       1.0922541
   156   6 C      159   1 H                                       1.0903276
   149   6 C      160   6 C                                       1.4893336
   160   6 C      161   1 H                                       1.0872503
   160   6 C      162   1 H                                       1.0885333
   160   6 C      163   1 H                                       1.0917969
   150   6 C      164   6 C                                       1.4889676
   164   6 C      165   1 H                                       1.0874258
   164   6 C      166   1 H                                       1.0867504
   164   6 C      167   1 H                                       1.0885165
   151   6 C      168   6 C                                       1.4934926
   168   6 C      169   1 H                                       1.0883057
   168   6 C      170   1 H                                       1.0917554
   168   6 C      171   1 H                                       1.0853295
   122  16 S      172   6 C                                       1.8119854
   172   6 C      173   1 H                                       1.0868866
   172   6 C      174   1 H                                       1.0863032
   172   6 C      175   1 H                                       1.0869372
   123  16 S      176   6 C                                       1.8122948
   176   6 C      177   1 H                                       1.0866723
   176   6 C      178   1 H                                       1.0856019
   176   6 C      179   1 H                                       1.0857352
   180  16 S      181   8 O                                       1.4693169
   180  16 S      182   8 O                                       1.4692620
   180  16 S      183   8 O                                       1.4707876
   180  16 S      184   6 C                                       1.7491019
   121   6 C      185   6 C                                       1.2372940
   185   6 C      186   6 C                                       1.3535819
   186   6 C      187   6 C                                       1.4193367
   186   6 C      188   1 H                                       1.0827626
   187   6 C      189   6 C                                       1.4249556
   187   6 C      190   6 C                                       1.4073240
   190   6 C      191   6 C                                       1.3719856
   191   6 C      192   6 C                                       1.3926169
   189   6 C      193   6 C                                       1.3942013
   192   6 C      193   6 C                                       1.3815995
   146   6 C      194   1 H                                       1.0888682
   146   6 C      195   1 H                                       1.0906917
   146   6 C      196   1 H                                       1.0917817
   193   6 C      197   1 H                                       1.0771000
   190   6 C      198   1 H                                       1.0799570
    23   6 C      199   1 H                                       1.0776269
   189   6 C      200   8 O                                       1.3387957
   200   8 O      201   6 C                                       1.4225197
   201   6 C      202   1 H                                       1.0994632
   201   6 C      203   1 H                                       1.0977720
     4   7 N      204   1 H                                       1.0300232
    55   6 C      205   7 N                                       1.4186618
    49   6 C      206   7 N                                       1.4175170
   206   7 N      207   8 O                                       1.2208418
   205   7 N      208   8 O                                       1.2222704
   206   7 N      209   8 O                                       1.2243709
   205   7 N      210   8 O                                       1.2219246
   191   6 C      211   1 H                                       1.0791373
     4   7 N      212   6 C                                       1.3782137
    23   6 C      212   6 C                                       1.3966966
    22   6 C      213   6 C                                       1.3808551
   212   6 C      213   6 C                                       1.4005007
   213   6 C      214   1 H                                       1.0787328
   215   6 C      216   1 H                                       1.0799655
   215   6 C      217   6 C                                       1.3276559
   218   6 C      219   1 H                                       1.0855998
Note: The following floating-point exceptions are signalling: IEEE_UNDERFLOW_FLAG
normal termination of xtb
   218   6 C      220   1 H                                       1.0893325
   218   6 C      221   1 H                                       1.0884224
   222   6 C      223   1 H                                       1.0891190
   222   6 C      224   1 H                                       1.0863713
   222   6 C      225   1 H                                       1.0891137
    42   6 C      226   1 H                                       1.0962699
    38   6 C      227   1 H                                       1.0946255
   192   6 C      228   1 H                                       1.0787759
   184   6 C      229   6 C                                       1.3740920
   229   6 C      230   6 C                                       1.3848559
   230   6 C      231   6 C                                       1.3919531
   231   6 C      232   6 C                                       1.3935900
   184   6 C      233   6 C                                       1.3765024
   232   6 C      233   6 C                                       1.3832984
   229   6 C      234   1 H                                       1.0787204
   230   6 C      235   1 H                                       1.0789756
   232   6 C      236   1 H                                       1.0788760
   233   6 C      237   1 H                                       1.0786750
   238   6 C      239   1 H                                       1.0858965
   238   6 C      240   1 H                                       1.0863758
   238   6 C      241   1 H                                       1.0893591

 * 13 distinct bonds (by element types)

   Z      Z             #   av. dist./Å        max./Å        min./Å
   1 H    6 C         106     1.0866408     1.0994632     1.0771000
   6 C    6 C          73     1.4319461     1.5363070     1.2372940
   1 H    7 N           4     1.0228912     1.0300232     1.0141286
   6 C    7 N          16     1.3985728     1.4598750     1.3328225
   6 C    8 O           7     1.3144822     1.4368545     1.2123721
   7 N    8 O           4     1.2223519     1.2243709     1.2208418
   6 C    9 F           9     1.3451046     1.3523073     1.3384185
   6 C   16 S           5     1.7399505     1.8122948     1.6615853
   8 O   16 S           3     1.4697888     1.4707876     1.4692620
   6 C   44 Ru          2     2.0440113     2.1792173     1.9088054
  16 S   44 Ru          4     2.3597165     2.3757543     2.3457460
  17 Cl  44 Ru          1     2.4408787     2.4408787     2.4408787
  44 Ru  44 Ru          1     2.7826642     2.7826642     2.7826642


optimized geometry written to: xtbopt.xyz


           -------------------------------------------------
          | TOTAL ENERGY             -399.668124986592 Eh   |
          | GRADIENT NORM               0.000995421986 Eh/α |
          | HOMO-LUMO GAP               0.753214203865 eV   |
           -------------------------------------------------

------------------------------------------------------------------------
 * finished run on 2026/09/29 at 11:32:59.941     
------------------------------------------------------------------------
 total:
 * wall-time:     0 d,  0 h,  1 min, 56.323 sec
 *  cpu-time:     0 d,  0 h,  4 min, 40.223 sec
 * ratio c/w:     2.409 speedup
 SCF:
 * wall-time:     0 d,  0 h,  0 min,  0.714 sec
 *  cpu-time:     0 d,  0 h,  0 min,  1.677 sec
 * ratio c/w:     2.348 speedup
 ANC optimizer:
 * wall-time:     0 d,  0 h,  1 min, 55.570 sec
 *  cpu-time:     0 d,  0 h,  4 min, 38.477 sec
 * ratio c/w:     2.410 speedup

