241
 energy: -399.668124986592 gnorm: 0.000995421986 xtb: 6.7.1 (edcfbbe)
Ru           0.16245356824488        1.00323983682946       -1.55755350630717
N           -3.15635425494480       -1.14774324859819        3.17146561673502
N           -4.77588776152680       -2.24226824584930        2.05637083535139
N            1.41132197784176       -4.38355666919814       -0.50822555756583
N            2.61765843144303       -4.18002072908662        1.43118689399179
N           -7.67480203504849       -1.05946287509755        0.39238168168858
N            5.97649971483779       -2.96874648848265        1.53018226934139
C           -0.51521410413894        1.57412196967177        4.92421939287158
C           -0.15760571842781        0.25212076302574        4.68119947462673
C           -1.06844831678346       -0.62381290189782        4.11699037951456
C           -2.36195367025294       -0.20754461510114        3.78060477210889
C           -2.73369270282422        1.11162498709198        4.05060311233079
C           -1.80864618362732        1.97414758940438        4.61959228060045
C            1.22400822704942       -0.23718452071756        4.94507394631833
C           -4.46168578801661       -1.16332877596621        2.77301737694125
C           -6.08964435696296       -2.54704716026247        1.54619881507838
C           -6.11816072387090       -4.02131765242697        1.05502025270688
C           -7.48964777178119       -4.33767580321559        0.45301758753409
C           -5.88116428143289       -4.93902576231969        2.25925562542821
C           -5.03747290884055       -4.27722349743259       -0.00202120284584
C           -2.22569435362274       -4.79464772490700       -3.65490738215379
C           -0.75153482873804       -4.61870445091221       -3.42943748100281
C            1.95813344217628       -4.40276539734509       -2.91484717149075
C            1.48083201300142       -4.46033598375278       -4.21487579833459
C            0.12890399759422       -4.57653003733376       -4.50313301571802
C            2.62705796037569       -4.37246053814830        0.10784092161999
C            3.85196287106618       -4.04421174609509        2.18194926217962
C            3.57685009666844       -3.88596662107021        3.70618639156304
C            4.90619537824551       -3.77526181485768        4.45647361645655
C            2.82973935252397       -5.13393370633435        4.19064624860798
C            2.72855650573883       -2.62480054753637        3.93001005263328
C            2.44463326695755       -2.22518786189389        5.37875314402225
C            4.65397633102850       -2.84257713500456        1.64667665845851
C           -6.43683694972455       -1.55412377053185        0.42466490749860
C           -8.72163250697697       -1.18353505720676        1.39794548192719
C           -9.86625878648267       -0.32293725292931        0.86177073640036
C           -9.65608790471560       -0.37067239610958       -0.64732690233163
C           -8.12753748095805       -0.29966703700668       -0.76722269775402
C            6.76634404204382       -4.19193762653576        1.50904868891164
C            8.12892052858140       -3.73716068403216        0.99287244499131
C            8.23619133275823       -2.31818603184352        1.53746924984105
C            6.80858897820198       -1.78214894140133        1.35454499783918
C            2.47442436793823       -4.44202934192198       -5.34333193451410
C           -2.18241839222299        3.39728619325832        4.91433731850204
C           -7.65983366748721        1.13171518950407       -0.78331770604127
C           -7.61328784174693        1.80343783178735       -2.00529815703155
C           -7.32791981590952        1.81310823594455        0.38406966610944
C           -6.93453581447333        3.13495188141688        0.33386667327596
C           -6.86291106749688        3.78289891501052       -0.89657352488875
C            6.64424401919153       -1.09226592340557        0.02658924876644
C            7.04025470509237        0.24238346527049       -0.07045556894337
C            6.14559921793133       -1.74071533702050       -1.09824865967407
C            6.87789994030887        0.94074101510495       -1.24442170958064
C            5.95993980900448       -1.04922139177449       -2.27787963302185
C            6.29903184143994        0.30029301645608       -2.33885915964189
C           -7.21250070748137        3.11888595929477       -2.07182062679609
O            2.22287614571062        0.42239000188160        4.75253804168851
O            1.21346370993708       -1.48444383503061        5.38713880970472
O           -5.60517402037695       -1.25646821362851       -0.43472434122200
O            4.09246300105419       -1.76511801830753        1.42469625514657
F            1.97409661654479       -3.91744454444867       -6.47319022216543
F            2.89485529198215       -5.68274223642961       -5.66986522123610
F            3.58149073127728       -3.73990819585404       -5.06104794092175
F           -1.93310217537776        3.74073918437470        6.19214757875515
F           -3.47189909436673        3.68285815826351        4.69742252457459
F           -1.47806113545418        4.27543002836850        4.16501840660239
F           -2.62319800218128       -6.06616350460801       -3.43026784547519
F           -2.97942450286849       -4.03114675665109       -2.84625817381427
F           -2.61477436849473       -4.50610707001961       -4.90511424075539
S            4.07081008423827       -4.66814823917350       -0.66653462221467
S           -5.60269417670511       -0.01951418463259        3.16115790517367
H            0.19716977248010        2.26226226188587        5.35011271122702
H           -0.77278975135043       -1.64267299049988        3.90737817812937
H           -3.73168320731920        1.45185838153318        3.82429796701116
H           -2.67794319354743       -2.04148551138781        2.99674594176833
H           -4.03204117442401       -2.90820572806798        1.87839296538464
H           -6.80576738086031       -2.42662822469357        2.36576906967043
H           -7.50121199085785       -5.36601362809406        0.10155225117318
H           -8.27001661746521       -4.22881429601686        1.20027544104047
H           -7.70047631726489       -3.68736818832442       -0.39123194689771
H           -6.63400733136615       -4.77221455908111        3.02569940868330
H           -5.92958794662368       -5.97766491778087        1.94303343514435
H           -4.89891602041039       -4.76767483966646        2.69647535192396
H           -4.03603742085413       -4.30103018577756        0.42846262257351
H           -5.05204002933455       -3.50900453834684       -0.77118802159604
H           -0.22435044272332       -4.62699899706694       -5.52020964950914
H            1.73148090681065       -3.98192578090213        1.89299591464594
H            4.43542917915728       -4.95801857166453        2.02858538001591
H            4.71587778598968       -3.68431474597203        5.52151533737436
H            5.50414159330868       -4.66679329853664        4.29362339690533
H            5.46330209870466       -2.90090687599668        4.13279963413676
H            2.79972186368162       -5.15702038110577        5.27565678200606
H            1.80557583512823       -5.14435809796406        3.82497219693859
H            3.33154982984407       -6.03366565659864        3.84488150104674
H            1.74973644302952       -2.77852318461186        3.47266772889202
H            3.18886490703344       -1.77411052730634        3.42344996566316
H            3.24105359204410       -1.60679348511034        5.80004153744056
H            2.24345965759130       -3.08695421972838        6.01253937354045
H           -9.03794867704597       -2.22401888102849        1.48603736824787
H           -8.35870422918623       -0.83375385401033        2.36771415730210
H           -9.77571338056493        0.70116623153106        1.22100820375935
H          -10.83540293104764       -0.71296389675633        1.16094527044571
H            6.85734592571138       -4.60185490721043        2.51677357664756
H            6.30172841237765       -4.92894870327164        0.85163420929842
H            8.13420244923594       -3.72340490728631       -0.09617961571582
H            8.93022043914632       -4.38253993143499        1.34189719449254
H           -5.20538437618634       -5.24047829369617       -0.47648160372049
H          -10.14340401471097        0.44831479144479       -1.16882517785102
H          -10.01123987171741       -1.31754181409275       -1.05159436710545
H           -7.88489125731458        1.27928263123074       -2.90791866608028
H           -7.34552079812144        1.30720467919399        1.33671143715540
H           -6.67446404801475        3.67203253606631        1.23285786048006
H            8.48942768525977       -2.33675517653613        2.59640956707625
H            8.96391872294789       -1.71270087147996        1.00453215373737
H            7.45784246569257        0.73460609774206        0.79320025855244
H            5.86736094224489       -2.78165717819077       -1.04693185795864
H            7.15955183024886        1.97780195460540       -1.33528002730270
H            5.55394304198327       -1.53530611751714       -3.15129764288927
H           -7.15958660449524        3.64753742680205       -3.01054991277741
Ru          -1.60375661738317        3.13499491195415       -1.27587940356726
C            1.76155510539148        2.04470521613837       -1.51558490832962
S           -0.63661205994165        1.92097647054157        0.48290252330885
S           -0.73121295037365        2.29785922723809       -3.30753010743870
Cl           0.12921454197437        4.84504383313022       -1.10143383202511
C            1.37588882568491       -0.89162526367751       -1.62219680990150
C            0.61605387022839       -0.70776106861594       -2.82865919079018
C           -0.79407510169269       -0.86839510742072       -2.49925693173770
C           -0.89603558733571       -1.00846625336527       -1.10883647147298
C            0.44515132950043       -0.98483977832546       -0.55141277760193
C            2.85937444157406       -1.06604348309020       -1.57869964493355
H            3.11301650460046       -2.02783847325717       -2.02338375700349
H            3.24482142203359       -1.04197809088668       -0.56175702854127
H            3.35511582331945       -0.28710721978413       -2.15353564614629
C            1.16555588512877       -0.72660606738603       -4.21951059464022
H            0.53306467244398       -0.14767392176019       -4.88859105000393
H            1.19768242914887       -1.75461960222526       -4.57979412077495
H            2.17684573729798       -0.32473174051054       -4.24480810715306
C           -1.84458522201006       -1.02942947833113       -3.54330050143685
H           -2.81923952059219       -1.20172475103531       -3.09763262618547
H           -1.58486172937121       -1.88285078310970       -4.16890433993483
H           -1.88408919561123       -0.15156581655826       -4.18718775072874
C           -2.08842394830075       -1.38540437188503       -0.29297652594986
H           -2.15690480892639       -0.76933035143753        0.60266556465807
H           -1.97803756915695       -2.42228894251746        0.03572544465679
H           -3.01758070246574       -1.29987721652640       -0.84932504826703
C            0.75461136742701       -1.25086948213443        0.88599603306094
C           -3.20918082235771        4.76436908314230       -1.24404850415622
C           -3.27490371485117        3.96070786243178       -0.06165227911163
C           -3.62588091269973        2.61441500448208       -0.45183982384143
C           -3.69466271828786        2.57361594691918       -1.87246564485211
C           -3.41051457706034        3.90753804140511       -2.36747863013590
C           -3.10055986670730        6.25186211282466       -1.25905276231705
H           -3.16876098187573        6.63731815612283       -2.27147369505844
H           -3.90913994647201        6.67062833678789       -0.65857892529780
H           -2.15990973090851        6.58309831403573       -0.81869511187720
C           -3.30865084760887        4.51026401549726        1.32653430646063
H           -3.29255999792473        3.71202093275932        2.06301416279441
H           -4.22322454391136        5.09355909804073        1.45436492564536
H           -2.46501447721530        5.17682045455239        1.50762599072428
C           -3.99950817012909        1.54494137902749        0.51498132123511
H           -4.41974613568358        0.67707506061975        0.01266561375388
H           -4.73528819737964        1.92788209661561        1.21988465968374
H           -3.13220949232015        1.22441230898492        1.09556245160767
C           -4.20673406864070        1.47220544369394       -2.73368681347918
H           -3.49719249413745        1.24843154975507       -3.52676346544775
H           -4.39603258979360        0.57403824119175       -2.15188964992610
H           -5.13867471432549        1.79395408536790       -3.19502448495584
C           -3.59660346183076        4.36077055262867       -3.77831910320835
H           -2.84158202297969        5.09555112625447       -4.05117293725802
H           -4.57640094523197        4.83539902586908       -3.85989348183171
H           -3.54152594918401        3.52092782288137       -4.46357130601335
C            0.54515890949035        2.80539427255999        1.53386066580846
H           -0.03021081424916        3.45287553552185        2.19039692512348
H            1.22772759229264        3.39191278107188        0.92546073325652
H            1.08809748862218        2.06685348880671        2.11799041703441
C            0.49226408904937        3.33550461493106       -4.15062427547197
H            0.87203990749266        4.09087949483104       -3.46795631464031
H           -0.01416181693447        3.79575017886950       -4.99338052073828
H            1.29643239822445        2.69037326271363       -4.49112334517991
S           -1.14937358495324       -4.42868268873827        2.21904539055082
O            0.03164495501812       -3.72056613207623        2.73154686021061
O           -1.06124793574610       -4.58909726725763        0.76122799989686
O           -2.39364918895162       -3.74171484327466        2.59729032691634
C           -1.14346471602805       -6.01898817390878        2.94722846168957
C            2.88108026524657        2.49528454240038       -1.24256890802929
C            4.07133112475962        3.02219220064122       -0.87128101084424
C            4.67498362163939        2.72805785635071        0.37916087298283
H            4.57874938131474        3.71174112983412       -1.53417134509213
C            5.86708940084822        3.40199629167861        0.77310097200076
C            4.10173405806793        1.79319516387755        1.26119105913909
C            4.65481409033278        1.54251430656211        2.49147794581442
C            5.81008092939574        2.22001025993111        2.87323586729204
C            6.41215460549207        3.13167271605965        2.02754352225872
H            1.82806875745103       -1.31297174537284        1.05765330843573
H            0.28980045190010       -2.18687836421722        1.19816010508888
H            0.34915355224480       -0.47399301053402        1.53719034427818
H            7.30600010824233        3.63673601115442        2.35326651986374
H            3.21293416437310        1.27076066161761        0.93962634760929
H            3.01998637277733       -4.33546109034495       -2.74391453313079
O            6.38640978534332        4.26046987648236       -0.11329796892485
C            7.57852965165411        4.96895866017494        0.20364960609051
H            8.38267619300727        4.25546773587574        0.43407979380633
H            7.41144653453913        5.60370215803604        1.08358543422148
H            0.58528751314466       -4.37413005116945        0.10701894546721
N            6.01130706617789        1.04974155596760       -3.50853532408723
N           -6.41600056347291        5.12656407330600       -0.96129580882138
O           -6.31019068713676        5.65547004570467       -2.05652046369064
O            6.47446367263992        2.17616390832309       -3.61150774487758
O           -6.14593555094261        5.70772668713926        0.08196766938535
O            5.28614083936708        0.55114987306577       -4.35626160519353
H            4.18523203132164        0.83837000748823        3.16096318834698
C            1.06613739078318       -4.44702869928312       -1.84100140658280
C           -0.30098731055064       -4.55314828325831       -2.12580032973319
H           -1.00341962697832       -4.59283411641338       -1.30807296018662
C            7.94835422068518        5.79994124793085       -0.98792002322385
H            7.41851784371362        5.54676199234912       -1.89428585752378
C            8.85783296904431        6.76693779379736       -0.96703917575721
C            9.61023809767126        7.12245302616972        0.28305167787062
H           10.32908069447035        7.91208983860323        0.08743562308488
H            8.92375636216812        7.46361033452227        1.05700224969301
H           10.14076369942970        6.25474963625785        0.67073257180747
C            9.19422232415603        7.56211164858886       -2.18886518461419
H           10.24958568051069        7.44562473869739       -2.43139151521921
H            8.60064987784043        7.24430991193179       -3.04143554250346
H            9.01023278481124        8.61988497651443       -2.00602110030252
H            6.53780675072395       -1.05569493464131        2.12962496805923
H           -7.75564660342781       -0.79337292556752       -1.67063648382497
H            6.24391855061801        2.03012126151824        3.84250590963270
C           -2.05230035174018       -6.33634288198999        3.92775499953961
C           -1.99373203141367       -7.58948385871161        4.51429828529581
C           -1.02410020472982       -8.50848621194709        4.12342520431613
C           -0.11214661938008       -8.15226738728700        3.13168863194099
C           -0.17000908190370       -6.90306952047311        2.54035893452639
H           -2.78958996624825       -5.60118837338614        4.20987080384217
H           -2.70508134244556       -7.85457518201808        5.28104264064104
H            0.64365236165417       -8.85765690740610        2.82319759626572
H            0.51638957467326       -6.60238178653388        1.76448305090088
C           -0.94447739340701       -9.85341630148240        4.77256928218325
H           -1.90342033952838      -10.13639111225207        5.19627272296801
H           -0.62995610359276      -10.60786873452857        4.05696460043680
H           -0.21115833579549       -9.82729035031416        5.57771752700784
