78
Part 3c canonical analysis input derived from fecltpp.xyz; metal-centred porphyrin frame
N    1.9537320390  0.0000000000 -0.0517972447
N    0.0404801337 -1.9693997180  0.0006366866
C    2.2711915176  2.4304637844 -0.3906012236
C    2.7125577268  1.0358452113 -0.2334327354
C    4.1384429855  0.6974706052 -0.1506581893
H    4.9863458136  1.3582490001 -0.2688407676
C    4.2158370482 -0.6208087957  0.1599728222
H    5.1301856150 -1.1777549265  0.3121258728
C    2.8372255225 -1.0920134697  0.1874108140
C    2.4884436959 -2.3652495049  0.4063116230
C    1.1052382218 -2.7861007730  0.2056014858
C    0.7542486812 -4.1159846338  0.0822127355
H    1.3982095733 -4.9821606652  0.1631982193
C   -0.5675828039 -4.1365819597 -0.2206111013
H   -1.1608443098 -5.0225164652 -0.4030695848
C   -0.9824637221 -2.8198747567 -0.2472028417
C    3.5264534568 -3.4078432754  0.6791097511
C    3.6390672518 -4.0751340821  2.0183333450
C    4.5872554905 -5.0111334481  2.2276849775
C    5.5042282405 -5.3967903900  1.1281686493
H    6.2601645722 -6.1588601094  1.2911302842
C    5.3971679249 -4.8063380765 -0.0724320050
C    4.3725150352 -3.7653539246 -0.3028863576
N   -1.9605704138 -0.0609223094 -0.0516951847
N   -0.0405145008  1.9503636350  0.0000814805
C   -2.3678536957 -2.4401859381 -0.5087206434
C   -2.7827992349 -1.1861586856 -0.3317227835
C   -4.1788756181 -0.7766132011 -0.3989682240
H   -5.0551791833 -1.3799565466 -0.5986069488
C   -4.1771353084  0.5455708318 -0.0930200910
H   -5.0615527163  1.1647791258 -0.0333414329
C   -2.7714053542  0.9438321859  0.0800598783
C   -2.3861086876  2.3500983931  0.2900746072
C   -1.1177500862  2.7599420714  0.1643374995
C   -0.7485650862  4.0952435651  0.1205625426
H   -1.3836453847  4.9677449789  0.2087446739
C    0.5837789693  4.1200474822 -0.1462770335
H    1.1796239081  5.0149904433 -0.2743471498
C    1.0015246833  2.7997942113 -0.1824273655
C   -3.4576785498  3.3485009882  0.5602935310
C   -3.5682972917  3.8788619991  1.8577471840
C   -4.5654413068  4.8088758126  2.1584609391
C   -5.4503200195  5.2281772490  1.1628141207
H   -6.2190606442  5.9533709481  1.3970330178
C   -5.3421707394  4.7112602115 -0.1329642600
C   -4.3526813288  3.7673766122 -0.4352064358
Fe   0.0000000000  0.0000000000  0.0000000000
C   -3.3262664693 -3.4796498263 -0.9596552153
C   -4.0883194565 -4.2286466763 -0.0554906219
C   -3.4637529307 -3.7057528276 -2.3409355433
C   -4.9824847167 -5.1954023215 -0.5323809218
C   -4.3572453415 -4.6698256087 -2.8126180784
H   -5.5728309385 -5.7751957681  0.1637600671
C   -5.1172002741 -5.4148863649 -1.9084229689
H   -4.4603696458 -4.8379881274 -3.8779882488
H   -5.8097600761 -6.1614911308 -2.2753778281
C    3.3120034108  3.4503236042 -0.7127740364
C    3.8840770153  4.2109364439  0.2413444735
C    3.7230556918  3.6263430248 -2.1365454405
C    4.9223489590  5.2073807900 -0.1274183206
C    4.6552125429  4.5361773310 -2.4666560602
H    5.3883494754  5.8106613892  0.6439443593
C    5.2875276812  5.3620421800 -1.4120484018
H    4.9474247116  4.6690443216 -3.5045565650
H    6.0463675464  6.0902926763 -1.6815733759
H    4.6895326126 -5.4918769262  3.1979975809
H    6.0578708049 -5.0879837505 -0.8835543487
H   -4.6511998235  5.2033280626  3.1633849141
H   -6.0269791941  5.0429480934 -0.9019087350
H    3.5984236142  4.0946273841  1.2811841520
H    3.2616916910  3.0268954255 -2.9167202107
H   -3.9892664487 -4.0628610055  1.0088079427
H   -2.8799961809 -3.1328711227 -3.0529194355
H   -2.8897409965  3.5584073340  2.6397331599
H   -4.2758923017  3.3737579811 -1.4405276965
H    2.9780425931 -3.8021621941  2.8375283643
H    4.2943237884 -3.3007066282 -1.2793136767
Cl   0.3984586170 -0.2949092416  1.7425671001
