78
 energy: -127.901172115604 gnorm: 0.000078613467 xtb: 6.7.1 (edcfbbe)
N            2.08081615480322        0.00134022614860       -0.20992820853300
N            0.07436020617098       -2.04826097316124       -0.21186517047159
C            2.40543336500566        2.43355724708645       -0.27390667823189
C            2.85970844782071        1.12002827712697       -0.18011494527724
C            4.23078713733587        0.74801046210720        0.02963031477213
H            5.04784569637671        1.43549582526860        0.12816743615339
C            4.26437469686339       -0.60318038115945        0.12636149080715
H            5.11409613809252       -1.22786462795134        0.31933016824711
C            2.91714610744901       -1.06925095473939       -0.04706490169530
C            2.52877823884080       -2.40244413562095       -0.05225666211941
C            1.18624385169674       -2.83987925937394       -0.22332420939314
C            0.82540314082426       -4.18026726396922       -0.48265958810242
H            1.50426435751498       -5.00495507520673       -0.57459168255577
C           -0.54328502448601       -4.20415122643542       -0.61374004604925
H           -1.16539984573423       -5.05737256745115       -0.79798450988680
C           -0.99290285365056       -2.87533138452605       -0.43934436961741
C            3.55515380249032       -3.44242954583079        0.09883827196634
C            3.44812905487162       -4.38197014873071        1.12466887395046
C            4.41493113504759       -5.35529270908536        1.28783334309617
C            5.49555159549219       -5.41786500825818        0.42234822157194
H            6.24803291361367       -6.18199777750909        0.54845926565277
C            5.60422137177704       -4.49789415275594       -0.60763616778974
C            4.64545057764761       -3.51493086601079       -0.76740605901788
N           -2.03351867361199       -0.08282673098325       -0.13954225899256
N           -0.02508969243277        1.97167967266763       -0.05759710035911
C           -2.35659664549253       -2.49893329458357       -0.40606433711660
C           -2.81352541220044       -1.20039409839325       -0.20919056405074
C           -4.19538716422209       -0.83054615642279       -0.08473754726055
H           -5.02178076432699       -1.51286479951519       -0.12141000013791
C           -4.23176922978743        0.51221661946047        0.09300093176236
H           -5.09214768629506        1.13047619012932        0.25675641809461
C           -2.87559749748992        0.98084870564827        0.02543043046224
C           -2.48645320457453        2.31329188085116        0.07169094613315
C           -1.14273547690412        2.75491982045719       -0.07983545957036
C           -0.79157795027593        4.09389765785538       -0.35673526589639
H           -1.47709754627283        4.91094336317595       -0.46633914599291
C            0.57757937666169        4.12484182132873       -0.49028341161456
H            1.18888497201882        4.97130988666878       -0.73315309781192
C            1.03793909915234        2.80627989723807       -0.27812342982359
C           -3.50983110401756        3.35507862459794        0.23362852875055
C           -3.41248749762764        4.26184779468281        1.28948388259440
C           -4.37212298465660        5.23993751500728        1.46546749920486
C           -5.43557042608512        5.34080499909803        0.58251605718640
H           -6.18283873718955        6.10833035635526        0.71862530702130
C           -5.53239988670161        4.45614502323418       -0.47902063212655
C           -4.58050802998319        3.46863506538569       -0.65226216542174
Fe           0.02861870139392       -0.05120169821556        0.20107130686424
C           -3.35712328128016       -3.57074633456749       -0.56902264826059
C           -4.20725354016972       -3.91589447131008        0.47846148010295
C           -3.46549448950667       -4.25222482605083       -1.77894319729350
C           -5.14341272164565       -4.92105920600440        0.31795931396071
C           -4.40913818994312       -5.24995963452370       -1.93874947533464
H           -5.79220762598245       -5.18530071958531        1.14020245438997
C           -5.24958921886765       -5.58856570264221       -0.89095242952254
H           -4.48926440828678       -5.76559420754011       -2.88462690399523
H           -5.98355619082872       -6.37071481560591       -1.01595419152660
C            3.40505167663277        3.50743641988617       -0.34302146087329
C            3.39560353835833        4.55446645073056        0.57863282581914
C            4.38657201906629        3.49559831747332       -1.33455546911015
C            4.34320321720668        5.55781427671140        0.51042292311667
C            5.32547774817561        4.50707891474123       -1.40603874203903
H            4.33023547565795        6.35740402937904        1.23655384654377
C            5.30881958907360        5.54052391314667       -0.48341383985315
H            6.07311468930546        4.49057310311125       -2.18566510680440
H            6.04518934794796        6.32839898464038       -0.53826147603642
H            4.32626307298746       -6.06891662867336        2.09378181201451
H            6.43937671957362       -4.54818311145096       -1.29108017013942
H           -4.29118218425497        5.92760232263445        2.29448682499790
H           -6.35246047137839        4.53813898634094       -1.17752617685121
H            2.65271637866010        4.55922504493303        1.36240892669432
H            4.39086959762055        2.69727844266387       -2.06243475445655
H           -4.11500988209757       -3.40229570120822        1.42427555307281
H           -2.81387246709792       -3.98201334884458       -2.59712287738078
H           -2.58714657851326        4.17616936279324        1.98069688214378
H           -4.64467573702879        2.79445017985018       -1.49395093976920
H            2.61080842620786       -4.32480837772613        1.80428774613590
H            4.72064153178281       -2.81012640942842       -1.58270639345376
Cl           0.07314523454526       -0.13548713825130        2.33880810517944
