      -----------------------------------------------------------      
     |                   =====================                   |     
     |                           x T B                           |     
     |                   =====================                   |     
     |                         S. Grimme                         |     
     |          Mulliken Center for Theoretical Chemistry        |     
     |                    University of Bonn                     |     
      -----------------------------------------------------------      

   * xtb version 6.7.1 (edcfbbe) compiled by 'runner@sat12-gn217-0cbadaec-b866-44ae-a866-732403219ae3-6E01A8DFFD18.local' on 2026-06-10

   xtb is free software: you can redistribute it and/or modify it under
   the terms of the GNU Lesser General Public License as published by
   the Free Software Foundation, either version 3 of the License, or
   (at your option) any later version.
   
   xtb is distributed in the hope that it will be useful,
   but WITHOUT ANY WARRANTY; without even the implied warranty of
   MERCHANTABILITY or FITNESS FOR A PARTICULAR PURPOSE.  See the
   GNU Lesser General Public License for more details.
   
   Cite this work as:
   * C. Bannwarth, E. Caldeweyher, S. Ehlert, A. Hansen, P. Pracht,
     J. Seibert, S. Spicher, S. Grimme, WIREs Comput. Mol. Sci., 2020, 11,
     e01493. DOI: 10.1002/wcms.1493
   
   for GFN2-xTB:
   * C. Bannwarth, S. Ehlert and S. Grimme., J. Chem. Theory Comput., 2019,
     15, 1652-1671. DOI: 10.1021/acs.jctc.8b01176
   for GFN1-xTB:
   * S. Grimme, C. Bannwarth, P. Shushkov, J. Chem. Theory Comput., 2017,
     13, 1989-2009. DOI: 10.1021/acs.jctc.7b00118
   for GFN0-xTB:
   * P. Pracht, E. Caldeweyher, S. Ehlert, S. Grimme, ChemRxiv, 2019, preprint.
     DOI: 10.26434/chemrxiv.8326202.v1
   for GFN-FF:
   * S. Spicher and S. Grimme, Angew. Chem. Int. Ed., 2020, 59, 15665-15673.
     DOI: 10.1002/anie.202004239
   
   for ALPB and GBSA implicit solvation:
   * S. Ehlert, M. Stahn, S. Spicher, S. Grimme, J. Chem. Theory Comput.,
     2021, 17, 4250-4261. DOI: 10.1021/acs.jctc.1c00471
   
   for ddCOSMO and CPCM-X implicit solvation:
   * M. Stahn, S. Ehlert, S. Grimme, J. Phys. Chem. A,
     2023, XX, XXXX-XXXX. DOI: 10.1021/acs.jpca.3c04382
   
   for DFT-D4:
   * E. Caldeweyher, C. Bannwarth and S. Grimme, J. Chem. Phys., 2017,
     147, 034112. DOI: 10.1063/1.4993215
   * E. Caldeweyher, S. Ehlert, A. Hansen, H. Neugebauer, S. Spicher,
     C. Bannwarth and S. Grimme, J. Chem. Phys., 2019, 150, 154122.
     DOI: 10.1063/1.5090222
   * E. Caldeweyher, J.-M. Mewes, S. Ehlert and S. Grimme, Phys. Chem. Chem. Phys.
     2020, 22, 8499-8512. DOI: 10.1039/D0CP00502A
   
   for sTDA-xTB:
   * S. Grimme and C. Bannwarth, J. Chem. Phys., 2016, 145, 054103.
     DOI: 10.1063/1.4959605
   
   in the mass-spec context:
   * V. Asgeirsson, C. Bauer and S. Grimme, Chem. Sci., 2017, 8, 4879.
     DOI: 10.1039/c7sc00601b
   * J. Koopman and S. Grimme, ACS Omega 2019, 4, 12, 15120-15133.
     DOI: 10.1021/acsomega.9b02011
   
   for metadynamics refer to:
   * S. Grimme, J. Chem. Theory Comput., 2019, 155, 2847-2862
     DOI: 10.1021/acs.jctc.9b00143
   
   for SPH calculations refer to:
   * S. Spicher and S. Grimme, J. Chem. Theory Comput., 2021, 17, 1701-1714
     DOI: 10.1021/acs.jctc.0c01306
   
   for ONIOM refer to:
   * C. Plett, A. Katbashev, S. Ehlert, S. Grimme, M. Bursch,
     Phys. Chem. Chem. Phys., 2023, 25, 17860-17868. DOI: 10.1039/D3CP02178E
   
   for DIPRO refer to:
   * J. Kohn, N. Gildemeister, S. Grimme, D. Fazzi, A. Hansen,
     J. Chem. Phys., 2023, just accepted.
   
   for PTB refer to:
   * S. Grimme, M. Mueller, A. Hansen, J. Chem. Phys., 2023, 158, 124111.
     DOI: 10.1063/5.0137838
   
   with help from (in alphabetical order)
   P. Atkinson, C. Bannwarth, F. Bohle, G. Brandenburg, E. Caldeweyher
   M. Checinski, S. Dohm, S. Ehlert, S. Ehrlich, I. Gerasimov, C. Hölzer
   A. Katbashev, J. Kohn, J. Koopman, C. Lavigne, S. Lehtola, F. März, M. Müller,
   F. Musil, H. Neugebauer, J. Pisarek, C. Plett, P. Pracht, F. Pultar,
   J. Seibert, P. Shushkov, S. Spicher, M. Stahn, M. Steiner, T. Strunk,
   J. Stückrath, T. Rose, and J. Unsleber
   
 * started run on 2026/09/18 at 10:11:56.658     
   ID    Z sym.   atoms
    1    7 N      1, 2, 24, 25
    2    6 C      3-5, 7, 9-12, 14, 16-20, 22, 23, 26-28, 30, 32-35, 37,
                  39-43, 45, 46, 48-52, 54, 57-61, 63
    3    1 H      6, 8, 13, 15, 21, 29, 31, 36, 38, 44, 53, 55, 56, 62, 64-77
    4   26 Fe     47
    5   17 Cl     78

           -------------------------------------------------
          |                Calculation Setup                |
           -------------------------------------------------

          program call               : SOURCE_WORKSPACE/.micromamba/part3c-crest212/bin/xtb input.xyz --gfn 2 --opt tight --chrg 0 --uhf 5 --parallel 4
          coordinate file            : input.xyz
          omp threads                :                     4


           -------------------------------------------------
          |                 G F N 2 - x T B                 |
           -------------------------------------------------

        Reference                      10.1021/acs.jctc.8b01176
      * Hamiltonian:
        H0-scaling (s, p, d)           1.850000    2.230000    2.230000
        zeta-weighting                 0.500000
      * Dispersion:
        s8                             2.700000
        a1                             0.520000
        a2                             5.000000
        s9                             5.000000
      * Repulsion:
        kExp                           1.500000    1.000000
        rExp                           1.000000
      * Coulomb:
        alpha                          2.000000
        third order                    shell-resolved
        anisotropic                    true
        a3                             3.000000
        a5                             4.000000
        cn-shift                       1.200000
        cn-exp                         4.000000
        max-rad                        5.000000


          ...................................................
          :                      SETUP                      :
          :.................................................:
          :  # basis functions                 240          :
          :  # atomic orbitals                 238          :
          :  # shells                          130          :
          :  # electrons                       239          :
          :  max. iterations                   250          :
          :  Hamiltonian                  GFN2-xTB          :
          :  restarted?                      false          :
          :  GBSA solvation                  false          :
          :  PC potential                    false          :
          :  electronic temp.          300.0000000     K    :
          :  accuracy                    1.0000000          :
          :  -> integral cutoff          0.2500000E+02      :
          :  -> integral neglect         0.1000000E-07      :
          :  -> SCF convergence          0.1000000E-05 Eh   :
          :  -> wf. convergence          0.1000000E-03 e    :
          :  Broyden damping             0.4000000          :
          :  net charge                          0          :
          :  unpaired electrons                  5          :
          ...................................................

 iter      E             dE          RMSdq      gap      omega  full diag
   1   -129.7823162 -0.129782E+03  0.492E+00    0.38       0.0  T
   2   -129.4543655  0.327951E+00  0.458E+00    0.26       1.0  T
   3   -129.4661556 -0.117901E-01  0.289E+00    0.82       1.0  T
   4   -129.1249739  0.341182E+00  0.374E+00    0.24       1.0  T
   5   -129.9078621 -0.782888E+00  0.170E+00    0.27       1.0  T
   6   -129.9337876 -0.259255E-01  0.120E+00    0.19       1.0  T
   7   -129.9266977  0.708993E-02  0.686E-01    0.17       1.0  T
   8   -129.9325707 -0.587301E-02  0.582E-01    0.16       1.0  T
   9   -129.9392281 -0.665734E-02  0.601E-01    0.14       1.0  T
  10   -129.9399533 -0.725233E-03  0.531E-01    0.14       1.0  T
  11   -129.9438077 -0.385437E-02  0.133E-01    0.12       1.0  T
  12   -129.9444092 -0.601492E-03  0.128E-01    0.13       1.0  T
  13   -129.9447397 -0.330507E-03  0.103E-01    0.12       1.0  T
  14   -129.9449646 -0.224924E-03  0.434E-02    0.13       1.0  T
  15   -129.9449519  0.126832E-04  0.421E-02    0.13       1.0  T
  16   -129.9449951 -0.432097E-04  0.411E-02    0.13       1.0  T
  17   -129.9450192 -0.241209E-04  0.227E-02    0.13       1.0  T
  18   -129.9450220 -0.272963E-05  0.132E-02    0.13       1.0  T
  19   -129.9450202  0.179859E-05  0.150E-02    0.13       1.0  T
  20   -129.9450229 -0.271774E-05  0.347E-03    0.13       3.3  T
  21   -129.9450230 -0.853844E-07  0.187E-03    0.13       6.1  T
  22   -129.9450230 -0.331976E-07  0.338E-04    0.13      33.5  T
  23   -129.9450230  0.206202E-08  0.290E-04    0.13      39.1  T

   *** convergence criteria satisfied after 23 iterations ***

         #    Occupation            Energy/Eh            Energy/eV
      -------------------------------------------------------------
         1        2.0000           -1.0723682             -29.1806
       ...           ...                  ...                  ...
       116        1.9998           -0.3686758             -10.0322
       117        1.8523           -0.3620388              -9.8516
       118        1.1475           -0.3587073              -9.7609
       119        1.0004           -0.3529251              -9.6036
       120        1.0000           -0.3482181              -9.4755
       121        0.9979           -0.2921238              -7.9491
       122        0.9223           -0.2886311              -7.8541 (HOMO)
       123        0.0798           -0.2839580              -7.7269 (LUMO)
       124                         -0.2517880              -6.8515
       125                         -0.2359734              -6.4212
       126                         -0.2293074              -6.2398
       127                         -0.2285625              -6.2195
       ...                                ...                  ...
       238                          2.0188006              54.9344
      -------------------------------------------------------------
                  HL-Gap            0.0046731 Eh            0.1272 eV
             Fermi-level           -0.3233273 Eh           -8.7982 eV

 SCC (total)                   0 d,  0 h,  0 min,  0.196 sec
 SCC setup                      ...        0 min,  0.001 sec (  0.287%)
 Dispersion                     ...        0 min,  0.001 sec (  0.460%)
 classical contributions        ...        0 min,  0.000 sec (  0.098%)
 integral evaluation            ...        0 min,  0.006 sec (  3.173%)
 iterations                     ...        0 min,  0.173 sec ( 88.065%)
 molecular gradient             ...        0 min,  0.014 sec (  7.265%)
 printout                       ...        0 min,  0.001 sec (  0.644%)

         :::::::::::::::::::::::::::::::::::::::::::::::::::::
         ::                     SUMMARY                     ::
         :::::::::::::::::::::::::::::::::::::::::::::::::::::
         :: total energy            -127.747669925243 Eh    ::
         :: gradient norm              0.344901822550 Eh/a0 ::
         :: HOMO-LUMO gap              0.127161937825 eV    ::
         ::.................................................::
         :: SCC energy              -129.944724331498 Eh    ::
         :: -> isotropic ES            0.009535402551 Eh    ::
         :: -> anisotropic ES          0.010154975628 Eh    ::
         :: -> anisotropic XC          0.065302519675 Eh    ::
         :: -> dispersion             -0.118457589568 Eh    ::
         :: repulsion energy           2.197054406254 Eh    ::
         :: add. restraining           0.000000000000 Eh    ::
         :: total charge              -0.000000000096 e     ::
         :::::::::::::::::::::::::::::::::::::::::::::::::::::

      ----------------------------------------------------------- 
     |                   =====================                   |
     |                        A N C O P T                        |
     |                   =====================                   |
     |               Approximate Normal Coordinate               |
     |                Rational Function Optimizer                |
      ----------------------------------------------------------- 
      ----------------------------------------------------------- 
     |                   =====================                   |
     |                        A N C O P T                        |
     |                   =====================                   |
     |               Approximate Normal Coordinate               |
     |                Rational Function Optimizer                |
      ----------------------------------------------------------- 

          ...................................................
          :                      SETUP                      :
          :.................................................:
          :   optimization level             tight          :
          :   max. optcycles                   390          :
          :   ANC micro-cycles                  20          :
          :   degrees of freedom               228          :
          :.................................................:
          :   RF solver                   davidson          :
          :   write xtbopt.log                true          :
          :   linear?                        false          :
          :   energy convergence         0.1000000E-05 Eh   :
          :   grad. convergence          0.8000000E-03 Eh/α :
          :   maxmium RF displ.          1.0000000          :
          :   Hlow (freq-cutoff)         0.1000000E-01      :
          :   Hmax (freq-cutoff)         5.0000000          :
          :   S6 in model hess.         20.0000000          :
          ...................................................

generating ANC from exact Hessian ...
Using Lindh-Hessian (1995)
 Shifting diagonal of input Hessian by    9.8697435004227851E-003
 Lowest  eigenvalues of input Hessian
    0.000000    0.000000    0.000000    0.000000    0.000000    0.000000
    0.010000    0.010174    0.010368    0.010372    0.010413    0.010523
    0.010558    0.010593    0.011048    0.011222    0.011291    0.011374
 Highest eigenvalues
    2.077500    2.088009    2.127195    2.146623    2.227835    2.234713


........................................................................
.............................. CYCLE    1 ..............................
........................................................................

 iter      E             dE          RMSdq      gap      omega  full diag
   1   -129.9450230 -0.129945E+03  0.100E-04    0.13       0.0  T
   2   -129.9450230  0.719012E-09  0.207E-04    0.13      54.8  T
   3   -129.9450230 -0.385228E-09  0.137E-04    0.13      82.4  T
     SCC iter.                  ...        0 min,  0.082 sec
     gradient                   ...        0 min,  0.016 sec
 * total energy  :  -127.7476699 Eh     change       -0.3256986E-08 Eh
   gradient norm :     0.3448975 Eh/α   predicted     0.0000000E+00 (-100.00%)
   displ. norm   :     0.4900686 α      lambda       -0.1192595E+00
   maximum displ.:     0.1620037 α      in ANC's #52, #167, #51, ...

........................................................................
.............................. CYCLE    2 ..............................
........................................................................

 iter      E             dE          RMSdq      gap      omega  full diag
   1   -129.9720432 -0.129972E+03  0.968E-01    0.14       0.0  T
   2   -129.5286388  0.443404E+00  0.264E+00    0.77       1.0  T
   3   -130.0241357 -0.495497E+00  0.312E-01    0.09       1.0  T
   4   -130.0228493  0.128637E-02  0.266E-01    0.12       1.0  T
   5   -130.0230435 -0.194179E-03  0.228E-01    0.08       1.0  T
   6   -130.0252650 -0.222148E-02  0.183E-01    0.08       1.0  T
   7   -130.0266296 -0.136469E-02  0.752E-02    0.08       1.0  T
   8   -130.0261382  0.491402E-03  0.111E-01    0.09       1.0  T
   9   -130.0267271 -0.588847E-03  0.674E-02    0.10       1.0  T
  10   -130.0269927 -0.265571E-03  0.139E-02    0.09       1.0  T
  11   -130.0269938 -0.116339E-05  0.182E-02    0.09       1.0  T
  12   -130.0270080 -0.141219E-04  0.104E-02    0.09       1.1  T
  13   -130.0270132 -0.529634E-05  0.514E-03    0.09       2.2  T
  14   -130.0270132  0.629565E-07  0.543E-03    0.09       2.1  T
  15   -130.0270147 -0.152356E-05  0.301E-03    0.09       3.8  T
  16   -130.0270140  0.746215E-06  0.435E-03    0.09       2.6  T
  17   -130.0270150 -0.103391E-05  0.154E-03    0.09       7.4  T
  18   -130.0270151 -0.140671E-06  0.370E-04    0.09      30.6  T
  19   -130.0270151 -0.155569E-08  0.332E-04    0.09      34.1  T
     SCC iter.                  ...        0 min,  0.190 sec
     gradient                   ...        0 min,  0.016 sec
 * total energy  :  -127.8375916 Eh     change       -0.8992162E-01 Eh
   gradient norm :     0.1838314 Eh/α   predicted    -0.7399993E-01 ( -17.71%)
   displ. norm   :     0.5102711 α      lambda       -0.6496961E-01
   maximum displ.:     0.2022093 α      in ANC's #52, #51, #95, ...

........................................................................
.............................. CYCLE    3 ..............................
........................................................................

 iter      E             dE          RMSdq      gap      omega  full diag
   1   -130.0861325 -0.130086E+03  0.471E-01    0.12       0.0  T
   2   -129.8411906  0.244942E+00  0.190E+00    0.04       1.0  T
   3   -130.0937492 -0.252559E+00  0.355E-01    0.10       1.0  T
   4   -130.0952096 -0.146042E-02  0.385E-01    0.10       1.0  T
   5   -130.0952947 -0.850779E-04  0.393E-01    0.10       1.0  T
   6   -130.0922372  0.305753E-02  0.251E-01    0.12       1.0  T
   7   -130.0955198 -0.328260E-02  0.459E-01    0.10       1.0  T
   8   -130.0961920 -0.672235E-03  0.257E-01    0.09       1.0  T
   9   -130.0964188 -0.226811E-03  0.682E-02    0.10       1.0  T
  10   -130.0964739 -0.550860E-04  0.326E-02    0.10       1.0  T
  11   -130.0965146 -0.406658E-04  0.211E-02    0.10       1.0  T
  12   -130.0965248 -0.102721E-04  0.109E-02    0.10       1.0  T
  13   -130.0965281 -0.326788E-05  0.840E-03    0.10       1.3  T
  14   -130.0965296 -0.153772E-05  0.656E-03    0.10       1.7  T
  15   -130.0965301 -0.402539E-06  0.504E-03    0.10       2.2  T
  16   -130.0965302 -0.172493E-06  0.345E-03    0.10       3.3  T
  17   -130.0965305 -0.230875E-06  0.114E-03    0.10       9.9  T
  18   -130.0965305 -0.725215E-07  0.602E-04    0.10      18.8  T
  19   -130.0965305 -0.645363E-08  0.449E-04    0.10      25.2  T
     SCC iter.                  ...        0 min,  0.177 sec
     gradient                   ...        0 min,  0.015 sec
 * total energy  :  -127.8802395 Eh     change       -0.4264790E-01 Eh
   gradient norm :     0.0548055 Eh/α   predicted    -0.4094307E-01 (  -4.00%)
   displ. norm   :     0.4339468 α      lambda       -0.1489677E-01
   maximum displ.:     0.2188814 α      in ANC's #52, #28, #51, ...

........................................................................
.............................. CYCLE    4 ..............................
........................................................................

 iter      E             dE          RMSdq      gap      omega  full diag
   1   -130.1024878 -0.130102E+03  0.337E-01    0.11       0.0  T
   2   -130.0428073  0.596805E-01  0.150E+00    0.10       1.0  T
   3   -130.1006115 -0.578042E-01  0.285E-01    0.10       1.0  T
   4   -130.1025033 -0.189183E-02  0.235E-01    0.10       1.0  T
   5   -130.1038694 -0.136613E-02  0.966E-02    0.10       1.0  T
   6   -130.1039390 -0.695650E-04  0.116E-01    0.10       1.0  T
   7   -130.1042367 -0.297645E-03  0.748E-02    0.10       1.0  T
   8   -130.1043680 -0.131348E-03  0.218E-02    0.10       1.0  T
   9   -130.1043841 -0.161027E-04  0.126E-02    0.10       1.0  T
  10   -130.1043734  0.106644E-04  0.171E-02    0.10       1.0  T
  11   -130.1043877 -0.142188E-04  0.116E-02    0.10       1.0  T
  12   -130.1043914 -0.376345E-05  0.417E-03    0.10       2.7  T
  13   -130.1043916 -0.130386E-06  0.339E-03    0.10       3.3  T
  14   -130.1043919 -0.334734E-06  0.136E-03    0.10       8.3  T
  15   -130.1043919 -0.459308E-07  0.602E-04    0.10      18.8  T
  16   -130.1043919 -0.424512E-08  0.377E-04    0.10      30.0  T
     SCC iter.                  ...        0 min,  0.146 sec
     gradient                   ...        0 min,  0.015 sec
 * total energy  :  -127.8902541 Eh     change       -0.1001462E-01 Eh
   gradient norm :     0.0240981 Eh/α   predicted    -0.8851094E-02 ( -11.62%)
   displ. norm   :     0.3696336 α      lambda       -0.4843270E-02
   maximum displ.:     0.1578301 α      in ANC's #52, #28, #35, ...

........................................................................
.............................. CYCLE    5 ..............................
........................................................................

 iter      E             dE          RMSdq      gap      omega  full diag
   1   -130.0989308 -0.130099E+03  0.185E-01    0.11       0.0  T
   2   -130.0692299  0.297009E-01  0.107E+00    0.11       1.0  T
   3   -130.0991615 -0.299316E-01  0.981E-02    0.11       1.0  T
   4   -130.0979242  0.123735E-02  0.225E-01    0.11       1.0  T
   5   -130.0989834 -0.105923E-02  0.121E-01    0.11       1.0  T
   6   -130.0994149 -0.431516E-03  0.813E-02    0.11       1.0  T
   7   -130.0995267 -0.111756E-03  0.548E-02    0.11       1.0  T
   8   -130.0995929 -0.661997E-04  0.151E-02    0.11       1.0  T
   9   -130.0996057 -0.128287E-04  0.892E-03    0.11       1.3  T
  10   -130.0996045  0.118445E-05  0.686E-03    0.11       1.7  T
  11   -130.0996052 -0.659520E-06  0.106E-02    0.11       1.1  T
  12   -130.0996079 -0.266496E-05  0.302E-03    0.11       3.8  T
  13   -130.0996081 -0.236093E-06  0.174E-03    0.11       6.5  T
  14   -130.0996082 -0.858944E-07  0.806E-04    0.11      14.0  T
  15   -130.0996082 -0.377449E-08  0.607E-04    0.11      18.7  T
     SCC iter.                  ...        0 min,  0.131 sec
     gradient                   ...        0 min,  0.015 sec
 * total energy  :  -127.8935820 Eh     change       -0.3327956E-02 Eh
   gradient norm :     0.0158480 Eh/α   predicted    -0.2752543E-02 ( -17.29%)
   displ. norm   :     0.3233343 α      lambda       -0.1850915E-02
   maximum displ.:     0.1294497 α      in ANC's #28, #52, #35, ...

........................................................................
.............................. CYCLE    6 ..............................
........................................................................

 iter      E             dE          RMSdq      gap      omega  full diag
   1   -130.1016317 -0.130102E+03  0.111E-01    0.12       0.0  T
   2   -130.0906112  0.110205E-01  0.658E-01    0.12       1.0  T
   3   -130.1018321 -0.112209E-01  0.579E-02    0.12       1.0  T
   4   -130.1005519  0.128018E-02  0.202E-01    0.12       1.0  T
   5   -130.1016393 -0.108741E-02  0.689E-02    0.12       1.0  T
   6   -130.1017661 -0.126763E-03  0.640E-02    0.12       1.0  T
   7   -130.1018377 -0.716090E-04  0.410E-02    0.12       1.0  T
   8   -130.1018810 -0.433241E-04  0.114E-02    0.12       1.0  T
   9   -130.1018870 -0.600227E-05  0.772E-03    0.12       1.5  T
  10   -130.1018872 -0.165938E-06  0.449E-03    0.12       2.5  T
  11   -130.1018863  0.895645E-06  0.898E-03    0.12       1.3  T
  12   -130.1018882 -0.191536E-05  0.196E-03    0.12       5.8  T
  13   -130.1018883 -0.842055E-07  0.822E-04    0.12      13.8  T
  14   -130.1018883 -0.163080E-07  0.471E-04    0.12      24.0  T
     SCC iter.                  ...        0 min,  0.129 sec
     gradient                   ...        0 min,  0.015 sec
 * total energy  :  -127.8948682 Eh     change       -0.1286140E-02 Eh
   gradient norm :     0.0113252 Eh/α   predicted    -0.1022211E-02 ( -20.52%)
   displ. norm   :     0.2797008 α      lambda       -0.8283095E-03
   maximum displ.:     0.0981452 α      in ANC's #14, #28, #13, ...

........................................................................
.............................. CYCLE    7 ..............................
........................................................................

 iter      E             dE          RMSdq      gap      omega  full diag
   1   -130.1056281 -0.130106E+03  0.704E-02    0.13       0.0  T
   2   -130.1044414  0.118670E-02  0.228E-01    0.12       1.0  T
   3   -130.1056444 -0.120296E-02  0.427E-02    0.12       1.0  T
   4   -130.1048080  0.836349E-03  0.157E-01    0.13       1.0  T
   5   -130.1055934 -0.785368E-03  0.287E-02    0.12       1.0  T
   6   -130.1055992 -0.583353E-05  0.572E-02    0.12       1.0  T
   7   -130.1056604 -0.611737E-04  0.320E-02    0.13       1.0  T
   8   -130.1056893 -0.289377E-04  0.773E-03    0.13       1.5  T
   9   -130.1056913 -0.198930E-05  0.265E-03    0.12       4.3  T
  10   -130.1056912  0.181205E-06  0.442E-03    0.12       2.6  T
  11   -130.1056911  0.969718E-07  0.459E-03    0.12       2.5  T
  12   -130.1056916 -0.500684E-06  0.820E-04    0.12      13.8  T
  13   -130.1056916 -0.133311E-07  0.565E-04    0.12      20.1  T
     SCC iter.                  ...        0 min,  0.117 sec
     gradient                   ...        0 min,  0.015 sec
 * total energy  :  -127.8954410 Eh     change       -0.5728795E-03 Eh
   gradient norm :     0.0067949 Eh/α   predicted    -0.4465560E-03 ( -22.05%)
   displ. norm   :     0.2439855 α      lambda       -0.4145258E-03
   maximum displ.:     0.0937453 α      in ANC's #13, #14, #10, ...

........................................................................
.............................. CYCLE    8 ..............................
........................................................................

 iter      E             dE          RMSdq      gap      omega  full diag
   1   -130.1084440 -0.130108E+03  0.573E-02    0.13       0.0  T
   2   -130.1083187  0.125278E-03  0.625E-02    0.13       1.0  T
   3   -130.1075492  0.769480E-03  0.179E-01    0.13       1.0  T
   4   -130.1081710 -0.621789E-03  0.699E-02    0.13       1.0  T
   5   -130.1084341 -0.263075E-03  0.151E-02    0.13       1.0  T
   6   -130.1084374 -0.326591E-05  0.292E-02    0.13       1.0  T
   7   -130.1084552 -0.177821E-04  0.166E-02    0.13       1.0  T
   8   -130.1084628 -0.764587E-05  0.373E-03    0.13       3.0  T
   9   -130.1084632 -0.411610E-06  0.127E-03    0.13       8.9  T
  10   -130.1084631  0.959323E-07  0.260E-03    0.13       4.4  T
  11   -130.1084631 -0.912442E-08  0.241E-03    0.13       4.7  T
  12   -130.1084633 -0.149994E-06  0.273E-04    0.13      41.5  T
  13   -130.1084633 -0.567297E-10  0.344E-04    0.13      33.0  T
     SCC iter.                  ...        0 min,  0.116 sec
     gradient                   ...        0 min,  0.016 sec
 * total energy  :  -127.8957436 Eh     change       -0.3026000E-03 Eh
   gradient norm :     0.0064740 Eh/α   predicted    -0.2196020E-03 ( -27.43%)
   displ. norm   :     0.2888134 α      lambda       -0.3537181E-03
   maximum displ.:     0.1270991 α      in ANC's #13, #6, #10, ...

........................................................................
.............................. CYCLE    9 ..............................
........................................................................

 iter      E             dE          RMSdq      gap      omega  full diag
   1   -130.1098498 -0.130110E+03  0.676E-02    0.14       0.0  T
   2   -130.1092719  0.577900E-03  0.141E-01    0.14       1.0  T
   3   -130.1096570 -0.385007E-03  0.899E-02    0.14       1.0  T
   4   -130.1097482 -0.912254E-04  0.276E-02    0.14       1.0  T
   5   -130.1098600 -0.111842E-03  0.875E-03    0.14       1.3  T
   6   -130.1098665 -0.650391E-05  0.603E-03    0.14       1.9  T
   7   -130.1098703 -0.378394E-05  0.173E-03    0.14       6.6  T
   8   -130.1098704 -0.663594E-07  0.120E-03    0.14       9.5  T
   9   -130.1098704  0.188127E-07  0.118E-03    0.14       9.6  T
  10   -130.1098704 -0.468110E-07  0.944E-04    0.14      12.0  T
  11   -130.1098704 -0.812463E-09  0.987E-04    0.14      11.5  T
     SCC iter.                  ...        0 min,  0.101 sec
     gradient                   ...        0 min,  0.016 sec
 * total energy  :  -127.8960152 Eh     change       -0.2715329E-03 Eh
   gradient norm :     0.0079896 Eh/α   predicted    -0.1916133E-03 ( -29.43%)
   displ. norm   :     0.3775108 α      lambda       -0.3901810E-03
   maximum displ.:     0.1772396 α      in ANC's #13, #6, #10, ...

........................................................................
.............................. CYCLE   10 ..............................
........................................................................

 iter      E             dE          RMSdq      gap      omega  full diag
   1   -130.1094865 -0.130109E+03  0.854E-02    0.14       0.0  T
   2   -130.1091079  0.378643E-03  0.129E-01    0.14       1.0  T
   3   -130.1090065  0.101396E-03  0.130E-01    0.14       1.0  T
   4   -130.1092935 -0.286993E-03  0.641E-02    0.14       1.0  T
   5   -130.1094768 -0.183331E-03  0.231E-02    0.14       1.0  T
   6   -130.1094685  0.829640E-05  0.332E-02    0.14       1.0  T
   7   -130.1094959 -0.274264E-04  0.159E-02    0.14       1.0  T
   8   -130.1095043 -0.832823E-05  0.158E-03    0.14       7.2  T
   9   -130.1095040  0.276775E-06  0.262E-03    0.14       4.3  T
  10   -130.1095043 -0.259216E-06  0.189E-03    0.14       6.0  T
  11   -130.1095044 -0.112290E-06  0.593E-04    0.14      19.1  T
  12   -130.1095044 -0.214993E-08  0.788E-04    0.14      14.4  T
     SCC iter.                  ...        0 min,  0.105 sec
     gradient                   ...        0 min,  0.015 sec
 * total energy  :  -127.8963214 Eh     change       -0.3062431E-03 Eh
   gradient norm :     0.0082839 Eh/α   predicted    -0.2228949E-03 ( -27.22%)
   displ. norm   :     0.4367223 α      lambda       -0.4025590E-03
   maximum displ.:     0.2103202 α      in ANC's #13, #6, #10, ...

........................................................................
.............................. CYCLE   11 ..............................
........................................................................

 iter      E             dE          RMSdq      gap      omega  full diag
   1   -130.1076158 -0.130108E+03  0.101E-01    0.14       0.0  T
   2   -130.1075467  0.691694E-04  0.685E-02    0.14       1.0  T
   3   -130.1048938  0.265288E-02  0.284E-01    0.14       1.0  T
   4   -130.1074179 -0.252408E-02  0.560E-02    0.15       1.0  T
   5   -130.1075915 -0.173615E-03  0.271E-02    0.14       1.0  T
   6   -130.1075280  0.634805E-04  0.588E-02    0.14       1.0  T
   7   -130.1076241 -0.961000E-04  0.162E-02    0.14       1.0  T
   8   -130.1076338 -0.965054E-05  0.482E-03    0.14       2.3  T
   9   -130.1076342 -0.393273E-06  0.390E-03    0.14       2.9  T
  10   -130.1076344 -0.281147E-06  0.193E-03    0.14       5.9  T
  11   -130.1076345 -0.336018E-07  0.263E-03    0.14       4.3  T
  12   -130.1076346 -0.129033E-06  0.573E-04    0.14      19.8  T
  13   -130.1076346  0.531608E-08  0.764E-04    0.14      14.8  T
     SCC iter.                  ...        0 min,  0.119 sec
     gradient                   ...        0 min,  0.016 sec
 * total energy  :  -127.8966332 Eh     change       -0.3117637E-03 Eh
   gradient norm :     0.0070689 Eh/α   predicted    -0.2396727E-03 ( -23.12%)
   displ. norm   :     0.4174349 α      lambda       -0.3395588E-03
   maximum displ.:     0.1978903 α      in ANC's #13, #6, #10, ...

........................................................................
.............................. CYCLE   12 ..............................
........................................................................

 iter      E             dE          RMSdq      gap      omega  full diag
   1   -130.1060027 -0.130106E+03  0.108E-01    0.14       0.0  T
   2   -130.1043123  0.169038E-02  0.234E-01    0.15       1.0  T
   3   -130.1049346 -0.622310E-03  0.202E-01    0.15       1.0  T
   4   -130.1056259 -0.691336E-03  0.789E-02    0.15       1.0  T
   5   -130.1060332 -0.407272E-03  0.174E-02    0.14       1.0  T
   6   -130.1059849  0.482999E-04  0.453E-02    0.15       1.0  T
   7   -130.1060417 -0.567563E-04  0.162E-02    0.14       1.0  T
   8   -130.1060507 -0.898738E-05  0.445E-03    0.15       2.5  T
   9   -130.1060512 -0.555383E-06  0.225E-03    0.15       5.0  T
  10   -130.1060513 -0.447508E-07  0.215E-03    0.15       5.3  T
  11   -130.1060514 -0.139300E-06  0.780E-04    0.15      14.5  T
  12   -130.1060514 -0.979028E-08  0.768E-04    0.15      14.8  T
     SCC iter.                  ...        0 min,  0.109 sec
     gradient                   ...        0 min,  0.015 sec
 * total energy  :  -127.8968940 Eh     change       -0.2608361E-03 Eh
   gradient norm :     0.0065582 Eh/α   predicted    -0.1993648E-03 ( -23.57%)
   displ. norm   :     0.3930314 α      lambda       -0.2875312E-03
   maximum displ.:     0.1955157 α      in ANC's #6, #13, #10, ...

........................................................................
.............................. CYCLE   13 ..............................
........................................................................

 iter      E             dE          RMSdq      gap      omega  full diag
   1   -130.1053293 -0.130105E+03  0.109E-01    0.14       0.0  T
   2   -130.1019227  0.340660E-02  0.338E-01    0.15       1.0  T
   3   -130.1046923 -0.276965E-02  0.162E-01    0.15       1.0  T
   4   -130.1049391 -0.246777E-03  0.808E-02    0.15       1.0  T
   5   -130.1053864 -0.447235E-03  0.219E-02    0.14       1.0  T
   6   -130.1053848  0.153337E-05  0.226E-02    0.15       1.0  T
   7   -130.1053987 -0.138757E-04  0.111E-02    0.15       1.0  T
   8   -130.1054020 -0.333844E-05  0.563E-03    0.15       2.0  T
   9   -130.1054030 -0.986021E-06  0.107E-03    0.15      10.5  T
  10   -130.1054029  0.762805E-07  0.196E-03    0.15       5.8  T
  11   -130.1054030 -0.969648E-07  0.864E-04    0.15      13.1  T
  12   -130.1054030 -0.100144E-07  0.697E-04    0.15      16.2  T
     SCC iter.                  ...        0 min,  0.109 sec
     gradient                   ...        0 min,  0.015 sec
 * total energy  :  -127.8971191 Eh     change       -0.2251225E-03 Eh
   gradient norm :     0.0072365 Eh/α   predicted    -0.1659745E-03 ( -26.27%)
   displ. norm   :     0.3999040 α      lambda       -0.2890098E-03
   maximum displ.:     0.2071081 α      in ANC's #6, #13, #1, ...

........................................................................
.............................. CYCLE   14 ..............................
........................................................................

 iter      E             dE          RMSdq      gap      omega  full diag
   1   -130.1059231 -0.130106E+03  0.108E-01    0.14       0.0  T
   2   -130.1028915  0.303163E-02  0.323E-01    0.15       1.0  T
   3   -130.1054272 -0.253569E-02  0.144E-01    0.15       1.0  T
   4   -130.1054824 -0.551912E-04  0.860E-02    0.15       1.0  T
   5   -130.1059654 -0.482990E-03  0.246E-02    0.14       1.0  T
   6   -130.1059850 -0.196195E-04  0.568E-03    0.15       2.0  T
   7   -130.1059866 -0.163029E-05  0.408E-03    0.14       2.8  T
   8   -130.1059870 -0.313458E-06  0.296E-03    0.14       3.8  T
   9   -130.1059873 -0.330116E-06  0.827E-04    0.14      13.7  T
  10   -130.1059872  0.389161E-07  0.152E-03    0.14       7.5  T
  11   -130.1059873 -0.664082E-07  0.385E-04    0.14      29.4  T
     SCC iter.                  ...        0 min,  0.099 sec
     gradient                   ...        0 min,  0.018 sec
 * total energy  :  -127.8973480 Eh     change       -0.2288509E-03 Eh
   gradient norm :     0.0077051 Eh/α   predicted    -0.1676174E-03 ( -26.76%)
   displ. norm   :     0.4299678 α      lambda       -0.3025144E-03
   maximum displ.:     0.2312543 α      in ANC's #6, #1, #13, ...

........................................................................
.............................. CYCLE   15 ..............................
........................................................................

 iter      E             dE          RMSdq      gap      omega  full diag
   1   -130.1065153 -0.130107E+03  0.105E-01    0.14       0.0  T
   2   -130.1050772  0.143815E-02  0.227E-01    0.14       1.0  T
   3   -130.1059783 -0.901110E-03  0.145E-01    0.14       1.0  T
   4   -130.1060999 -0.121592E-03  0.811E-02    0.15       1.0  T
   5   -130.1065422 -0.442285E-03  0.112E-02    0.14       1.0  T
   6   -130.1065442 -0.203587E-05  0.114E-02    0.14       1.0  T
   7   -130.1065486 -0.445792E-05  0.158E-03    0.14       7.2  T
   8   -130.1065487 -0.557834E-07  0.884E-04    0.14      12.8  T
   9   -130.1065487  0.322028E-07  0.883E-04    0.14      12.8  T
     SCC iter.                  ...        0 min,  0.082 sec
     gradient                   ...        0 min,  0.015 sec
 * total energy  :  -127.8975836 Eh     change       -0.2356378E-03 Eh
   gradient norm :     0.0073518 Eh/α   predicted    -0.1792277E-03 ( -23.94%)
   displ. norm   :     0.4101474 α      lambda       -0.2878342E-03
   maximum displ.:     0.2277112 α      in ANC's #6, #1, #2, ...

........................................................................
.............................. CYCLE   16 ..............................
........................................................................

 iter      E             dE          RMSdq      gap      omega  full diag
   1   -130.1083174 -0.130108E+03  0.923E-02    0.14       0.0  T
   2   -130.1082361  0.813434E-04  0.748E-02    0.14       1.0  T
   3   -130.1061848  0.205131E-02  0.261E-01    0.14       1.0  T
   4   -130.1082515 -0.206672E-02  0.320E-02    0.14       1.0  T
   5   -130.1083014 -0.499068E-04  0.265E-02    0.14       1.0  T
   6   -130.1083131 -0.116544E-04  0.171E-02    0.14       1.0  T
   7   -130.1083219 -0.887160E-05  0.222E-03    0.14       5.1  T
   8   -130.1083222 -0.231278E-06  0.158E-03    0.14       7.2  T
   9   -130.1083222 -0.727289E-07  0.105E-03    0.14      10.8  T
  10   -130.1083222  0.850827E-08  0.145E-03    0.14       7.8  T
  11   -130.1083223 -0.444638E-07  0.622E-04    0.14      18.2  T
  12   -130.1083223 -0.253760E-08  0.579E-04    0.14      19.6  T
     SCC iter.                  ...        0 min,  0.108 sec
     gradient                   ...        0 min,  0.015 sec
 * total energy  :  -127.8977961 Eh     change       -0.2124225E-03 Eh
   gradient norm :     0.0067461 Eh/α   predicted    -0.1681439E-03 ( -20.84%)
   displ. norm   :     0.3961155 α      lambda       -0.2382043E-03
   maximum displ.:     0.2322007 α      in ANC's #6, #1, #2, ...

........................................................................
.............................. CYCLE   17 ..............................
........................................................................

 iter      E             dE          RMSdq      gap      omega  full diag
   1   -130.1073483 -0.130107E+03  0.883E-02    0.14       0.0  T
   2   -130.1073406  0.767183E-05  0.541E-02    0.14       1.0  T
   3   -130.1056880  0.165259E-02  0.235E-01    0.14       1.0  T
   4   -130.1072349 -0.154688E-02  0.556E-02    0.14       1.0  T
   5   -130.1073269 -0.919919E-04  0.272E-02    0.14       1.0  T
   6   -130.1073458 -0.189305E-04  0.137E-02    0.14       1.0  T
   7   -130.1073499 -0.403342E-05  0.635E-03    0.14       1.8  T
   8   -130.1073510 -0.116721E-05  0.190E-03    0.14       6.0  T
   9   -130.1073511 -0.107358E-06  0.107E-03    0.14      10.6  T
  10   -130.1073511 -0.148139E-07  0.771E-04    0.14      14.7  T
  11   -130.1073512 -0.191602E-07  0.194E-04    0.14      58.2  T
     SCC iter.                  ...        0 min,  0.096 sec
     gradient                   ...        0 min,  0.016 sec
 * total energy  :  -127.8979723 Eh     change       -0.1762551E-03 Eh
   gradient norm :     0.0065022 Eh/α   predicted    -0.1377942E-03 ( -21.82%)
   displ. norm   :     0.3219841 α      lambda       -0.2335543E-03
   maximum displ.:     0.1903382 α      in ANC's #6, #1, #2, ...

........................................................................
.............................. CYCLE   18 ..............................
........................................................................

 iter      E             dE          RMSdq      gap      omega  full diag
   1   -130.1111155 -0.130111E+03  0.742E-02    0.15       0.0  T
   2   -130.1107961  0.319434E-03  0.109E-01    0.14       1.0  T
   3   -130.1102420  0.554025E-03  0.175E-01    0.14       1.0  T
   4   -130.1108245 -0.582469E-03  0.792E-02    0.15       1.0  T
   5   -130.1110321 -0.207593E-03  0.570E-02    0.15       1.0  T
   6   -130.1111028 -0.706626E-04  0.297E-02    0.14       1.0  T
   7   -130.1111267 -0.239119E-04  0.111E-02    0.14       1.0  T
   8   -130.1111301 -0.345124E-05  0.228E-03    0.14       5.0  T
   9   -130.1111303 -0.147642E-06  0.108E-03    0.14      10.5  T
  10   -130.1111302  0.212603E-07  0.134E-03    0.14       8.4  T
  11   -130.1111303 -0.745666E-07  0.323E-04    0.14      35.0  T
  12   -130.1111303 -0.289018E-08  0.222E-04    0.14      51.0  T
     SCC iter.                  ...        0 min,  0.116 sec
     gradient                   ...        0 min,  0.015 sec
 * total energy  :  -127.8981407 Eh     change       -0.1684077E-03 Eh
   gradient norm :     0.0063031 Eh/α   predicted    -0.1288849E-03 ( -23.47%)
   displ. norm   :     0.4942793 α      lambda       -0.2818206E-03
   maximum displ.:     0.3107010 α      in ANC's #6, #1, #10, ...

........................................................................
.............................. CYCLE   19 ..............................
........................................................................

 iter      E             dE          RMSdq      gap      omega  full diag
   1   -130.1051648 -0.130105E+03  0.107E-01    0.15       0.0  T
   2   -130.1050214  0.143479E-03  0.931E-02    0.15       1.0  T
   3   -130.1028042  0.221717E-02  0.274E-01    0.15       1.0  T
   4   -130.1049313 -0.212712E-02  0.591E-02    0.15       1.0  T
   5   -130.1051516 -0.220352E-03  0.285E-02    0.15       1.0  T
   6   -130.1051436  0.799893E-05  0.315E-02    0.15       1.0  T
   7   -130.1051744 -0.307418E-04  0.610E-03    0.15       1.9  T
   8   -130.1051756 -0.120784E-05  0.156E-03    0.15       7.3  T
   9   -130.1051757 -0.711535E-07  0.986E-04    0.15      11.5  T
  10   -130.1051757 -0.672640E-08  0.134E-03    0.15       8.5  T
  11   -130.1051757 -0.497602E-07  0.439E-04    0.15      25.8  T
     SCC iter.                  ...        0 min,  0.096 sec
     gradient                   ...        0 min,  0.016 sec
 * total energy  :  -127.8983301 Eh     change       -0.1893931E-03 Eh
   gradient norm :     0.0076574 Eh/α   predicted    -0.1753379E-03 (  -7.42%)
   displ. norm   :     0.3741738 α      lambda       -0.3074606E-03
   maximum displ.:     0.2254440 α      in ANC's #6, #1, #2, ...

........................................................................
.............................. CYCLE   20 ..............................
........................................................................

 iter      E             dE          RMSdq      gap      omega  full diag
   1   -130.1078949 -0.130108E+03  0.784E-02    0.15       0.0  T
   2   -130.1075704  0.324557E-03  0.114E-01    0.15       1.0  T
   3   -130.1073568  0.213620E-03  0.137E-01    0.15       1.0  T
   4   -130.1076148 -0.258058E-03  0.672E-02    0.15       1.0  T
   5   -130.1078975 -0.282637E-03  0.150E-02    0.15       1.0  T
   6   -130.1078828  0.146529E-04  0.297E-02    0.15       1.0  T
   7   -130.1079099 -0.270776E-04  0.107E-02    0.15       1.1  T
   8   -130.1079136 -0.366781E-05  0.284E-03    0.15       4.0  T
   9   -130.1079138 -0.287157E-06  0.171E-03    0.15       6.6  T
  10   -130.1079139 -0.708009E-07  0.122E-03    0.15       9.3  T
  11   -130.1079140 -0.445029E-07  0.427E-04    0.15      26.5  T
  12   -130.1079140 -0.388195E-08  0.270E-04    0.15      41.9  T
     SCC iter.                  ...        0 min,  0.108 sec
     gradient                   ...        0 min,  0.015 sec
 * total energy  :  -127.8985489 Eh     change       -0.2188062E-03 Eh
   gradient norm :     0.0080614 Eh/α   predicted    -0.1752542E-03 ( -19.90%)
   displ. norm   :     0.4461812 α      lambda       -0.2876727E-03
   maximum displ.:     0.2815990 α      in ANC's #6, #1, #10, ...
 * RMSD in coord.:     0.6325450 α      energy gain  -0.1508790E+00 Eh

generating ANC from exact Hessian ...
Using Lindh-Hessian (1995)
 Shifting diagonal of input Hessian by    9.8858895197645336E-003
 Lowest  eigenvalues of input Hessian
    0.000000    0.000000    0.000000    0.000000    0.000000    0.000000
    0.010000    0.010189    0.010407    0.010421    0.010468    0.010516
    0.010660    0.010713    0.011276    0.011424    0.011520    0.011672
 Highest eigenvalues
    2.056592    2.067706    2.073118    2.082401    2.085753    2.094809


........................................................................
.............................. CYCLE   21 ..............................
........................................................................

 iter      E             dE          RMSdq      gap      omega  full diag
   1   -130.1060521 -0.130106E+03  0.104E-01    0.15       0.0  T
   2   -130.1024951  0.355708E-02  0.356E-01    0.15       1.0  T
   3   -130.1057097 -0.321463E-02  0.121E-01    0.15       1.0  T
   4   -130.1054369  0.272769E-03  0.110E-01    0.16       1.0  T
   5   -130.1060516 -0.614722E-03  0.342E-02    0.15       1.0  T
   6   -130.1061039 -0.522329E-04  0.167E-02    0.15       1.0  T
   7   -130.1061138 -0.995276E-05  0.551E-03    0.15       2.1  T
   8   -130.1061149 -0.102226E-05  0.153E-03    0.15       7.4  T
   9   -130.1061149 -0.420180E-07  0.121E-03    0.15       9.4  T
  10   -130.1061150 -0.555114E-07  0.542E-04    0.15      20.9  T
  11   -130.1061150 -0.947250E-08  0.346E-04    0.15      32.7  T
     SCC iter.                  ...        0 min,  0.102 sec
     gradient                   ...        0 min,  0.017 sec
 * total energy  :  -127.8987578 Eh     change       -0.2088922E-03 Eh
   gradient norm :     0.0084821 Eh/α   predicted     0.0000000E+00 (-100.00%)
   displ. norm   :     0.0678216 α      lambda       -0.1217112E-03
   maximum displ.:     0.0265148 α      in ANC's #15, #10, #6, ...

........................................................................
.............................. CYCLE   22 ..............................
........................................................................

 iter      E             dE          RMSdq      gap      omega  full diag
   1   -130.1085198 -0.130109E+03  0.264E-02    0.15       0.0  T
   2   -130.1083487  0.171070E-03  0.746E-02    0.15       1.0  T
   3   -130.1084371 -0.883482E-04  0.559E-02    0.15       1.0  T
   4   -130.1085042 -0.671239E-04  0.187E-02    0.15       1.0  T
   5   -130.1085201 -0.159325E-04  0.132E-02    0.15       1.0  T
   6   -130.1085191  0.104832E-05  0.149E-02    0.15       1.0  T
   7   -130.1085251 -0.596655E-05  0.394E-03    0.15       2.9  T
   8   -130.1085255 -0.484129E-06  0.646E-04    0.15      17.5  T
   9   -130.1085255 -0.103551E-07  0.673E-04    0.15      16.8  T
     SCC iter.                  ...        0 min,  0.081 sec
     gradient                   ...        0 min,  0.015 sec
 * total energy  :  -127.8988717 Eh     change       -0.1138542E-03 Eh
   gradient norm :     0.0044362 Eh/α   predicted    -0.7485201E-04 ( -34.26%)
   displ. norm   :     0.1531246 α      lambda       -0.1631861E-03
   maximum displ.:     0.0639482 α      in ANC's #15, #10, #5, ...

........................................................................
.............................. CYCLE   23 ..............................
........................................................................

 iter      E             dE          RMSdq      gap      omega  full diag
   1   -130.1109164 -0.130111E+03  0.456E-02    0.15       0.0  T
   2   -130.1104239  0.492468E-03  0.128E-01    0.15       1.0  T
   3   -130.1107038 -0.279912E-03  0.892E-02    0.15       1.0  T
   4   -130.1108701 -0.166298E-03  0.310E-02    0.15       1.0  T
   5   -130.1109114 -0.412814E-04  0.251E-02    0.15       1.0  T
   6   -130.1109219 -0.105090E-04  0.190E-02    0.15       1.0  T
   7   -130.1109308 -0.887222E-05  0.722E-03    0.15       1.6  T
   8   -130.1109323 -0.155412E-05  0.185E-03    0.15       6.1  T
   9   -130.1109324 -0.916722E-07  0.934E-04    0.15      12.1  T
  10   -130.1109324  0.969445E-08  0.127E-03    0.15       8.9  T
  11   -130.1109325 -0.574928E-07  0.268E-04    0.15      42.3  T
     SCC iter.                  ...        0 min,  0.101 sec
     gradient                   ...        0 min,  0.019 sec
 * total energy  :  -127.8989801 Eh     change       -0.1084437E-03 Eh
   gradient norm :     0.0028062 Eh/α   predicted    -0.8350719E-04 ( -22.99%)
   displ. norm   :     0.1511066 α      lambda       -0.7998117E-04
   maximum displ.:     0.0635058 α      in ANC's #10, #15, #5, ...

........................................................................
.............................. CYCLE   24 ..............................
........................................................................

 iter      E             dE          RMSdq      gap      omega  full diag
   1   -130.1111592 -0.130111E+03  0.363E-02    0.15       0.0  T
   2   -130.1109929  0.166225E-03  0.775E-02    0.15       1.0  T
   3   -130.1110224 -0.294757E-04  0.694E-02    0.15       1.0  T
   4   -130.1110880 -0.656251E-04  0.416E-02    0.15       1.0  T
   5   -130.1111368 -0.487237E-04  0.282E-02    0.15       1.0  T
   6   -130.1111633 -0.265281E-04  0.582E-03    0.15       1.9  T
   7   -130.1111643 -0.100660E-05  0.120E-03    0.15       9.5  T
   8   -130.1111643 -0.344536E-07  0.925E-04    0.15      12.2  T
   9   -130.1111643 -0.189051E-07  0.399E-04    0.15      28.4  T
     SCC iter.                  ...        0 min,  0.084 sec
     gradient                   ...        0 min,  0.016 sec
 * total energy  :  -127.8990436 Eh     change       -0.6346695E-04 Eh
   gradient norm :     0.0041810 Eh/α   predicted    -0.4090405E-04 ( -35.55%)
   displ. norm   :     0.2443007 α      lambda       -0.1112542E-03
   maximum displ.:     0.1071709 α      in ANC's #10, #5, #6, ...

........................................................................
.............................. CYCLE   25 ..............................
........................................................................

 iter      E             dE          RMSdq      gap      omega  full diag
   1   -130.1102958 -0.130110E+03  0.530E-02    0.15       0.0  T
   2   -130.1101239  0.171889E-03  0.841E-02    0.15       1.0  T
   3   -130.1099976  0.126332E-03  0.101E-01    0.15       1.0  T
   4   -130.1100662 -0.685720E-04  0.803E-02    0.15       1.0  T
   5   -130.1102939 -0.227664E-03  0.113E-02    0.15       1.0  T
   6   -130.1103004 -0.655909E-05  0.272E-03    0.15       4.2  T
   7   -130.1103005 -0.103877E-06  0.220E-03    0.15       5.1  T
   8   -130.1103007 -0.187937E-06  0.529E-04    0.15      21.4  T
   9   -130.1103007 -0.267309E-08  0.536E-04    0.15      21.1  T
     SCC iter.                  ...        0 min,  0.080 sec
     gradient                   ...        0 min,  0.015 sec
 * total energy  :  -127.8991316 Eh     change       -0.8801509E-04 Eh
   gradient norm :     0.0048972 Eh/α   predicted    -0.5894746E-04 ( -33.03%)
   displ. norm   :     0.2893208 α      lambda       -0.1170365E-03
   maximum displ.:     0.1292950 α      in ANC's #10, #5, #6, ...

........................................................................
.............................. CYCLE   26 ..............................
........................................................................

 iter      E             dE          RMSdq      gap      omega  full diag
   1   -130.1089489 -0.130109E+03  0.599E-02    0.15       0.0  T
   2   -130.1089111  0.378333E-04  0.516E-02    0.15       1.0  T
   3   -130.1083217  0.589328E-03  0.143E-01    0.15       1.0  T
   4   -130.1086722 -0.350453E-03  0.841E-02    0.15       1.0  T
   5   -130.1089118 -0.239642E-03  0.301E-02    0.15       1.0  T
   6   -130.1089509 -0.390578E-04  0.707E-03    0.15       1.6  T
   7   -130.1089516 -0.720736E-06  0.419E-03    0.15       2.7  T
   8   -130.1089520 -0.407703E-06  0.127E-03    0.15       8.9  T
   9   -130.1089521 -0.337386E-07  0.529E-04    0.15      21.4  T
  10   -130.1089521 -0.142364E-09  0.281E-04    0.15      40.3  T
     SCC iter.                  ...        0 min,  0.092 sec
     gradient                   ...        0 min,  0.015 sec
 * total energy  :  -127.8992250 Eh     change       -0.9336674E-04 Eh
   gradient norm :     0.0048072 Eh/α   predicted    -0.6341990E-04 ( -32.07%)
   displ. norm   :     0.3169803 α      lambda       -0.1242703E-03
   maximum displ.:     0.1434465 α      in ANC's #10, #5, #1, ...

........................................................................
.............................. CYCLE   27 ..............................
........................................................................

 iter      E             dE          RMSdq      gap      omega  full diag
   1   -130.1079487 -0.130108E+03  0.664E-02    0.16       0.0  T
   2   -130.1079318  0.169042E-04  0.417E-02    0.16       1.0  T
   3   -130.1076430  0.288798E-03  0.689E-02    0.16       1.0  T
   4   -130.1078297 -0.186623E-03  0.681E-02    0.16       1.0  T
   5   -130.1079260 -0.963448E-04  0.260E-02    0.16       1.0  T
   6   -130.1079525 -0.264753E-04  0.969E-03    0.16       1.2  T
   7   -130.1079544 -0.196032E-05  0.477E-03    0.16       2.4  T
   8   -130.1079551 -0.618939E-06  0.642E-04    0.16      17.6  T
   9   -130.1079551 -0.767244E-09  0.585E-04    0.16      19.4  T
     SCC iter.                  ...        0 min,  0.080 sec
     gradient                   ...        0 min,  0.016 sec
 * total energy  :  -127.8993245 Eh     change       -0.9951196E-04 Eh
   gradient norm :     0.0044219 Eh/α   predicted    -0.6837958E-04 ( -31.29%)
   displ. norm   :     0.3513030 α      lambda       -0.1387229E-03
   maximum displ.:     0.1591212 α      in ANC's #10, #5, #1, ...

........................................................................
.............................. CYCLE   28 ..............................
........................................................................

 iter      E             dE          RMSdq      gap      omega  full diag
   1   -130.1077489 -0.130108E+03  0.756E-02    0.16       0.0  T
   2   -130.1077067  0.421905E-04  0.517E-02    0.16       1.0  T
   3   -130.1066402  0.106649E-02  0.183E-01    0.16       1.0  T
   4   -130.1074015 -0.761308E-03  0.892E-02    0.16       1.0  T
   5   -130.1077525 -0.350983E-03  0.931E-03    0.16       1.2  T
   6   -130.1077500  0.250768E-05  0.182E-02    0.16       1.0  T
   7   -130.1077587 -0.871616E-05  0.703E-03    0.16       1.6  T
   8   -130.1077601 -0.138580E-05  0.536E-04    0.16      21.1  T
   9   -130.1077601  0.182209E-07  0.930E-04    0.16      12.2  T
  10   -130.1077601 -0.201988E-07  0.627E-04    0.16      18.1  T
     SCC iter.                  ...        0 min,  0.099 sec
     gradient                   ...        0 min,  0.015 sec
 * total energy  :  -127.8994347 Eh     change       -0.1102657E-03 Eh
   gradient norm :     0.0043438 Eh/α   predicted    -0.7794973E-04 ( -29.31%)
   displ. norm   :     0.3862412 α      lambda       -0.1465991E-03
   maximum displ.:     0.1779594 α      in ANC's #5, #1, #10, ...

........................................................................
.............................. CYCLE   29 ..............................
........................................................................

 iter      E             dE          RMSdq      gap      omega  full diag
   1   -130.1082845 -0.130108E+03  0.837E-02    0.17       0.0  T
   2   -130.1082581  0.263367E-04  0.522E-02    0.17       1.0  T
   3   -130.1078745  0.383600E-03  0.782E-02    0.17       1.0  T
   4   -130.1082455 -0.370917E-03  0.397E-02    0.17       1.0  T
   5   -130.1082795 -0.340166E-04  0.194E-02    0.17       1.0  T
   6   -130.1082889 -0.942746E-05  0.146E-02    0.17       1.0  T
   7   -130.1082959 -0.697827E-05  0.390E-03    0.17       2.9  T
   8   -130.1082963 -0.424521E-06  0.684E-04    0.17      16.5  T
   9   -130.1082963  0.360361E-07  0.140E-03    0.17       8.1  T
  10   -130.1082963 -0.486213E-07  0.603E-04    0.17      18.8  T
     SCC iter.                  ...        0 min,  0.088 sec
     gradient                   ...        0 min,  0.014 sec
 * total energy  :  -127.8995517 Eh     change       -0.1169898E-03 Eh
   gradient norm :     0.0047198 Eh/α   predicted    -0.8423567E-04 ( -28.00%)
   displ. norm   :     0.4371639 α      lambda       -0.1521863E-03
   maximum displ.:     0.2033587 α      in ANC's #1, #5, #10, ...

........................................................................
.............................. CYCLE   30 ..............................
........................................................................

 iter      E             dE          RMSdq      gap      omega  full diag
   1   -130.1088155 -0.130109E+03  0.947E-02    0.17       0.0  T
   2   -130.1087048  0.110704E-03  0.799E-02    0.17       1.0  T
   3   -130.1068096  0.189523E-02  0.253E-01    0.17       1.0  T
   4   -130.1086212 -0.181160E-02  0.533E-02    0.18       1.0  T
   5   -130.1088027 -0.181578E-03  0.259E-02    0.17       1.0  T
   6   -130.1088166 -0.138592E-04  0.157E-02    0.17       1.0  T
   7   -130.1088262 -0.955720E-05  0.185E-03    0.17       6.1  T
   8   -130.1088262 -0.252209E-07  0.185E-03    0.17       6.1  T
   9   -130.1088262 -0.499167E-07  0.781E-04    0.17      14.5  T
  10   -130.1088262  0.531929E-08  0.153E-03    0.17       7.4  T
  11   -130.1088263 -0.589932E-07  0.697E-04    0.17      16.3  T
     SCC iter.                  ...        0 min,  0.104 sec
     gradient                   ...        0 min,  0.015 sec
 * total energy  :  -127.8996760 Eh     change       -0.1243014E-03 Eh
   gradient norm :     0.0049369 Eh/α   predicted    -0.9063847E-04 ( -27.08%)
   displ. norm   :     0.4917371 α      lambda       -0.1636461E-03
   maximum displ.:     0.2337248 α      in ANC's #1, #5, #10, ...

........................................................................
.............................. CYCLE   31 ..............................
........................................................................

 iter      E             dE          RMSdq      gap      omega  full diag
   1   -130.1091809 -0.130109E+03  0.108E-01    0.18       0.0  T
   2   -130.1087181  0.462834E-03  0.138E-01    0.17       1.0  T
   3   -130.1078619  0.856232E-03  0.214E-01    0.17       1.0  T
   4   -130.1090802 -0.121836E-02  0.430E-02    0.18       1.0  T
   5   -130.1091625 -0.823058E-04  0.293E-02    0.17       1.0  T
   6   -130.1091863 -0.237118E-04  0.133E-02    0.17       1.0  T
   7   -130.1091943 -0.807232E-05  0.137E-03    0.17       8.3  T
   8   -130.1091943  0.525948E-07  0.183E-03    0.17       6.2  T
   9   -130.1091943 -0.747487E-07  0.942E-04    0.17      12.0  T
  10   -130.1091944 -0.855013E-08  0.130E-03    0.17       8.7  T
  11   -130.1091944 -0.491388E-07  0.534E-04    0.17      21.2  T
     SCC iter.                  ...        0 min,  0.099 sec
     gradient                   ...        0 min,  0.016 sec
 * total energy  :  -127.8998097 Eh     change       -0.1336274E-03 Eh
   gradient norm :     0.0044629 Eh/α   predicted    -0.1016086E-03 ( -23.96%)
   displ. norm   :     0.5110930 α      lambda       -0.1599920E-03
   maximum displ.:     0.2488221 α      in ANC's #1, #5, #10, ...

........................................................................
.............................. CYCLE   32 ..............................
........................................................................

 iter      E             dE          RMSdq      gap      omega  full diag
   1   -130.1094381 -0.130109E+03  0.116E-01    0.17       0.0  T
   2   -130.1084278  0.101031E-02  0.195E-01    0.17       1.0  T
   3   -130.1085544 -0.126653E-03  0.182E-01    0.17       1.0  T
   4   -130.1093890 -0.834531E-03  0.355E-02    0.18       1.0  T
   5   -130.1094191 -0.301781E-04  0.284E-02    0.17       1.0  T
   6   -130.1094526 -0.334705E-04  0.931E-03    0.17       1.2  T
   7   -130.1094578 -0.522600E-05  0.125E-03    0.17       9.1  T
   8   -130.1094578  0.197081E-07  0.154E-03    0.17       7.3  T
   9   -130.1094578 -0.180454E-07  0.110E-03    0.17      10.3  T
  10   -130.1094579 -0.310718E-07  0.834E-04    0.17      13.6  T
  11   -130.1094579 -0.211686E-07  0.238E-04    0.17      47.5  T
     SCC iter.                  ...        0 min,  0.099 sec
     gradient                   ...        0 min,  0.016 sec
 * total energy  :  -127.8999384 Eh     change       -0.1287269E-03 Eh
   gradient norm :     0.0038192 Eh/α   predicted    -0.1008929E-03 ( -21.62%)
   displ. norm   :     0.4820729 α      lambda       -0.1355658E-03
   maximum displ.:     0.2404799 α      in ANC's #1, #5, #10, ...

........................................................................
.............................. CYCLE   33 ..............................
........................................................................

 iter      E             dE          RMSdq      gap      omega  full diag
   1   -130.1090861 -0.130109E+03  0.112E-01    0.17       0.0  T
   2   -130.1079548  0.113136E-02  0.205E-01    0.17       1.0  T
   3   -130.1083729 -0.418149E-03  0.166E-01    0.17       1.0  T
   4   -130.1090227 -0.649790E-03  0.325E-02    0.17       1.0  T
   5   -130.1090876 -0.648762E-04  0.228E-02    0.17       1.0  T
   6   -130.1091023 -0.147264E-04  0.112E-02    0.17       1.0  T
   7   -130.1091067 -0.438437E-05  0.151E-03    0.17       7.5  T
   8   -130.1091068 -0.573447E-07  0.143E-03    0.17       7.9  T
   9   -130.1091069 -0.102913E-06  0.499E-04    0.17      22.7  T
  10   -130.1091069  0.689553E-08  0.777E-04    0.17      14.6  T
     SCC iter.                  ...        0 min,  0.090 sec
     gradient                   ...        0 min,  0.016 sec
 * total energy  :  -127.9000497 Eh     change       -0.1113208E-03 Eh
   gradient norm :     0.0037341 Eh/α   predicted    -0.8353668E-04 ( -24.96%)
   displ. norm   :     0.4095648 α      lambda       -0.1373788E-03
   maximum displ.:     0.2109624 α      in ANC's #1, #9, #5, ...

........................................................................
.............................. CYCLE   34 ..............................
........................................................................

 iter      E             dE          RMSdq      gap      omega  full diag
   1   -130.1119289 -0.130112E+03  0.996E-02    0.16       0.0  T
   2   -130.1109453  0.983511E-03  0.191E-01    0.16       1.0  T
   3   -130.1114517 -0.506317E-03  0.138E-01    0.16       1.0  T
   4   -130.1117334 -0.281723E-03  0.547E-02    0.16       1.0  T
   5   -130.1119252 -0.191781E-03  0.264E-02    0.16       1.0  T
   6   -130.1119443 -0.190899E-04  0.121E-02    0.16       1.0  T
   7   -130.1119491 -0.482021E-05  0.137E-03    0.16       8.3  T
   8   -130.1119492 -0.135541E-06  0.118E-03    0.16       9.6  T
   9   -130.1119493 -0.447779E-07  0.574E-04    0.16      19.7  T
  10   -130.1119493 -0.123156E-07  0.616E-04    0.16      18.4  T
     SCC iter.                  ...        0 min,  0.091 sec
     gradient                   ...        0 min,  0.016 sec
 * total energy  :  -127.9001484 Eh     change       -0.9870269E-04 Eh
   gradient norm :     0.0047298 Eh/α   predicted    -0.8022183E-04 ( -18.72%)
   displ. norm   :     0.6383087 α      lambda       -0.1787336E-03
   maximum displ.:     0.3228399 α      in ANC's #1, #5, #10, ...

........................................................................
.............................. CYCLE   35 ..............................
........................................................................

 iter      E             dE          RMSdq      gap      omega  full diag
   1   -130.1043788 -0.130104E+03  0.150E-01    0.16       0.0  T
   2   -130.1029171  0.146166E-02  0.241E-01    0.16       1.0  T
   3   -130.1027510  0.166152E-03  0.242E-01    0.16       1.0  T
   4   -130.1041952 -0.144426E-02  0.607E-02    0.16       1.0  T
   5   -130.1043818 -0.186540E-03  0.277E-02    0.16       1.0  T
   6   -130.1043767  0.509816E-05  0.311E-02    0.16       1.0  T
   7   -130.1044052 -0.285771E-04  0.197E-03    0.16       5.8  T
   8   -130.1044054 -0.148767E-06  0.208E-03    0.16       5.4  T
   9   -130.1044055 -0.894292E-07  0.106E-03    0.16      10.7  T
  10   -130.1044055  0.353276E-08  0.170E-03    0.16       6.7  T
  11   -130.1044056 -0.913639E-07  0.326E-04    0.16      34.8  T
  12   -130.1044056 -0.995527E-09  0.267E-04    0.16      42.4  T
     SCC iter.                  ...        0 min,  0.106 sec
     gradient                   ...        0 min,  0.016 sec
 * total energy  :  -127.9002296 Eh     change       -0.8117432E-04 Eh
   gradient norm :     0.0060620 Eh/α   predicted    -0.1257805E-03 (  54.95%)
   displ. norm   :     0.1577883 α      lambda       -0.1252855E-03
   maximum displ.:     0.1067048 α      in ANC's #9, #1, #11, ...

........................................................................
.............................. CYCLE   36 ..............................
........................................................................

 iter      E             dE          RMSdq      gap      omega  full diag
   1   -130.1080790 -0.130108E+03  0.406E-02    0.16       0.0  T
   2   -130.1080726  0.635732E-05  0.284E-02    0.16       1.0  T
   3   -130.1076250  0.447604E-03  0.122E-01    0.16       1.0  T
   4   -130.1080596 -0.434647E-03  0.192E-02    0.16       1.0  T
   5   -130.1080742 -0.145100E-04  0.110E-02    0.16       1.0  T
   6   -130.1080781 -0.394273E-05  0.805E-03    0.16       1.4  T
   7   -130.1080798 -0.168233E-05  0.331E-03    0.16       3.4  T
   8   -130.1080801 -0.340848E-06  0.440E-04    0.16      25.7  T
   9   -130.1080801  0.127282E-07  0.770E-04    0.16      14.7  T
     SCC iter.                  ...        0 min,  0.083 sec
     gradient                   ...        0 min,  0.016 sec
 * total energy  :  -127.9003247 Eh     change       -0.9514089E-04 Eh
   gradient norm :     0.0037381 Eh/α   predicted    -0.6420239E-04 ( -32.52%)
   displ. norm   :     0.2722972 α      lambda       -0.1001509E-03
   maximum displ.:     0.1513257 α      in ANC's #1, #9, #5, ...

........................................................................
.............................. CYCLE   37 ..............................
........................................................................

 iter      E             dE          RMSdq      gap      omega  full diag
   1   -130.1097083 -0.130110E+03  0.640E-02    0.16       0.0  T
   2   -130.1096612  0.470859E-04  0.557E-02    0.16       1.0  T
   3   -130.1087852  0.876037E-03  0.175E-01    0.16       1.0  T
   4   -130.1096725 -0.887325E-03  0.284E-02    0.16       1.0  T
   5   -130.1097035 -0.310271E-04  0.108E-02    0.16       1.1  T
   6   -130.1097049 -0.136199E-05  0.130E-02    0.16       1.0  T
   7   -130.1097103 -0.541248E-05  0.476E-04    0.16      23.8  T
   8   -130.1097103  0.295802E-08  0.720E-04    0.16      15.7  T
   9   -130.1097103 -0.113983E-07  0.305E-04    0.16      37.1  T
     SCC iter.                  ...        0 min,  0.082 sec
     gradient                   ...        0 min,  0.016 sec
 * total energy  :  -127.9004040 Eh     change       -0.7927883E-04 Eh
   gradient norm :     0.0029940 Eh/α   predicted    -0.5378890E-04 ( -32.15%)
   displ. norm   :     0.3310775 α      lambda       -0.8615711E-04
   maximum displ.:     0.1883973 α      in ANC's #1, #9, #5, ...

........................................................................
.............................. CYCLE   38 ..............................
........................................................................

 iter      E             dE          RMSdq      gap      omega  full diag
   1   -130.1096473 -0.130110E+03  0.751E-02    0.16       0.0  T
   2   -130.1094627  0.184572E-03  0.911E-02    0.16       1.0  T
   3   -130.1088881  0.574551E-03  0.161E-01    0.16       1.0  T
   4   -130.1095306 -0.642462E-03  0.511E-02    0.16       1.0  T
   5   -130.1096433 -0.112726E-03  0.114E-02    0.16       1.0  T
   6   -130.1096486 -0.527461E-05  0.108E-02    0.16       1.1  T
   7   -130.1096518 -0.323475E-05  0.342E-03    0.16       3.3  T
   8   -130.1096522 -0.384382E-06  0.872E-04    0.16      13.0  T
   9   -130.1096522 -0.149594E-07  0.327E-04    0.16      34.6  T
     SCC iter.                  ...        0 min,  0.082 sec
     gradient                   ...        0 min,  0.016 sec
 * total energy  :  -127.9004763 Eh     change       -0.7227141E-04 Eh
   gradient norm :     0.0030708 Eh/α   predicted    -0.4780237E-04 ( -33.86%)
   displ. norm   :     0.4020199 α      lambda       -0.9227879E-04
   maximum displ.:     0.2307978 α      in ANC's #1, #9, #5, ...

........................................................................
.............................. CYCLE   39 ..............................
........................................................................

 iter      E             dE          RMSdq      gap      omega  full diag
   1   -130.1088551 -0.130109E+03  0.903E-02    0.17       0.0  T
   2   -130.1082940  0.561053E-03  0.149E-01    0.17       1.0  T
   3   -130.1081422  0.151800E-03  0.159E-01    0.17       1.0  T
   4   -130.1086627 -0.520447E-03  0.690E-02    0.17       1.0  T
   5   -130.1088498 -0.187138E-03  0.174E-02    0.17       1.0  T
   6   -130.1088652 -0.153754E-04  0.677E-03    0.17       1.7  T
   7   -130.1088659 -0.685502E-06  0.419E-03    0.17       2.7  T
   8   -130.1088665 -0.609562E-06  0.108E-03    0.17      10.5  T
   9   -130.1088665 -0.202499E-07  0.305E-04    0.17      37.1  T
  10   -130.1088665 -0.461029E-08  0.463E-04    0.17      24.5  T
     SCC iter.                  ...        0 min,  0.091 sec
     gradient                   ...        0 min,  0.015 sec
 * total energy  :  -127.9005515 Eh     change       -0.7518840E-04 Eh
   gradient norm :     0.0033594 Eh/α   predicted    -0.5359723E-04 ( -28.72%)
   displ. norm   :     0.3973947 α      lambda       -0.8448310E-04
   maximum displ.:     0.2330661 α      in ANC's #1, #9, #5, ...

........................................................................
.............................. CYCLE   40 ..............................
........................................................................

 iter      E             dE          RMSdq      gap      omega  full diag
   1   -130.1089713 -0.130109E+03  0.889E-02    0.17       0.0  T
   2   -130.1081214  0.849925E-03  0.179E-01    0.17       1.0  T
   3   -130.1084292 -0.307865E-03  0.141E-01    0.17       1.0  T
   4   -130.1087666 -0.337342E-03  0.762E-02    0.18       1.0  T
   5   -130.1089770 -0.210377E-03  0.128E-02    0.17       1.0  T
   6   -130.1089858 -0.880096E-05  0.340E-03    0.17       3.3  T
   7   -130.1089857  0.408887E-07  0.348E-03    0.17       3.3  T
   8   -130.1089862 -0.429760E-06  0.107E-03    0.17      10.6  T
   9   -130.1089862 -0.216102E-07  0.322E-04    0.17      35.2  T
  10   -130.1089862 -0.216670E-08  0.468E-04    0.17      24.2  T
     SCC iter.                  ...        0 min,  0.092 sec
     gradient                   ...        0 min,  0.016 sec
 * total energy  :  -127.9006154 Eh     change       -0.6391143E-04 Eh
   gradient norm :     0.0034313 Eh/α   predicted    -0.4891339E-04 ( -23.47%)
   displ. norm   :     0.3399232 α      lambda       -0.6421882E-04
   maximum displ.:     0.2036491 α      in ANC's #1, #9, #5, ...

........................................................................
.............................. CYCLE   41 ..............................
........................................................................

 iter      E             dE          RMSdq      gap      omega  full diag
   1   -130.1091516 -0.130109E+03  0.754E-02    0.18       0.0  T
   2   -130.1083941  0.757489E-03  0.168E-01    0.18       1.0  T
   3   -130.1088117 -0.417540E-03  0.113E-01    0.18       1.0  T
   4   -130.1089818 -0.170124E-03  0.702E-02    0.18       1.0  T
   5   -130.1091602 -0.178413E-03  0.900E-03    0.18       1.3  T
   6   -130.1091643 -0.407173E-05  0.161E-03    0.18       7.0  T
   7   -130.1091643  0.644653E-08  0.189E-03    0.18       6.0  T
   8   -130.1091644 -0.110864E-06  0.890E-04    0.18      12.7  T
   9   -130.1091644 -0.758499E-08  0.455E-04    0.18      24.9  T
     SCC iter.                  ...        0 min,  0.084 sec
     gradient                   ...        0 min,  0.015 sec
 * total energy  :  -127.9006591 Eh     change       -0.4373692E-04 Eh
   gradient norm :     0.0031640 Eh/α   predicted    -0.3582177E-04 ( -18.10%)
   displ. norm   :     0.2407044 α      lambda       -0.5111619E-04
   maximum displ.:     0.1494692 α      in ANC's #1, #9, #5, ...

........................................................................
.............................. CYCLE   42 ..............................
........................................................................

 iter      E             dE          RMSdq      gap      omega  full diag
   1   -130.1105535 -0.130111E+03  0.526E-02    0.18       0.0  T
   2   -130.1101765  0.377065E-03  0.118E-01    0.18       1.0  T
   3   -130.1104002 -0.223724E-03  0.761E-02    0.18       1.0  T
   4   -130.1104590 -0.587517E-04  0.489E-02    0.18       1.0  T
   5   -130.1105498 -0.907998E-04  0.162E-02    0.18       1.0  T
   6   -130.1105605 -0.107277E-04  0.152E-03    0.18       7.5  T
   7   -130.1105605 -0.612970E-07  0.480E-04    0.18      23.6  T
   8   -130.1105605  0.475850E-08  0.513E-04    0.18      22.1  T
     SCC iter.                  ...        0 min,  0.072 sec
     gradient                   ...        0 min,  0.015 sec
 * total energy  :  -127.9006898 Eh     change       -0.3065673E-04 Eh
   gradient norm :     0.0027582 Eh/α   predicted    -0.2703991E-04 ( -11.80%)
   displ. norm   :     0.1434066 α      lambda       -0.3277453E-04
   maximum displ.:     0.0918978 α      in ANC's #1, #9, #7, ...
 * RMSD in coord.:     0.7450241 α      energy gain  -0.2140844E-02 Eh

generating ANC from exact Hessian ...
Using Lindh-Hessian (1995)
 Shifting diagonal of input Hessian by    9.8996403967707581E-003
 Lowest  eigenvalues of input Hessian
    0.000000    0.000000    0.000000    0.000000    0.000000    0.000000
    0.010000    0.010202    0.010406    0.010444    0.010499    0.010586
    0.010719    0.010743    0.011344    0.011511    0.011555    0.011766
 Highest eigenvalues
    2.060929    2.071547    2.076569    2.085135    2.088495    2.096814


........................................................................
.............................. CYCLE   43 ..............................
........................................................................

 iter      E             dE          RMSdq      gap      omega  full diag
   1   -130.1111027 -0.130111E+03  0.295E-02    0.18       0.0  T
   2   -130.1110821  0.205833E-04  0.315E-02    0.18       1.0  T
   3   -130.1109590  0.123087E-03  0.699E-02    0.18       1.0  T
   4   -130.1110648 -0.105765E-03  0.265E-02    0.18       1.0  T
   5   -130.1111030 -0.381944E-04  0.361E-03    0.18       3.1  T
   6   -130.1111036 -0.574172E-06  0.421E-03    0.18       2.7  T
   7   -130.1111041 -0.503882E-06  0.118E-03    0.18       9.6  T
   8   -130.1111041 -0.402670E-07  0.312E-04    0.18      36.3  T
   9   -130.1111041  0.122418E-08  0.462E-04    0.18      24.5  T
     SCC iter.                  ...        0 min,  0.080 sec
     gradient                   ...        0 min,  0.015 sec
 * total energy  :  -127.9007126 Eh     change       -0.2280990E-04 Eh
   gradient norm :     0.0023481 Eh/α   predicted     0.0000000E+00 (-100.00%)
   displ. norm   :     0.0306284 α      lambda       -0.1554910E-04
   maximum displ.:     0.0123416 α      in ANC's #13, #6, #1, ...

........................................................................
.............................. CYCLE   44 ..............................
........................................................................

 iter      E             dE          RMSdq      gap      omega  full diag
   1   -130.1100364 -0.130110E+03  0.118E-02    0.18       0.0  T
   2   -130.1099848  0.516487E-04  0.423E-02    0.18       1.0  T
   3   -130.1100288 -0.440072E-04  0.172E-02    0.18       1.0  T
   4   -130.1100306 -0.181657E-05  0.143E-02    0.18       1.0  T
   5   -130.1100365 -0.589333E-05  0.487E-03    0.18       2.3  T
   6   -130.1100373 -0.842233E-06  0.158E-03    0.18       7.2  T
   7   -130.1100374 -0.796444E-07  0.222E-04    0.18      51.1  T
   8   -130.1100374 -0.137831E-08  0.127E-04    0.18      89.0  T
     SCC iter.                  ...        0 min,  0.072 sec
     gradient                   ...        0 min,  0.016 sec
 * total energy  :  -127.9007283 Eh     change       -0.1570448E-04 Eh
   gradient norm :     0.0011820 Eh/α   predicted    -0.9487803E-05 ( -39.59%)
   displ. norm   :     0.1508282 α      lambda       -0.3897303E-04
   maximum displ.:     0.0627098 α      in ANC's #6, #1, #13, ...

........................................................................
.............................. CYCLE   45 ..............................
........................................................................

 iter      E             dE          RMSdq      gap      omega  full diag
   1   -130.1075570 -0.130108E+03  0.516E-02    0.17       0.0  T
   2   -130.1068473  0.709652E-03  0.157E-01    0.17       1.0  T
   3   -130.1073691 -0.521776E-03  0.833E-02    0.17       1.0  T
   4   -130.1074420 -0.728718E-04  0.634E-02    0.17       1.0  T
   5   -130.1075304 -0.884611E-04  0.334E-02    0.17       1.0  T
   6   -130.1075677 -0.372432E-04  0.121E-02    0.17       1.0  T
   7   -130.1075725 -0.482327E-05  0.158E-03    0.17       7.2  T
   8   -130.1075726 -0.720887E-07  0.486E-04    0.17      23.3  T
   9   -130.1075726 -0.264626E-08  0.574E-04    0.17      19.7  T
     SCC iter.                  ...        0 min,  0.089 sec
     gradient                   ...        0 min,  0.015 sec
 * total energy  :  -127.9007567 Eh     change       -0.2841456E-04 Eh
   gradient norm :     0.0029552 Eh/α   predicted    -0.1968418E-04 ( -30.73%)
   displ. norm   :     0.0363027 α      lambda       -0.1258911E-04
   maximum displ.:     0.0178924 α      in ANC's #1, #6, #5, ...

........................................................................
.............................. CYCLE   46 ..............................
........................................................................

 iter      E             dE          RMSdq      gap      omega  full diag
   1   -130.1083604 -0.130108E+03  0.984E-03    0.17       0.0  T
   2   -130.1083567  0.362901E-05  0.125E-02    0.17       1.0  T
   3   -130.1083433  0.134305E-04  0.241E-02    0.17       1.0  T
   4   -130.1083552 -0.119099E-04  0.115E-02    0.17       1.0  T
   5   -130.1083590 -0.383337E-05  0.519E-03    0.17       2.2  T
   6   -130.1083605 -0.143084E-05  0.459E-04    0.17      24.7  T
   7   -130.1083605 -0.579189E-08  0.144E-04    0.17      78.8  T
   8   -130.1083605 -0.102344E-08  0.856E-05    0.17     132.2  T
     SCC iter.                  ...        0 min,  0.073 sec
     gradient                   ...        0 min,  0.017 sec
 * total energy  :  -127.9007681 Eh     change       -0.1136179E-04 Eh
   gradient norm :     0.0022871 Eh/α   predicted    -0.6303052E-05 ( -44.52%)
   displ. norm   :     0.1354144 α      lambda       -0.3864211E-04
   maximum displ.:     0.0676215 α      in ANC's #1, #6, #5, ...

........................................................................
.............................. CYCLE   47 ..............................
........................................................................

 iter      E             dE          RMSdq      gap      omega  full diag
   1   -130.1104813 -0.130110E+03  0.351E-02    0.17       0.0  T
   2   -130.1104741  0.716697E-05  0.254E-02    0.17       1.0  T
   3   -130.1101328  0.341305E-03  0.108E-01    0.17       1.0  T
   4   -130.1104208 -0.287992E-03  0.379E-02    0.17       1.0  T
   5   -130.1104699 -0.491550E-04  0.154E-02    0.17       1.0  T
   6   -130.1104821 -0.121242E-04  0.717E-04    0.17      15.8  T
   7   -130.1104821 -0.409605E-08  0.999E-04    0.17      11.3  T
   8   -130.1104821 -0.213941E-07  0.701E-04    0.17      16.2  T
     SCC iter.                  ...        0 min,  0.073 sec
     gradient                   ...        0 min,  0.015 sec
 * total energy  :  -127.9007952 Eh     change       -0.2715075E-04 Eh
   gradient norm :     0.0009387 Eh/α   predicted    -0.1970079E-04 ( -27.44%)
   displ. norm   :     0.1937830 α      lambda       -0.1907550E-04
   maximum displ.:     0.0992224 α      in ANC's #1, #6, #5, ...

........................................................................
.............................. CYCLE   48 ..............................
........................................................................

 iter      E             dE          RMSdq      gap      omega  full diag
   1   -130.1114186 -0.130111E+03  0.486E-02    0.17       0.0  T
   2   -130.1114141  0.449957E-05  0.305E-02    0.17       1.0  T
   3   -130.1108653  0.548895E-03  0.134E-01    0.17       1.0  T
   4   -130.1113411 -0.475891E-03  0.411E-02    0.17       1.0  T
   5   -130.1114100 -0.689084E-04  0.132E-02    0.17       1.0  T
   6   -130.1114195 -0.948754E-05  0.222E-03    0.17       5.1  T
   7   -130.1114197 -0.185170E-06  0.812E-04    0.17      14.0  T
   8   -130.1114197 -0.167976E-07  0.673E-04    0.17      16.8  T
     SCC iter.                  ...        0 min,  0.073 sec
     gradient                   ...        0 min,  0.016 sec
 * total energy  :  -127.9008154 Eh     change       -0.2021388E-04 Eh
   gradient norm :     0.0018973 Eh/α   predicted    -0.9702282E-05 ( -52.00%)
   displ. norm   :     0.1415963 α      lambda       -0.1437981E-04
   maximum displ.:     0.0754376 α      in ANC's #1, #6, #5, ...

........................................................................
.............................. CYCLE   49 ..............................
........................................................................

 iter      E             dE          RMSdq      gap      omega  full diag
   1   -130.1109224 -0.130111E+03  0.336E-02    0.17       0.0  T
   2   -130.1109209  0.144352E-05  0.205E-02    0.17       1.0  T
   3   -130.1106685  0.252444E-03  0.887E-02    0.17       1.0  T
   4   -130.1109111 -0.242576E-03  0.111E-02    0.17       1.0  T
   5   -130.1109223 -0.112521E-04  0.235E-03    0.17       4.8  T
   6   -130.1109227 -0.404219E-06  0.902E-04    0.17      12.5  T
   7   -130.1109227 -0.271359E-07  0.305E-04    0.17      37.1  T
     SCC iter.                  ...        0 min,  0.065 sec
     gradient                   ...        0 min,  0.017 sec
 * total energy  :  -127.9008346 Eh     change       -0.1913805E-04 Eh
   gradient norm :     0.0014963 Eh/α   predicted    -0.7254191E-05 ( -62.10%)
   displ. norm   :     0.2011693 α      lambda       -0.2370921E-04
   maximum displ.:     0.1103332 α      in ANC's #1, #5, #6, ...

........................................................................
.............................. CYCLE   50 ..............................
........................................................................

 iter      E             dE          RMSdq      gap      omega  full diag
   1   -130.1099923 -0.130110E+03  0.449E-02    0.17       0.0  T
   2   -130.1099359  0.563568E-04  0.510E-02    0.17       1.0  T
   3   -130.1096405  0.295467E-03  0.110E-01    0.17       1.0  T
   4   -130.1099401 -0.299596E-03  0.372E-02    0.17       1.0  T
   5   -130.1099867 -0.466102E-04  0.109E-02    0.17       1.0  T
   6   -130.1099938 -0.710272E-05  0.770E-04    0.17      14.7  T
   7   -130.1099938  0.500256E-08  0.817E-04    0.17      13.9  T
   8   -130.1099938 -0.256490E-07  0.349E-04    0.17      32.4  T
     SCC iter.                  ...        0 min,  0.074 sec
     gradient                   ...        0 min,  0.015 sec
 * total energy  :  -127.9008643 Eh     change       -0.2974380E-04 Eh
   gradient norm :     0.0009457 Eh/α   predicted    -0.1207007E-04 ( -59.42%)
   displ. norm   :     0.2539474 α      lambda       -0.2422134E-04
   maximum displ.:     0.1431004 α      in ANC's #1, #5, #6, ...

........................................................................
.............................. CYCLE   51 ..............................
........................................................................

 iter      E             dE          RMSdq      gap      omega  full diag
   1   -130.1091068 -0.130109E+03  0.537E-02    0.17       0.0  T
   2   -130.1090173  0.894381E-04  0.634E-02    0.17       1.0  T
   3   -130.1086274  0.389898E-03  0.128E-01    0.17       1.0  T
   4   -130.1090236 -0.396109E-03  0.465E-02    0.17       1.0  T
   5   -130.1090977 -0.741135E-04  0.137E-02    0.17       1.0  T
   6   -130.1091084 -0.107075E-04  0.485E-03    0.17       2.3  T
   7   -130.1091092 -0.810298E-06  0.952E-04    0.17      11.9  T
   8   -130.1091092 -0.126677E-07  0.698E-04    0.17      16.2  T
     SCC iter.                  ...        0 min,  0.072 sec
     gradient                   ...        0 min,  0.017 sec
 * total energy  :  -127.9008929 Eh     change       -0.2857547E-04 Eh
   gradient norm :     0.0012077 Eh/α   predicted    -0.1246043E-04 ( -56.39%)
   displ. norm   :     0.2218562 α      lambda       -0.1736658E-04
   maximum displ.:     0.1298777 α      in ANC's #1, #5, #6, ...

........................................................................
.............................. CYCLE   52 ..............................
........................................................................

 iter      E             dE          RMSdq      gap      omega  full diag
   1   -130.1090570 -0.130109E+03  0.444E-02    0.17       0.0  T
   2   -130.1089939  0.631103E-04  0.527E-02    0.17       1.0  T
   3   -130.1087161  0.277793E-03  0.108E-01    0.17       1.0  T
   4   -130.1090086 -0.292466E-03  0.355E-02    0.17       1.0  T
   5   -130.1090506 -0.419680E-04  0.125E-02    0.17       1.0  T
   6   -130.1090582 -0.759290E-05  0.415E-03    0.17       2.7  T
   7   -130.1090589 -0.741767E-06  0.392E-04    0.17      28.9  T
   8   -130.1090589  0.170353E-07  0.642E-04    0.17      17.6  T
     SCC iter.                  ...        0 min,  0.074 sec
     gradient                   ...        0 min,  0.015 sec
 * total energy  :  -127.9009142 Eh     change       -0.2135669E-04 Eh
   gradient norm :     0.0012832 Eh/α   predicted    -0.8876336E-05 ( -58.44%)
   displ. norm   :     0.2149231 α      lambda       -0.1682309E-04
   maximum displ.:     0.1296883 α      in ANC's #1, #5, #6, ...

........................................................................
.............................. CYCLE   53 ..............................
........................................................................

 iter      E             dE          RMSdq      gap      omega  full diag
   1   -130.1094251 -0.130109E+03  0.407E-02    0.17       0.0  T
   2   -130.1093859  0.391415E-04  0.427E-02    0.17       1.0  T
   3   -130.1090829  0.303013E-03  0.108E-01    0.17       1.0  T
   4   -130.1094072 -0.324302E-03  0.193E-02    0.16       1.0  T
   5   -130.1094233 -0.161252E-04  0.840E-03    0.17       1.3  T
   6   -130.1094260 -0.265350E-05  0.318E-03    0.17       3.6  T
   7   -130.1094266 -0.632900E-06  0.111E-03    0.17      10.2  T
   8   -130.1094266 -0.989743E-08  0.588E-04    0.17      19.3  T
   9   -130.1094266 -0.229163E-07  0.241E-04    0.17      46.9  T
     SCC iter.                  ...        0 min,  0.083 sec
     gradient                   ...        0 min,  0.021 sec
 * total energy  :  -127.9009357 Eh     change       -0.2147744E-04 Eh
   gradient norm :     0.0010023 Eh/α   predicted    -0.8584533E-05 ( -60.03%)
   displ. norm   :     0.2553619 α      lambda       -0.2019677E-04
   maximum displ.:     0.1567075 α      in ANC's #1, #5, #6, ...

........................................................................
.............................. CYCLE   54 ..............................
........................................................................

 iter      E             dE          RMSdq      gap      omega  full diag
   1   -130.1099081 -0.130110E+03  0.474E-02    0.16       0.0  T
   2   -130.1098541  0.539824E-04  0.496E-02    0.17       1.0  T
   3   -130.1094366  0.417474E-03  0.127E-01    0.16       1.0  T
   4   -130.1098991 -0.462473E-03  0.124E-02    0.16       1.0  T
   5   -130.1099091 -0.100189E-04  0.459E-03    0.16       2.5  T
   6   -130.1099083  0.880147E-06  0.597E-03    0.16       1.9  T
   7   -130.1099101 -0.182463E-05  0.257E-03    0.16       4.4  T
   8   -130.1099102 -0.168568E-06  0.430E-04    0.16      26.3  T
   9   -130.1099102 -0.606917E-08  0.773E-04    0.16      14.7  T
     SCC iter.                  ...        0 min,  0.081 sec
     gradient                   ...        0 min,  0.015 sec
 * total energy  :  -127.9009607 Eh     change       -0.2498169E-04 Eh
   gradient norm :     0.0008526 Eh/α   predicted    -0.1039140E-04 ( -58.40%)
   displ. norm   :     0.2935838 α      lambda       -0.2088096E-04
   maximum displ.:     0.1821931 α      in ANC's #1, #5, #6, ...

........................................................................
.............................. CYCLE   55 ..............................
........................................................................

 iter      E             dE          RMSdq      gap      omega  full diag
   1   -130.1101377 -0.130110E+03  0.540E-02    0.16       0.0  T
   2   -130.1100872  0.505033E-04  0.503E-02    0.16       1.0  T
   3   -130.1093938  0.693483E-03  0.159E-01    0.16       1.0  T
   4   -130.1101226 -0.728881E-03  0.194E-02    0.16       1.0  T
   5   -130.1101392 -0.165677E-04  0.288E-03    0.16       3.9  T
   6   -130.1101380  0.118190E-05  0.573E-03    0.16       2.0  T
   7   -130.1101395 -0.152216E-05  0.316E-03    0.16       3.6  T
   8   -130.1101398 -0.261421E-06  0.116E-03    0.16       9.8  T
   9   -130.1101398 -0.173718E-07  0.843E-04    0.16      13.4  T
  10   -130.1101398 -0.236260E-07  0.187E-04    0.16      60.5  T
     SCC iter.                  ...        0 min,  0.093 sec
     gradient                   ...        0 min,  0.017 sec
 * total energy  :  -127.9009858 Eh     change       -0.2510480E-04 Eh
   gradient norm :     0.0010383 Eh/α   predicted    -0.1084348E-04 ( -56.81%)
   displ. norm   :     0.2762559 α      lambda       -0.1667288E-04
   maximum displ.:     0.1738995 α      in ANC's #1, #5, #6, ...

........................................................................
.............................. CYCLE   56 ..............................
........................................................................

 iter      E             dE          RMSdq      gap      omega  full diag
   1   -130.1102042 -0.130110E+03  0.512E-02    0.16       0.0  T
   2   -130.1101854  0.187802E-04  0.379E-02    0.16       1.0  T
   3   -130.1091999  0.985456E-03  0.181E-01    0.16       1.0  T
   4   -130.1101763 -0.976387E-03  0.261E-02    0.16       1.0  T
   5   -130.1102026 -0.262904E-04  0.746E-03    0.16       1.5  T
   6   -130.1102043 -0.164702E-05  0.562E-03    0.16       2.0  T
   7   -130.1102051 -0.796863E-06  0.303E-03    0.16       3.7  T
   8   -130.1102053 -0.241717E-06  0.108E-03    0.16      10.5  T
   9   -130.1102053 -0.150343E-07  0.728E-04    0.16      15.5  T
  10   -130.1102053 -0.180459E-07  0.154E-04    0.16      73.4  T
     SCC iter.                  ...        0 min,  0.090 sec
     gradient                   ...        0 min,  0.019 sec
 * total energy  :  -127.9010063 Eh     change       -0.2047280E-04 Eh
   gradient norm :     0.0009824 Eh/α   predicted    -0.8621655E-05 ( -57.89%)
   displ. norm   :     0.2324285 α      lambda       -0.1308988E-04
   maximum displ.:     0.1496998 α      in ANC's #1, #5, #6, ...

........................................................................
.............................. CYCLE   57 ..............................
........................................................................

 iter      E             dE          RMSdq      gap      omega  full diag
   1   -130.1104515 -0.130110E+03  0.437E-02    0.16       0.0  T
   2   -130.1104370  0.144711E-04  0.326E-02    0.16       1.0  T
   3   -130.1097277  0.709307E-03  0.154E-01    0.16       1.0  T
   4   -130.1104205 -0.692757E-03  0.237E-02    0.16       1.0  T
   5   -130.1104481 -0.276370E-04  0.103E-02    0.16       1.1  T
   6   -130.1104523 -0.414766E-05  0.251E-03    0.16       4.5  T
   7   -130.1104524 -0.678769E-07  0.190E-03    0.16       6.0  T
   8   -130.1104525 -0.106459E-06  0.400E-04    0.16      28.3  T
   9   -130.1104524  0.102620E-07  0.647E-04    0.16      17.5  T
     SCC iter.                  ...        0 min,  0.082 sec
     gradient                   ...        0 min,  0.015 sec
 * total energy  :  -127.9010226 Eh     change       -0.1633831E-04 Eh
   gradient norm :     0.0008174 Eh/α   predicted    -0.6703149E-05 ( -58.97%)
   displ. norm   :     0.1954368 α      lambda       -0.1111648E-04
   maximum displ.:     0.1291378 α      in ANC's #1, #5, #6, ...

........................................................................
.............................. CYCLE   58 ..............................
........................................................................

 iter      E             dE          RMSdq      gap      omega  full diag
   1   -130.1105218 -0.130111E+03  0.380E-02    0.16       0.0  T
   2   -130.1105201  0.171876E-05  0.227E-02    0.16       1.0  T
   3   -130.1103665  0.153623E-03  0.625E-02    0.16       1.0  T
   4   -130.1104936 -0.127116E-03  0.264E-02    0.16       1.0  T
   5   -130.1105150 -0.214327E-04  0.146E-02    0.16       1.0  T
   6   -130.1105225 -0.746029E-05  0.185E-03    0.16       6.1  T
   7   -130.1105226 -0.135782E-06  0.473E-04    0.16      23.9  T
   8   -130.1105226  0.332841E-08  0.462E-04    0.16      24.5  T
     SCC iter.                  ...        0 min,  0.074 sec
     gradient                   ...        0 min,  0.020 sec
 * total energy  :  -127.9010364 Eh     change       -0.1383229E-04 Eh
   gradient norm :     0.0005477 Eh/α   predicted    -0.5653142E-05 ( -59.13%)
   displ. norm   :     0.1712863 α      lambda       -0.9874862E-05
   maximum displ.:     0.1159630 α      in ANC's #1, #5, #6, ...

........................................................................
.............................. CYCLE   59 ..............................
........................................................................

 iter      E             dE          RMSdq      gap      omega  full diag
   1   -130.1105873 -0.130111E+03  0.341E-02    0.16       0.0  T
   2   -130.1105856  0.170272E-05  0.205E-02    0.16       1.0  T
   3   -130.1104681  0.117478E-03  0.544E-02    0.16       1.0  T
   4   -130.1105502 -0.821373E-04  0.324E-02    0.16       1.0  T
   5   -130.1105843 -0.340352E-04  0.103E-02    0.16       1.1  T
   6   -130.1105880 -0.372824E-05  0.117E-03    0.16       9.7  T
   7   -130.1105881 -0.910713E-07  0.340E-04    0.16      33.3  T
   8   -130.1105881  0.122617E-08  0.289E-04    0.16      39.2  T
     SCC iter.                  ...        0 min,  0.073 sec
     gradient                   ...        0 min,  0.016 sec
 * total energy  :  -127.9010486 Eh     change       -0.1218273E-04 Eh
   gradient norm :     0.0005208 Eh/α   predicted    -0.5003624E-05 ( -58.93%)
   displ. norm   :     0.1499405 α      lambda       -0.8100169E-05
   maximum displ.:     0.1033736 α      in ANC's #1, #5, #9, ...

........................................................................
.............................. CYCLE   60 ..............................
........................................................................

 iter      E             dE          RMSdq      gap      omega  full diag
   1   -130.1106722 -0.130111E+03  0.301E-02    0.16       0.0  T
   2   -130.1106713  0.963492E-06  0.179E-02    0.16       1.0  T
   3   -130.1106314  0.398711E-04  0.260E-02    0.16       1.0  T
   4   -130.1106502 -0.188270E-04  0.276E-02    0.16       1.0  T
   5   -130.1106722 -0.219165E-04  0.266E-03    0.16       4.3  T
   6   -130.1106727 -0.559170E-06  0.129E-03    0.16       8.8  T
   7   -130.1106728 -0.766396E-07  0.313E-04    0.16      36.2  T
   8   -130.1106728  0.257432E-08  0.234E-04    0.16      48.4  T
     SCC iter.                  ...        0 min,  0.076 sec
     gradient                   ...        0 min,  0.018 sec
 * total energy  :  -127.9010587 Eh     change       -0.1008427E-04 Eh
   gradient norm :     0.0005990 Eh/α   predicted    -0.4091677E-05 ( -59.43%)
   displ. norm   :     0.1272442 α      lambda       -0.6444145E-05
   maximum displ.:     0.0890230 α      in ANC's #1, #5, #9, ...

........................................................................
.............................. CYCLE   61 ..............................
........................................................................

 iter      E             dE          RMSdq      gap      omega  full diag
   1   -130.1105709 -0.130111E+03  0.254E-02    0.15       0.0  T
   2   -130.1105682  0.269053E-05  0.174E-02    0.16       1.0  T
   3   -130.1103207  0.247570E-03  0.923E-02    0.16       1.0  T
   4   -130.1105599 -0.239178E-03  0.148E-02    0.15       1.0  T
   5   -130.1105704 -0.105836E-04  0.443E-03    0.15       2.6  T
   6   -130.1105711 -0.636119E-06  0.205E-03    0.16       5.5  T
   7   -130.1105712 -0.131104E-06  0.397E-04    0.16      28.5  T
   8   -130.1105712 -0.115583E-08  0.188E-04    0.16      60.4  T
     SCC iter.                  ...        0 min,  0.074 sec
     gradient                   ...        0 min,  0.016 sec
 * total energy  :  -127.9010666 Eh     change       -0.7915769E-05 Eh
   gradient norm :     0.0005752 Eh/α   predicted    -0.3246036E-05 ( -58.99%)
   displ. norm   :     0.0992379 α      lambda       -0.4771431E-05
   maximum displ.:     0.0702555 α      in ANC's #1, #5, #9, ...

........................................................................
.............................. CYCLE   62 ..............................
........................................................................

 iter      E             dE          RMSdq      gap      omega  full diag
   1   -130.1107617 -0.130111E+03  0.192E-02    0.15       0.0  T
   2   -130.1107602  0.152066E-05  0.134E-02    0.15       1.0  T
   3   -130.1106442  0.115938E-03  0.632E-02    0.15       1.0  T
   4   -130.1107531 -0.108813E-03  0.151E-02    0.15       1.0  T
   5   -130.1107604 -0.735878E-05  0.628E-03    0.15       1.8  T
   6   -130.1107618 -0.138139E-05  0.471E-04    0.15      24.0  T
   7   -130.1107618 -0.651065E-08  0.189E-04    0.15      60.0  T
   8   -130.1107618 -0.169132E-08  0.171E-04    0.15      66.1  T
     SCC iter.                  ...        0 min,  0.075 sec
     gradient                   ...        0 min,  0.015 sec
 * total energy  :  -127.9010724 Eh     change       -0.5733496E-05 Eh
   gradient norm :     0.0004555 Eh/α   predicted    -0.2397014E-05 ( -58.19%)
   displ. norm   :     0.0684197 α      lambda       -0.3185839E-05
   maximum displ.:     0.0499003 α      in ANC's #1, #5, #9, ...

........................................................................
.............................. CYCLE   63 ..............................
........................................................................

 iter      E             dE          RMSdq      gap      omega  full diag
   1   -130.1107468 -0.130111E+03  0.123E-02    0.15       0.0  T
   2   -130.1107467  0.120380E-06  0.751E-03    0.15       1.5  T
   3   -130.1107029  0.437884E-04  0.385E-02    0.15       1.0  T
   4   -130.1107463 -0.433487E-04  0.419E-03    0.15       2.7  T
   5   -130.1107468 -0.574046E-06  0.796E-04    0.15      14.2  T
   6   -130.1107469 -0.219121E-07  0.270E-04    0.15      41.9  T
     SCC iter.                  ...        0 min,  0.058 sec
     gradient                   ...        0 min,  0.015 sec
 * total energy  :  -127.9010763 Eh     change       -0.3953440E-05 Eh
   gradient norm :     0.0003227 Eh/α   predicted    -0.1598212E-05 ( -59.57%)
   displ. norm   :     0.0460648 α      lambda       -0.2236841E-05
   maximum displ.:     0.0345603 α      in ANC's #1, #5, #4, ...

........................................................................
.............................. CYCLE   64 ..............................
........................................................................

 iter      E             dE          RMSdq      gap      omega  full diag
   1   -130.1107966 -0.130111E+03  0.707E-03    0.15       0.0  T
   2   -130.1107966  0.867688E-07  0.445E-03    0.15       2.5  T
   3   -130.1107826  0.139249E-04  0.217E-02    0.15       1.0  T
   4   -130.1107963 -0.136968E-04  0.249E-03    0.15       4.6  T
   5   -130.1107964 -0.682873E-07  0.234E-03    0.15       4.8  T
   6   -130.1107967 -0.264515E-06  0.790E-04    0.15      14.3  T
   7   -130.1107967 -0.228866E-07  0.257E-04    0.15      44.1  T
     SCC iter.                  ...        0 min,  0.064 sec
     gradient                   ...        0 min,  0.015 sec
 * total energy  :  -127.9010793 Eh     change       -0.2941702E-05 Eh
   gradient norm :     0.0002903 Eh/α   predicted    -0.1120907E-05 ( -61.90%)
   displ. norm   :     0.0403687 α      lambda       -0.2167769E-05
   maximum displ.:     0.0291504 α      in ANC's #1, #4, #2, ...

........................................................................
.............................. CYCLE   65 ..............................
........................................................................

 iter      E             dE          RMSdq      gap      omega  full diag
   1   -130.1108913 -0.130111E+03  0.587E-03    0.16       0.0  T
   2   -130.1108907  0.606129E-06  0.546E-03    0.16       2.1  T
   3   -130.1108821  0.863593E-05  0.179E-02    0.16       1.0  T
   4   -130.1108907 -0.864569E-05  0.397E-03    0.16       2.9  T
   5   -130.1108910 -0.278595E-06  0.280E-03    0.16       4.0  T
   6   -130.1108913 -0.336865E-06  0.119E-03    0.16       9.6  T
   7   -130.1108914 -0.427568E-07  0.292E-04    0.16      38.8  T
   8   -130.1108914 -0.132704E-08  0.183E-04    0.16      62.0  T
     SCC iter.                  ...        0 min,  0.070 sec
     gradient                   ...        0 min,  0.016 sec
 * total energy  :  -127.9010821 Eh     change       -0.2869999E-05 Eh
   gradient norm :     0.0003081 Eh/α   predicted    -0.1088847E-05 ( -62.06%)
   displ. norm   :     0.0500776 α      lambda       -0.2589265E-05
   maximum displ.:     0.0328352 α      in ANC's #1, #2, #6, ...

........................................................................
.............................. CYCLE   66 ..............................
........................................................................

 iter      E             dE          RMSdq      gap      omega  full diag
   1   -130.1109223 -0.130111E+03  0.738E-03    0.16       0.0  T
   2   -130.1109221  0.216904E-06  0.496E-03    0.16       2.3  T
   3   -130.1109121  0.100074E-04  0.185E-02    0.16       1.0  T
   4   -130.1109200 -0.791609E-05  0.794E-03    0.16       1.4  T
   5   -130.1109221 -0.207428E-05  0.202E-03    0.16       5.6  T
   6   -130.1109223 -0.204840E-06  0.180E-03    0.16       6.3  T
   7   -130.1109224 -0.107696E-06  0.213E-04    0.16      53.2  T
   8   -130.1109224 -0.109404E-08  0.823E-05    0.16     137.6  T
     SCC iter.                  ...        0 min,  0.069 sec
     gradient                   ...        0 min,  0.017 sec
 * total energy  :  -127.9010855 Eh     change       -0.3395025E-05 Eh
   gradient norm :     0.0003938 Eh/α   predicted    -0.1299446E-05 ( -61.73%)
   displ. norm   :     0.0634940 α      lambda       -0.2950276E-05
   maximum displ.:     0.0386860 α      in ANC's #1, #2, #6, ...
 * RMSD in coord.:     0.3630995 α      energy gain  -0.3957531E-03 Eh

generating ANC from exact Hessian ...
Using Lindh-Hessian (1995)
 Shifting diagonal of input Hessian by    9.8999190424858916E-003
 Lowest  eigenvalues of input Hessian
    0.000000    0.000000    0.000000    0.000000    0.000000    0.000000
    0.010000    0.010206    0.010418    0.010445    0.010489    0.010565
    0.010696    0.010713    0.011344    0.011508    0.011554    0.011746
 Highest eigenvalues
    2.060958    2.071878    2.076399    2.085126    2.088526    2.097204


........................................................................
.............................. CYCLE   67 ..............................
........................................................................

 iter      E             dE          RMSdq      gap      omega  full diag
   1   -130.1109795 -0.130111E+03  0.101E-02    0.16       0.0  T
   2   -130.1109789  0.657187E-06  0.716E-03    0.16       1.6  T
   3   -130.1109488  0.300794E-04  0.321E-02    0.16       1.0  T
   4   -130.1109771 -0.282639E-04  0.704E-03    0.16       1.6  T
   5   -130.1109793 -0.220846E-05  0.249E-03    0.16       4.5  T
   6   -130.1109795 -0.235205E-06  0.211E-03    0.16       5.4  T
   7   -130.1109796 -0.134588E-06  0.409E-04    0.16      27.7  T
   8   -130.1109796 -0.471798E-08  0.938E-05    0.16     120.8  T
     SCC iter.                  ...        0 min,  0.076 sec
     gradient                   ...        0 min,  0.015 sec
 * total energy  :  -127.9010893 Eh     change       -0.3812475E-05 Eh
   gradient norm :     0.0004324 Eh/α   predicted     0.0000000E+00 (-100.00%)
   displ. norm   :     0.0147270 α      lambda       -0.1196510E-05
   maximum displ.:     0.0112240 α      in ANC's #1, #5, #13, ...

........................................................................
.............................. CYCLE   68 ..............................
........................................................................

 iter      E             dE          RMSdq      gap      omega  full diag
   1   -130.1107825 -0.130111E+03  0.304E-03    0.16       0.0  T
   2   -130.1107821  0.317338E-06  0.376E-03    0.16       3.0  T
   3   -130.1107811  0.108242E-05  0.708E-03    0.16       1.6  T
   4   -130.1107824 -0.135357E-05  0.143E-03    0.16       7.9  T
   5   -130.1107825 -0.359576E-07  0.773E-04    0.16      14.6  T
   6   -130.1107825 -0.203427E-07  0.341E-04    0.16      33.2  T
     SCC iter.                  ...        0 min,  0.055 sec
     gradient                   ...        0 min,  0.016 sec
 * total energy  :  -127.9010911 Eh     change       -0.1789593E-05 Eh
   gradient norm :     0.0002709 Eh/α   predicted    -0.6776090E-06 ( -62.14%)
   displ. norm   :     0.0422921 α      lambda       -0.3146893E-05
   maximum displ.:     0.0289171 α      in ANC's #1, #5, #13, ...

........................................................................
.............................. CYCLE   69 ..............................
........................................................................

 iter      E             dE          RMSdq      gap      omega  full diag
   1   -130.1105946 -0.130111E+03  0.933E-03    0.16       0.0  T
   2   -130.1105901  0.447657E-05  0.136E-02    0.16       1.0  T
   3   -130.1105847  0.542134E-05  0.190E-02    0.16       1.0  T
   4   -130.1105945 -0.982043E-05  0.237E-03    0.16       4.8  T
   5   -130.1105942  0.321114E-06  0.293E-03    0.16       3.9  T
   6   -130.1105947 -0.518345E-06  0.114E-03    0.16       9.9  T
   7   -130.1105948 -0.768652E-07  0.241E-04    0.16      47.0  T
   8   -130.1105948 -0.122930E-08  0.143E-04    0.16      79.0  T
     SCC iter.                  ...        0 min,  0.073 sec
     gradient                   ...        0 min,  0.016 sec
 * total energy  :  -127.9010949 Eh     change       -0.3752283E-05 Eh
   gradient norm :     0.0002758 Eh/α   predicted    -0.1574888E-05 ( -58.03%)
   displ. norm   :     0.0496113 α      lambda       -0.2527719E-05
   maximum displ.:     0.0351022 α      in ANC's #1, #5, #9, ...

........................................................................
.............................. CYCLE   70 ..............................
........................................................................

 iter      E             dE          RMSdq      gap      omega  full diag
   1   -130.1106316 -0.130111E+03  0.105E-02    0.16       0.0  T
   2   -130.1106297  0.196977E-05  0.101E-02    0.16       1.1  T
   3   -130.1106022  0.274124E-04  0.319E-02    0.16       1.0  T
   4   -130.1106306 -0.283671E-04  0.442E-03    0.16       2.6  T
   5   -130.1106307 -0.599985E-07  0.431E-03    0.16       2.6  T
   6   -130.1106317 -0.107405E-05  0.613E-04    0.16      18.5  T
   7   -130.1106318 -0.132610E-07  0.222E-04    0.16      51.0  T
   8   -130.1106318 -0.156481E-08  0.180E-04    0.16      62.9  T
     SCC iter.                  ...        0 min,  0.075 sec
     gradient                   ...        0 min,  0.016 sec
 * total energy  :  -127.9010979 Eh     change       -0.2983580E-05 Eh
   gradient norm :     0.0004105 Eh/α   predicted    -0.1268494E-05 ( -57.48%)
   displ. norm   :     0.0391139 α      lambda       -0.1712132E-05
   maximum displ.:     0.0285263 α      in ANC's #1, #5, #9, ...

........................................................................
.............................. CYCLE   71 ..............................
........................................................................

 iter      E             dE          RMSdq      gap      omega  full diag
   1   -130.1105937 -0.130111E+03  0.778E-03    0.16       0.0  T
   2   -130.1105907  0.302362E-05  0.111E-02    0.16       1.0  T
   3   -130.1105863  0.438756E-05  0.164E-02    0.16       1.0  T
   4   -130.1105925 -0.619723E-05  0.420E-03    0.16       2.7  T
   5   -130.1105936 -0.114676E-05  0.153E-03    0.16       7.4  T
   6   -130.1105938 -0.149634E-06  0.143E-04    0.16      79.3  T
   7   -130.1105938 -0.716483E-09  0.101E-04    0.16     112.4  T
     SCC iter.                  ...        0 min,  0.066 sec
     gradient                   ...        0 min,  0.016 sec
 * total energy  :  -127.9011002 Eh     change       -0.2354541E-05 Eh
   gradient norm :     0.0004494 Eh/α   predicted    -0.8567975E-06 ( -63.61%)
   displ. norm   :     0.0405550 α      lambda       -0.2112813E-05
   maximum displ.:     0.0293377 α      in ANC's #1, #5, #9, ...

........................................................................
.............................. CYCLE   72 ..............................
........................................................................

 iter      E             dE          RMSdq      gap      omega  full diag
   1   -130.1106363 -0.130111E+03  0.791E-03    0.16       0.0  T
   2   -130.1106329  0.343292E-05  0.116E-02    0.16       1.0  T
   3   -130.1106286  0.431286E-05  0.168E-02    0.16       1.0  T
   4   -130.1106342 -0.557871E-05  0.586E-03    0.16       1.9  T
   5   -130.1106364 -0.219742E-05  0.116E-03    0.16       9.8  T
   6   -130.1106364 -0.674965E-07  0.457E-04    0.16      24.8  T
   7   -130.1106364 -0.512156E-08  0.186E-04    0.16      60.8  T
     SCC iter.                  ...        0 min,  0.064 sec
     gradient                   ...        0 min,  0.018 sec
 * total energy  :  -127.9011032 Eh     change       -0.3020391E-05 Eh
   gradient norm :     0.0003607 Eh/α   predicted    -0.1057552E-05 ( -64.99%)
   displ. norm   :     0.0624918 α      lambda       -0.3430202E-05
   maximum displ.:     0.0443347 α      in ANC's #1, #5, #9, ...

........................................................................
.............................. CYCLE   73 ..............................
........................................................................

 iter      E             dE          RMSdq      gap      omega  full diag
   1   -130.1106482 -0.130111E+03  0.120E-02    0.16       0.0  T
   2   -130.1106402  0.799104E-05  0.178E-02    0.16       1.0  T
   3   -130.1106292  0.110026E-04  0.262E-02    0.16       1.0  T
   4   -130.1106432 -0.140165E-04  0.930E-03    0.16       1.2  T
   5   -130.1106481 -0.488298E-05  0.290E-03    0.16       3.9  T
   6   -130.1106484 -0.331226E-06  0.866E-04    0.16      13.1  T
   7   -130.1106484 -0.214937E-07  0.268E-04    0.16      42.3  T
     SCC iter.                  ...        0 min,  0.066 sec
     gradient                   ...        0 min,  0.016 sec
 * total energy  :  -127.9011079 Eh     change       -0.4713732E-05 Eh
   gradient norm :     0.0002263 Eh/α   predicted    -0.1722542E-05 ( -63.46%)
   displ. norm   :     0.0915183 α      lambda       -0.4396652E-05
   maximum displ.:     0.0646822 α      in ANC's #1, #5, #9, ...

........................................................................
.............................. CYCLE   74 ..............................
........................................................................

 iter      E             dE          RMSdq      gap      omega  full diag
   1   -130.1106550 -0.130111E+03  0.174E-02    0.16       0.0  T
   2   -130.1106384  0.166187E-04  0.258E-02    0.16       1.0  T
   3   -130.1106148  0.236304E-04  0.380E-02    0.16       1.0  T
   4   -130.1106450 -0.302381E-04  0.142E-02    0.16       1.0  T
   5   -130.1106542 -0.914587E-05  0.594E-03    0.16       1.9  T
   6   -130.1106555 -0.132552E-05  0.646E-04    0.16      17.5  T
   7   -130.1106555 -0.130433E-07  0.255E-04    0.16      44.4  T
   8   -130.1106555 -0.311985E-09  0.198E-04    0.16      57.3  T
     SCC iter.                  ...        0 min,  0.074 sec
     gradient                   ...        0 min,  0.017 sec
 * total energy  :  -127.9011138 Eh     change       -0.5823782E-05 Eh
   gradient norm :     0.0002857 Eh/α   predicted    -0.2206976E-05 ( -62.10%)
   displ. norm   :     0.0978233 α      lambda       -0.3914694E-05
   maximum displ.:     0.0694090 α      in ANC's #1, #5, #2, ...

........................................................................
.............................. CYCLE   75 ..............................
........................................................................

 iter      E             dE          RMSdq      gap      omega  full diag
   1   -130.1106683 -0.130111E+03  0.179E-02    0.16       0.0  T
   2   -130.1106571  0.112207E-04  0.222E-02    0.16       1.0  T
   3   -130.1106151  0.420066E-04  0.434E-02    0.16       1.0  T
   4   -130.1106596 -0.445171E-04  0.131E-02    0.16       1.0  T
   5   -130.1106678 -0.817279E-05  0.455E-03    0.16       2.5  T
   6   -130.1106687 -0.878528E-06  0.281E-04    0.16      40.3  T
   7   -130.1106687 -0.394550E-08  0.170E-04    0.16      66.5  T
     SCC iter.                  ...        0 min,  0.065 sec
     gradient                   ...        0 min,  0.016 sec
 * total energy  :  -127.9011190 Eh     change       -0.5244566E-05 Eh
   gradient norm :     0.0003996 Eh/α   predicted    -0.1967194E-05 ( -62.49%)
   displ. norm   :     0.0874175 α      lambda       -0.3229270E-05
   maximum displ.:     0.0623337 α      in ANC's #1, #5, #6, ...

........................................................................
.............................. CYCLE   76 ..............................
........................................................................

 iter      E             dE          RMSdq      gap      omega  full diag
   1   -130.1106629 -0.130111E+03  0.157E-02    0.16       0.0  T
   2   -130.1106546  0.831123E-05  0.194E-02    0.16       1.0  T
   3   -130.1106215  0.330728E-04  0.382E-02    0.16       1.0  T
   4   -130.1106554 -0.339269E-04  0.134E-02    0.16       1.0  T
   5   -130.1106620 -0.654199E-05  0.556E-03    0.16       2.0  T
   6   -130.1106631 -0.113244E-05  0.365E-04    0.16      31.0  T
   7   -130.1106631 -0.445212E-08  0.198E-04    0.16      57.2  T
   8   -130.1106631 -0.601773E-09  0.134E-04    0.16      84.7  T
     SCC iter.                  ...        0 min,  0.075 sec
     gradient                   ...        0 min,  0.016 sec
 * total energy  :  -127.9011235 Eh     change       -0.4497296E-05 Eh
   gradient norm :     0.0004001 Eh/α   predicted    -0.1620692E-05 ( -63.96%)
   displ. norm   :     0.0815087 α      lambda       -0.3105182E-05
   maximum displ.:     0.0581607 α      in ANC's #1, #5, #6, ...

........................................................................
.............................. CYCLE   77 ..............................
........................................................................

 iter      E             dE          RMSdq      gap      omega  full diag
   1   -130.1106885 -0.130111E+03  0.142E-02    0.16       0.0  T
   2   -130.1106868  0.167077E-05  0.114E-02    0.16       1.0  T
   3   -130.1106244  0.623805E-04  0.469E-02    0.16       1.0  T
   4   -130.1106847 -0.603407E-04  0.859E-03    0.16       1.3  T
   5   -130.1106883 -0.357924E-05  0.229E-03    0.16       5.0  T
   6   -130.1106885 -0.225707E-06  0.380E-04    0.16      29.8  T
   7   -130.1106885  0.143567E-08  0.426E-04    0.16      26.6  T
     SCC iter.                  ...        0 min,  0.065 sec
     gradient                   ...        0 min,  0.017 sec
 * total energy  :  -127.9011279 Eh     change       -0.4401527E-05 Eh
   gradient norm :     0.0003144 Eh/α   predicted    -0.1557685E-05 ( -64.61%)
   displ. norm   :     0.0864450 α      lambda       -0.3418126E-05
   maximum displ.:     0.0616904 α      in ANC's #1, #5, #6, ...

........................................................................
.............................. CYCLE   78 ..............................
........................................................................

 iter      E             dE          RMSdq      gap      omega  full diag
   1   -130.1106787 -0.130111E+03  0.151E-02    0.16       0.0  T
   2   -130.1106765  0.223407E-05  0.127E-02    0.16       1.0  T
   3   -130.1106115  0.649619E-04  0.481E-02    0.16       1.0  T
   4   -130.1106750 -0.635093E-04  0.908E-03    0.16       1.2  T
   5   -130.1106785 -0.351147E-05  0.265E-03    0.16       4.3  T
   6   -130.1106788 -0.263902E-06  0.902E-04    0.16      12.5  T
   7   -130.1106788 -0.232412E-07  0.471E-04    0.16      24.1  T
     SCC iter.                  ...        0 min,  0.065 sec
     gradient                   ...        0 min,  0.016 sec
 * total energy  :  -127.9011327 Eh     change       -0.4824536E-05 Eh
   gradient norm :     0.0002022 Eh/α   predicted    -0.1715059E-05 ( -64.45%)
   displ. norm   :     0.0957125 α      lambda       -0.3715867E-05
   maximum displ.:     0.0683692 α      in ANC's #1, #5, #6, ...

........................................................................
.............................. CYCLE   79 ..............................
........................................................................

 iter      E             dE          RMSdq      gap      omega  full diag
   1   -130.1106566 -0.130111E+03  0.168E-02    0.16       0.0  T
   2   -130.1106565  0.672761E-07  0.997E-03    0.16       1.1  T
   3   -130.1106370  0.195360E-04  0.253E-02    0.16       1.0  T
   4   -130.1106539 -0.168825E-04  0.791E-03    0.16       1.4  T
   5   -130.1106566 -0.270044E-05  0.142E-03    0.16       8.0  T
   6   -130.1106566  0.202857E-07  0.199E-03    0.16       5.7  T
   7   -130.1106567 -0.130942E-06  0.604E-04    0.16      18.7  T
   8   -130.1106567 -0.817633E-08  0.160E-04    0.16      70.7  T
     SCC iter.                  ...        0 min,  0.074 sec
     gradient                   ...        0 min,  0.017 sec
 * total energy  :  -127.9011379 Eh     change       -0.5191775E-05 Eh
   gradient norm :     0.0001702 Eh/α   predicted    -0.1865975E-05 ( -64.06%)
   displ. norm   :     0.0997682 α      lambda       -0.3636279E-05
   maximum displ.:     0.0715225 α      in ANC's #1, #5, #6, ...

........................................................................
.............................. CYCLE   80 ..............................
........................................................................

 iter      E             dE          RMSdq      gap      omega  full diag
   1   -130.1106517 -0.130111E+03  0.177E-02    0.16       0.0  T
   2   -130.1106514  0.225349E-06  0.106E-02    0.16       1.1  T
   3   -130.1105915  0.599499E-04  0.438E-02    0.16       1.0  T
   4   -130.1106497 -0.582194E-04  0.507E-03    0.16       2.2  T
   5   -130.1106515 -0.179813E-05  0.197E-03    0.16       5.8  T
   6   -130.1106516 -0.102798E-06  0.220E-03    0.16       5.1  T
   7   -130.1106518 -0.153878E-06  0.733E-04    0.16      15.4  T
   8   -130.1106518 -0.131303E-07  0.186E-04    0.16      60.7  T
     SCC iter.                  ...        0 min,  0.074 sec
     gradient                   ...        0 min,  0.015 sec
 * total energy  :  -127.9011430 Eh     change       -0.5058529E-05 Eh
   gradient norm :     0.0002214 Eh/α   predicted    -0.1827127E-05 ( -63.88%)
   displ. norm   :     0.0935302 α      lambda       -0.3192020E-05
   maximum displ.:     0.0675010 α      in ANC's #1, #5, #6, ...

........................................................................
.............................. CYCLE   81 ..............................
........................................................................

 iter      E             dE          RMSdq      gap      omega  full diag
   1   -130.1106360 -0.130111E+03  0.168E-02    0.16       0.0  T
   2   -130.1106356  0.360504E-06  0.103E-02    0.16       1.1  T
   3   -130.1105542  0.813807E-04  0.520E-02    0.16       1.0  T
   4   -130.1106343 -0.800531E-04  0.477E-03    0.16       2.4  T
   5   -130.1106357 -0.135384E-05  0.253E-03    0.16       4.5  T
   6   -130.1106360 -0.325150E-06  0.173E-03    0.16       6.5  T
   7   -130.1106361 -0.957713E-07  0.609E-04    0.16      18.6  T
   8   -130.1106361 -0.877876E-08  0.163E-04    0.16      69.6  T
     SCC iter.                  ...        0 min,  0.078 sec
     gradient                   ...        0 min,  0.016 sec
 * total energy  :  -127.9011475 Eh     change       -0.4466261E-05 Eh
   gradient norm :     0.0002483 Eh/α   predicted    -0.1603290E-05 ( -64.10%)
   displ. norm   :     0.0808287 α      lambda       -0.2657940E-05
   maximum displ.:     0.0588668 α      in ANC's #1, #5, #6, ...

........................................................................
.............................. CYCLE   82 ..............................
........................................................................

 iter      E             dE          RMSdq      gap      omega  full diag
   1   -130.1106748 -0.130111E+03  0.147E-02    0.16       0.0  T
   2   -130.1106742  0.642617E-06  0.966E-03    0.16       1.2  T
   3   -130.1105909  0.832261E-04  0.534E-02    0.16       1.0  T
   4   -130.1106730 -0.820958E-04  0.573E-03    0.16       2.0  T
   5   -130.1106743 -0.130131E-05  0.317E-03    0.16       3.6  T
   6   -130.1106748 -0.505210E-06  0.111E-03    0.16      10.2  T
   7   -130.1106749 -0.328160E-07  0.576E-04    0.16      19.6  T
   8   -130.1106749 -0.786684E-08  0.169E-04    0.16      66.9  T
     SCC iter.                  ...        0 min,  0.073 sec
     gradient                   ...        0 min,  0.016 sec
 * total energy  :  -127.9011512 Eh     change       -0.3749648E-05 Eh
   gradient norm :     0.0002237 Eh/α   predicted    -0.1333754E-05 ( -64.43%)
   displ. norm   :     0.0684575 α      lambda       -0.2224968E-05
   maximum displ.:     0.0504699 α      in ANC's #1, #5, #6, ...

........................................................................
.............................. CYCLE   83 ..............................
........................................................................

 iter      E             dE          RMSdq      gap      omega  full diag
   1   -130.1106962 -0.130111E+03  0.126E-02    0.16       0.0  T
   2   -130.1106962  0.900980E-07  0.746E-03    0.16       1.5  T
   3   -130.1106747  0.214111E-04  0.260E-02    0.16       1.0  T
   4   -130.1106949 -0.201769E-04  0.503E-03    0.16       2.3  T
   5   -130.1106961 -0.115611E-05  0.158E-03    0.16       7.2  T
   6   -130.1106963 -0.200377E-06  0.631E-04    0.16      17.9  T
   7   -130.1106963 -0.128908E-07  0.237E-04    0.16      47.9  T
     SCC iter.                  ...        0 min,  0.067 sec
     gradient                   ...        0 min,  0.016 sec
 * total energy  :  -127.9011543 Eh     change       -0.3141552E-05 Eh
   gradient norm :     0.0001678 Eh/α   predicted    -0.1115485E-05 ( -64.49%)
   displ. norm   :     0.0569856 α      lambda       -0.1843000E-05
   maximum displ.:     0.0427313 α      in ANC's #1, #5, #6, ...

........................................................................
.............................. CYCLE   84 ..............................
........................................................................

 iter      E             dE          RMSdq      gap      omega  full diag
   1   -130.1107229 -0.130111E+03  0.104E-02    0.16       0.0  T
   2   -130.1107229  0.150743E-07  0.612E-03    0.16       1.9  T
   3   -130.1107216  0.134646E-05  0.380E-03    0.16       3.0  T
   4   -130.1107226 -0.109289E-05  0.283E-03    0.16       4.0  T
   5   -130.1107224  0.264219E-06  0.424E-03    0.16       2.7  T
   6   -130.1107229 -0.560980E-06  0.230E-04    0.16      49.3  T
   7   -130.1107229 -0.135265E-08  0.180E-04    0.16      62.8  T
     SCC iter.                  ...        0 min,  0.064 sec
     gradient                   ...        0 min,  0.016 sec
 * total energy  :  -127.9011569 Eh     change       -0.2596314E-05 Eh
   gradient norm :     0.0001148 Eh/α   predicted    -0.9235789E-06 ( -64.43%)
   displ. norm   :     0.0453800 α      lambda       -0.1467873E-05
   maximum displ.:     0.0348878 α      in ANC's #1, #6, #5, ...

........................................................................
.............................. CYCLE   85 ..............................
........................................................................

 iter      E             dE          RMSdq      gap      omega  full diag
   1   -130.1107514 -0.130111E+03  0.818E-03    0.16       0.0  T
   2   -130.1107509  0.486858E-06  0.626E-03    0.16       1.8  T
   3   -130.1107265  0.244117E-04  0.292E-02    0.16       1.0  T
   4   -130.1107509 -0.243801E-04  0.266E-03    0.16       4.3  T
   5   -130.1107513 -0.476671E-06  0.907E-04    0.16      12.5  T
   6   -130.1107514 -0.667016E-07  0.217E-04    0.16      52.2  T
     SCC iter.                  ...        0 min,  0.057 sec
     gradient                   ...        0 min,  0.015 sec
 * total energy  :  -127.9011590 Eh     change       -0.2067524E-05 Eh
   gradient norm :     0.0000955 Eh/α   predicted    -0.7359786E-06 ( -64.40%)
   displ. norm   :     0.0350521 α      lambda       -0.1142757E-05
   maximum displ.:     0.0277660 α      in ANC's #1, #6, #9, ...

........................................................................
.............................. CYCLE   86 ..............................
........................................................................

 iter      E             dE          RMSdq      gap      omega  full diag
   1   -130.1107584 -0.130111E+03  0.599E-03    0.16       0.0  T
   2   -130.1107582  0.162146E-06  0.414E-03    0.16       2.7  T
   3   -130.1107442  0.139805E-04  0.218E-02    0.16       1.0  T
   4   -130.1107579 -0.136445E-04  0.221E-03    0.16       5.1  T
   5   -130.1107583 -0.460940E-06  0.696E-04    0.16      16.3  T
   6   -130.1107584 -0.503371E-07  0.292E-04    0.16      38.7  T
     SCC iter.                  ...        0 min,  0.057 sec
     gradient                   ...        0 min,  0.017 sec
 * total energy  :  -127.9011606 Eh     change       -0.1626270E-05 Eh
   gradient norm :     0.0000972 Eh/α   predicted    -0.5736101E-06 ( -64.73%)
   displ. norm   :     0.0268266 α      lambda       -0.9041717E-06
   maximum displ.:     0.0219451 α      in ANC's #1, #6, #9, ...

........................................................................
.............................. CYCLE   87 ..............................
........................................................................

 iter      E             dE          RMSdq      gap      omega  full diag
   1   -130.1107686 -0.130111E+03  0.413E-03    0.16       0.0  T
   2   -130.1107683  0.291435E-06  0.387E-03    0.16       2.9  T
   3   -130.1107638  0.451811E-05  0.129E-02    0.16       1.0  T
   4   -130.1107683 -0.448548E-05  0.167E-03    0.16       6.8  T
   5   -130.1107686 -0.288286E-06  0.699E-04    0.16      16.2  T
   6   -130.1107686 -0.420714E-07  0.477E-04    0.16      23.8  T
     SCC iter.                  ...        0 min,  0.055 sec
     gradient                   ...        0 min,  0.017 sec
 * total energy  :  -127.9011619 Eh     change       -0.1299857E-05 Eh
   gradient norm :     0.0001029 Eh/α   predicted    -0.4538338E-06 ( -65.09%)
   displ. norm   :     0.0217073 α      lambda       -0.7767999E-06
   maximum displ.:     0.0181061 α      in ANC's #1, #2, #6, ...

........................................................................
.............................. CYCLE   88 ..............................
........................................................................

 iter      E             dE          RMSdq      gap      omega  full diag
   1   -130.1107734 -0.130111E+03  0.282E-03    0.16       0.0  T
   2   -130.1107729  0.452153E-06  0.420E-03    0.16       2.7  T
   3   -130.1107721  0.782563E-06  0.669E-03    0.16       1.7  T
   4   -130.1107732 -0.104005E-05  0.176E-03    0.16       6.4  T
   5   -130.1107733 -0.143780E-06  0.111E-03    0.16      10.2  T
   6   -130.1107734 -0.558063E-07  0.492E-04    0.16      23.0  T
   7   -130.1107734 -0.628543E-08  0.177E-04    0.16      64.0  T
     SCC iter.                  ...        0 min,  0.066 sec
     gradient                   ...        0 min,  0.016 sec
 * total energy  :  -127.9011631 Eh     change       -0.1133833E-05 Eh
   gradient norm :     0.0001011 Eh/α   predicted    -0.3893650E-06 ( -65.66%)
   displ. norm   :     0.0198599 α      lambda       -0.7502865E-06
   maximum displ.:     0.0164045 α      in ANC's #1, #2, #6, ...

........................................................................
.............................. CYCLE   89 ..............................
........................................................................

 iter      E             dE          RMSdq      gap      omega  full diag
   1   -130.1107722 -0.130111E+03  0.202E-03    0.16       0.0  T
   2   -130.1107717  0.511626E-06  0.429E-03    0.16       2.6  T
   3   -130.1107719 -0.129176E-06  0.383E-03    0.16       3.0  T
   4   -130.1107722 -0.311262E-06  0.105E-03    0.16      10.8  T
   5   -130.1107722 -0.582344E-07  0.710E-04    0.16      15.9  T
   6   -130.1107722 -0.176784E-07  0.465E-04    0.16      24.3  T
     SCC iter.                  ...        0 min,  0.055 sec
     gradient                   ...        0 min,  0.016 sec
 * total energy  :  -127.9011641 Eh     change       -0.1083829E-05 Eh
   gradient norm :     0.0000956 Eh/α   predicted    -0.3799330E-06 ( -64.95%)
   displ. norm   :     0.0219848 α      lambda       -0.8416422E-06
   maximum displ.:     0.0174475 α      in ANC's #1, #2, #5, ...

........................................................................
.............................. CYCLE   90 ..............................
........................................................................

 iter      E             dE          RMSdq      gap      omega  full diag
   1   -130.1107673 -0.130111E+03  0.191E-03    0.16       0.0  T
   2   -130.1107671  0.192861E-06  0.273E-03    0.16       4.1  T
   3   -130.1107666  0.441475E-06  0.479E-03    0.16       2.4  T
   4   -130.1107672 -0.532868E-06  0.125E-03    0.16       9.0  T
   5   -130.1107673 -0.831245E-07  0.776E-04    0.16      14.6  T
   6   -130.1107673 -0.196881E-07  0.441E-04    0.16      25.7  T
     SCC iter.                  ...        0 min,  0.054 sec
     gradient                   ...        0 min,  0.015 sec
 * total energy  :  -127.9011654 Eh     change       -0.1235858E-05 Eh
   gradient norm :     0.0000865 Eh/α   predicted    -0.4214902E-06 ( -65.89%)
   displ. norm   :     0.0271935 α      lambda       -0.1033342E-05
   maximum displ.:     0.0204598 α      in ANC's #1, #2, #5, ...

........................................................................
.............................. CYCLE   91 ..............................
........................................................................

 iter      E             dE          RMSdq      gap      omega  full diag
   1   -130.1107627 -0.130111E+03  0.261E-03    0.16       0.0  T
   2   -130.1107624  0.257635E-06  0.329E-03    0.16       3.4  T
   3   -130.1107614  0.104117E-05  0.682E-03    0.16       1.7  T
   4   -130.1107625 -0.114930E-05  0.174E-03    0.16       6.5  T
   5   -130.1107627 -0.120784E-06  0.995E-04    0.16      11.4  T
   6   -130.1107627 -0.315299E-07  0.459E-04    0.16      24.7  T
     SCC iter.                  ...        0 min,  0.057 sec
     gradient                   ...        0 min,  0.017 sec
 * total energy  :  -127.9011669 Eh     change       -0.1513892E-05 Eh
   gradient norm :     0.0000845 Eh/α   predicted    -0.5174262E-06 ( -65.82%)
   displ. norm   :     0.0365754 α      lambda       -0.1353720E-05
   maximum displ.:     0.0261922 α      in ANC's #1, #2, #5, ...

........................................................................
.............................. CYCLE   92 ..............................
........................................................................

 iter      E             dE          RMSdq      gap      omega  full diag
   1   -130.1107500 -0.130111E+03  0.403E-03    0.16       0.0  T
   2   -130.1107499  0.436836E-07  0.262E-03    0.16       4.3  T
   3   -130.1107443  0.568145E-05  0.139E-02    0.16       1.0  T
   4   -130.1107498 -0.555647E-05  0.171E-03    0.16       6.6  T
   5   -130.1107500 -0.156318E-06  0.584E-04    0.16      19.4  T
   6   -130.1107500 -0.154334E-07  0.433E-04    0.16      26.1  T
     SCC iter.                  ...        0 min,  0.058 sec
     gradient                   ...        0 min,  0.016 sec
 * total energy  :  -127.9011689 Eh     change       -0.1972112E-05 Eh
   gradient norm :     0.0000894 Eh/α   predicted    -0.6781429E-06 ( -65.61%)
   displ. norm   :     0.0497987 α      lambda       -0.1769428E-05
   maximum displ.:     0.0344560 α      in ANC's #1, #2, #5, ...
 * RMSD in coord.:     0.1471692 α      energy gain  -0.8335556E-04 Eh

generating ANC from exact Hessian ...
Using Lindh-Hessian (1995)
 Shifting diagonal of input Hessian by    9.9014349973183865E-003
 Lowest  eigenvalues of input Hessian
    0.000000    0.000000    0.000000    0.000000    0.000000    0.000000
    0.010000    0.010207    0.010418    0.010445    0.010494    0.010573
    0.010701    0.010718    0.011347    0.011514    0.011556    0.011753
 Highest eigenvalues
    2.060669    2.071695    2.076516    2.085398    2.088289    2.097028


........................................................................
.............................. CYCLE   93 ..............................
........................................................................

 iter      E             dE          RMSdq      gap      omega  full diag
   1   -130.1107518 -0.130111E+03  0.617E-03    0.16       0.0  T
   2   -130.1107515  0.280971E-06  0.473E-03    0.16       2.4  T
   3   -130.1107379  0.136458E-04  0.219E-02    0.16       1.0  T
   4   -130.1107515 -0.136241E-04  0.247E-03    0.16       4.6  T
   5   -130.1107518 -0.263946E-06  0.110E-03    0.16      10.3  T
   6   -130.1107518 -0.500979E-07  0.500E-04    0.16      22.7  T
   7   -130.1107518 -0.609370E-08  0.213E-04    0.16      53.1  T
     SCC iter.                  ...        0 min,  0.066 sec
     gradient                   ...        0 min,  0.016 sec
 * total energy  :  -127.9011714 Eh     change       -0.2554610E-05 Eh
   gradient norm :     0.0000977 Eh/α   predicted     0.0000000E+00 (-100.00%)
   displ. norm   :     0.0099864 α      lambda       -0.1273117E-07
   maximum displ.:     0.0093114 α      in ANC's #1, #13, #6, ...

........................................................................
.............................. CYCLE   94 ..............................
........................................................................

 iter      E             dE          RMSdq      gap      omega  full diag
   1   -130.1107337 -0.130111E+03  0.139E-03    0.16       0.0  T
   2   -130.1107336  0.145036E-06  0.238E-03    0.16       4.7  T
   3   -130.1107335  0.121215E-06  0.309E-03    0.16       3.7  T
   4   -130.1107337 -0.218415E-06  0.124E-03    0.16       9.1  T
   5   -130.1107337 -0.395991E-07  0.388E-04    0.16      29.1  T
   6   -130.1107337 -0.108599E-07  0.119E-04    0.16      94.8  T
     SCC iter.                  ...        0 min,  0.054 sec
     gradient                   ...        0 min,  0.015 sec
 * total energy  :  -127.9011721 Eh     change       -0.6896084E-06 Eh
   gradient norm :     0.0000784 Eh/α   predicted    -0.2339922E-06 ( -66.07%)
   displ. norm   :     0.0154231 α      lambda       -0.6799275E-06
   maximum displ.:     0.0128494 α      in ANC's #1, #13, #6, ...

   *** GEOMETRY OPTIMIZATION CONVERGED AFTER 94 ITERATIONS ***

------------------------------------------------------------------------
 total energy gain   :        -0.1535022 Eh      -96.3241 kcal/mol
 total RMSD          :         1.4109266 a0        0.7466 Å
 total power (kW/mol):        -4.2874462 (step)  -39.7311 (real)
------------------------------------------------------------------------

 ANCopt (total)                0 d,  0 h,  0 min, 10.144 sec
 optimizer setup                ...        0 min,  0.000 sec (  0.001%)
 model hessian                  ...        0 min,  0.058 sec (  0.570%)
 ANC generation                 ...        0 min,  0.026 sec (  0.252%)
 coordinate transformation      ...        0 min,  0.002 sec (  0.018%)
 single point calculation       ...        0 min, 10.031 sec ( 98.890%)
 optimization log               ...        0 min,  0.010 sec (  0.103%)
 hessian update                 ...        0 min,  0.004 sec (  0.036%)
 rational function              ...        0 min,  0.010 sec (  0.095%)

================
 final structure:
================
78
 xtb: 6.7.1 (edcfbbe)
N            2.08081615480322        0.00134022614860       -0.20992820853300
N            0.07436020617098       -2.04826097316124       -0.21186517047159
C            2.40543336500566        2.43355724708645       -0.27390667823189
C            2.85970844782071        1.12002827712697       -0.18011494527724
C            4.23078713733587        0.74801046210720        0.02963031477213
H            5.04784569637671        1.43549582526860        0.12816743615339
C            4.26437469686339       -0.60318038115945        0.12636149080715
H            5.11409613809252       -1.22786462795134        0.31933016824711
C            2.91714610744901       -1.06925095473939       -0.04706490169530
C            2.52877823884080       -2.40244413562095       -0.05225666211941
C            1.18624385169674       -2.83987925937394       -0.22332420939314
C            0.82540314082426       -4.18026726396922       -0.48265958810242
H            1.50426435751498       -5.00495507520673       -0.57459168255577
C           -0.54328502448601       -4.20415122643542       -0.61374004604925
H           -1.16539984573423       -5.05737256745115       -0.79798450988680
C           -0.99290285365056       -2.87533138452605       -0.43934436961741
C            3.55515380249032       -3.44242954583079        0.09883827196634
C            3.44812905487162       -4.38197014873071        1.12466887395046
C            4.41493113504759       -5.35529270908536        1.28783334309617
C            5.49555159549219       -5.41786500825818        0.42234822157194
H            6.24803291361367       -6.18199777750909        0.54845926565277
C            5.60422137177704       -4.49789415275594       -0.60763616778974
C            4.64545057764761       -3.51493086601079       -0.76740605901788
N           -2.03351867361199       -0.08282673098325       -0.13954225899256
N           -0.02508969243277        1.97167967266763       -0.05759710035911
C           -2.35659664549253       -2.49893329458357       -0.40606433711660
C           -2.81352541220044       -1.20039409839325       -0.20919056405074
C           -4.19538716422209       -0.83054615642279       -0.08473754726055
H           -5.02178076432699       -1.51286479951519       -0.12141000013791
C           -4.23176922978743        0.51221661946047        0.09300093176236
H           -5.09214768629506        1.13047619012932        0.25675641809461
C           -2.87559749748992        0.98084870564827        0.02543043046224
C           -2.48645320457453        2.31329188085116        0.07169094613315
C           -1.14273547690412        2.75491982045719       -0.07983545957036
C           -0.79157795027593        4.09389765785538       -0.35673526589639
H           -1.47709754627283        4.91094336317595       -0.46633914599291
C            0.57757937666169        4.12484182132873       -0.49028341161456
H            1.18888497201882        4.97130988666878       -0.73315309781192
C            1.03793909915234        2.80627989723807       -0.27812342982359
C           -3.50983110401756        3.35507862459794        0.23362852875055
C           -3.41248749762764        4.26184779468281        1.28948388259440
C           -4.37212298465660        5.23993751500728        1.46546749920486
C           -5.43557042608512        5.34080499909803        0.58251605718640
H           -6.18283873718955        6.10833035635526        0.71862530702130
C           -5.53239988670161        4.45614502323418       -0.47902063212655
C           -4.58050802998319        3.46863506538569       -0.65226216542174
Fe           0.02861870139392       -0.05120169821556        0.20107130686424
C           -3.35712328128016       -3.57074633456749       -0.56902264826059
C           -4.20725354016972       -3.91589447131008        0.47846148010295
C           -3.46549448950667       -4.25222482605083       -1.77894319729350
C           -5.14341272164565       -4.92105920600440        0.31795931396071
C           -4.40913818994312       -5.24995963452370       -1.93874947533464
H           -5.79220762598245       -5.18530071958531        1.14020245438997
C           -5.24958921886765       -5.58856570264221       -0.89095242952254
H           -4.48926440828678       -5.76559420754011       -2.88462690399523
H           -5.98355619082872       -6.37071481560591       -1.01595419152660
C            3.40505167663277        3.50743641988617       -0.34302146087329
C            3.39560353835833        4.55446645073056        0.57863282581914
C            4.38657201906629        3.49559831747332       -1.33455546911015
C            4.34320321720668        5.55781427671140        0.51042292311667
C            5.32547774817561        4.50707891474123       -1.40603874203903
H            4.33023547565795        6.35740402937904        1.23655384654377
C            5.30881958907360        5.54052391314667       -0.48341383985315
H            6.07311468930546        4.49057310311125       -2.18566510680440
H            6.04518934794796        6.32839898464038       -0.53826147603642
H            4.32626307298746       -6.06891662867336        2.09378181201451
H            6.43937671957362       -4.54818311145096       -1.29108017013942
H           -4.29118218425497        5.92760232263445        2.29448682499790
H           -6.35246047137839        4.53813898634094       -1.17752617685121
H            2.65271637866010        4.55922504493303        1.36240892669432
H            4.39086959762055        2.69727844266387       -2.06243475445655
H           -4.11500988209757       -3.40229570120822        1.42427555307281
H           -2.81387246709792       -3.98201334884458       -2.59712287738078
H           -2.58714657851326        4.17616936279324        1.98069688214378
H           -4.64467573702879        2.79445017985018       -1.49395093976920
H            2.61080842620786       -4.32480837772613        1.80428774613590
H            4.72064153178281       -2.81012640942842       -1.58270639345376
Cl           0.07314523454526       -0.13548713825130        2.33880810517944

 Bond Distances (Angstroems)
 ---------------------------
N1-C4=1.3635         N1-C9=1.3683         N1-Fe47=2.0936       N2-C11=1.3649        N2-C16=1.3692        N2-Fe47=2.0398       
C3-C4=1.3930         C3-C39=1.4174        C3-C57=1.4688        C4-N1=1.3635         C4-C3=1.3930         C4-C5=1.4361         
C5-C4=1.4361         C5-H6=1.0723         C5-C7=1.3551         H6-C5=1.0723         C7-C5=1.3551         C7-H8=1.0721         
C7-C9=1.4361         H8-C7=1.0721         C9-N1=1.3683         C9-C7=1.4361         C9-C10=1.3886        C10-C9=1.3886        
C10-C11=1.4223       C10-C17=1.4690       C11-N2=1.3649        C11-C10=1.4223       C11-C12=1.4121       C12-C11=1.4121       
C12-H13=1.0721       C12-C14=1.3752       H13-C12=1.0721       C14-C12=1.3752       C14-H15=1.0719       C14-C16=1.4136       
H15-C14=1.0719       C16-N2=1.3692        C16-C14=1.4136       C16-C26=1.4151       C17-C10=1.4690       C17-C18=1.3952       
C17-C23=1.3944       C18-C17=1.3952       C18-C19=1.3816       C18-H76=1.0799       C19-C18=1.3816       C19-C20=1.3859       
C19-H66=1.0801       C20-C19=1.3859       C20-H21=1.0798       C20-C22=1.3853       H21-C20=1.0798       C22-C20=1.3853       
C22-C23=1.3824       C22-H67=1.0803       C23-C17=1.3944       C23-C22=1.3824       C23-H77=1.0803       N24-C27=1.3646       
N24-C32=1.3666       N24-Fe47=2.0903      N25-C34=1.3650       N25-C39=1.3694       N25-Fe47=2.0401      C26-C16=1.4151       
C26-C27=1.3906       C26-C48=1.4753       C27-N24=1.3646       C27-C26=1.3906       C27-C28=1.4359       C28-C27=1.4359       
C28-H29=1.0723       C28-C30=1.3550       H29-C28=1.0723       C30-C28=1.3550       C30-H31=1.0721       C30-C32=1.4364       
H31-C30=1.0721       C32-N24=1.3666       C32-C30=1.4364       C32-C33=1.3889       C33-C32=1.3889       C33-C34=1.4225       
C33-C40=1.4693       C34-N25=1.3650       C34-C33=1.4225       C34-C35=1.4117       C35-C34=1.4117       C35-H36=1.0722       
C35-C37=1.3760       H36-C35=1.0722       C37-C35=1.3760       C37-H38=1.0720       C37-C39=1.4126       H38-C37=1.0720       
C39-C3=1.4174        C39-N25=1.3694       C39-C37=1.4126       C40-C33=1.4693       C40-C41=1.3952       C40-C46=1.3943       
C41-C40=1.3952       C41-C42=1.3815       C41-H74=1.0800       C42-C41=1.3815       C42-C43=1.3859       C42-H68=1.0801       
C43-C42=1.3859       C43-H44=1.0798       C43-C45=1.3852       H44-C43=1.0798       C45-C43=1.3852       C45-C46=1.3825       
C45-H69=1.0803       C46-C40=1.3943       C46-C45=1.3825       C46-H75=1.0803       Fe47-N1=2.0936       Fe47-N2=2.0398       
Fe47-N24=2.0903      Fe47-N25=2.0401      Fe47-Cl78=2.1399     C48-C26=1.4753       C48-C49=1.3925       C48-C50=1.3929       
C49-C48=1.3925       C49-C51=1.3829       C49-H72=1.0802       C50-C48=1.3929       C50-C52=1.3826       C50-H73=1.0803       
C51-C49=1.3829       C51-H53=1.0802       C51-C54=1.3850       C52-C50=1.3826       C52-C54=1.3852       C52-H55=1.0803       
H53-C51=1.0802       C54-C51=1.3850       C54-C52=1.3852       C54-H56=1.0799       H55-C52=1.0803       H56-C54=1.0799       
C57-C3=1.4688        C57-C58=1.3949       C57-C59=1.3952       C58-C57=1.3949       C58-C60=1.3818       C58-H70=1.0799       
C59-C57=1.3952       C59-C61=1.3819       C59-H71=1.0803       C60-C58=1.3818       C60-H62=1.0802       C60-C63=1.3858       
C61-C59=1.3819       C61-C63=1.3855       C61-H64=1.0803       H62-C60=1.0802       C63-C60=1.3858       C63-C61=1.3855       
C63-H65=1.0798       H64-C61=1.0803       H65-C63=1.0798       H66-C19=1.0801       H67-C22=1.0803       H68-C42=1.0801       
H69-C45=1.0803       H70-C58=1.0799       H71-C59=1.0803       H72-C49=1.0802       H73-C50=1.0803       H74-C41=1.0800       
H75-C46=1.0803       H76-C18=1.0799       H77-C23=1.0803       Cl78-Fe47=2.1399     
 C  H  Rav=1.0778 sigma=0.0036  Rmin=1.0719  Rmax=1.0803    28
 C  C  Rav=1.4015 sigma=0.0279  Rmin=1.3550  Rmax=1.4753    48
 N  C  Rav=1.3664 sigma=0.0021  Rmin=1.3635  Rmax=1.3694     8
 Fe N  Rav=2.0660 sigma=0.0260  Rmin=2.0398  Rmax=2.0936     4
 Fe Cl Rav=2.1399 sigma=0.0000  Rmin=2.1399  Rmax=2.1399     1

 selected bond angles (degree)
 --------------------
C9-N1-C4=106.87                Fe47-N1-C4=125.19              Fe47-N1-C9=123.79              C16-N2-C11=106.45              
Fe47-N2-C11=126.00             Fe47-N2-C16=127.41             C39-C3-C4=124.25               C57-C3-C4=118.08               
C57-C3-C39=117.66              C3-C4-N1=125.87                C5-C4-N1=109.64                C5-C4-C3=124.43                
H6-C5-C4=125.09                C7-C5-C4=107.00                C7-C5-H6=127.87                H8-C7-C5=127.84                
C9-C7-C5=106.96                C9-C7-H8=125.18                C7-C9-N1=109.50                C10-C9-N1=125.44               
C10-C9-C7=125.06               C11-C10-C9=124.04              C17-C10-C9=118.94              C17-C10-C11=117.01             

 selected dihedral angles (degree)
 ---------------------------------
C3-C4-N1-C9=181.85            C3-C4-N1-Fe47=339.51          C5-C4-N1-C9=359.06            C5-C4-N1-Fe47=156.71          
N1-C4-C3-C39=  6.78           N1-C4-C3-C57=185.35           C5-C4-C3-C39=189.97           C5-C4-C3-C57=  8.54           
H6-C5-C4-N1=182.24            H6-C5-C4-C3=359.49            C7-C5-C4-N1=359.94            C7-C5-C4-C3=177.19            
H8-C7-C5-C4=182.42            H8-C7-C5-H6=  0.03            C9-C7-C5-C4=  0.99            C9-C7-C5-H6=178.61            
C7-C9-N1-C4=  1.56            C7-C9-N1-Fe47=203.52          C10-C9-N1-C4=181.76           C10-C9-N1-Fe47= 23.71         
N1-C9-C7-C5=358.38            N1-C9-C7-H8=177.00            C10-C9-C7-C5=178.19           C10-C9-C7-H8=356.81           
C11-C10-C9-N1=359.64          C11-C10-C9-C7=179.87          C17-C10-C9-N1=178.31          C17-C10-C9-C7=358.54          
           -------------------------------------------------
          |                Final Singlepoint                |
           -------------------------------------------------

          ...................................................
          :                      SETUP                      :
          :.................................................:
          :  # basis functions                 240          :
          :  # atomic orbitals                 238          :
          :  # shells                          130          :
          :  # electrons                       239          :
          :  max. iterations                   250          :
          :  Hamiltonian                  GFN2-xTB          :
          :  restarted?                      false          :
          :  GBSA solvation                  false          :
          :  PC potential                    false          :
          :  electronic temp.          300.0000000     K    :
          :  accuracy                    1.0000000          :
          :  -> integral cutoff          0.2500000E+02      :
          :  -> integral neglect         0.1000000E-07      :
          :  -> SCF convergence          0.1000000E-05 Eh   :
          :  -> wf. convergence          0.1000000E-03 e    :
          :  Broyden damping             0.4000000          :
          :  net charge                          0          :
          :  unpaired electrons                  5          :
          ...................................................

 iter      E             dE          RMSdq      gap      omega  full diag
   1   -130.1107337 -0.130111E+03  0.273E-05    0.16       0.0  T
   2   -130.1107337  0.103884E-08  0.190E-04    0.16      59.7  T
   3   -130.1107337 -0.104464E-08  0.205E-05    0.16     552.9  T

   *** convergence criteria satisfied after 3 iterations ***

         #    Occupation            Energy/Eh            Energy/eV
      -------------------------------------------------------------
         1        2.0000           -1.0351841             -28.1688
       ...           ...                  ...                  ...
       116        1.9985           -0.3683746             -10.0240
       117        1.7932           -0.3634995              -9.8913
       118        1.2083           -0.3609541              -9.8221
       119        1.0000           -0.3507147              -9.5434
       120        1.0000           -0.3504714              -9.5368
       121        1.0000           -0.3216112              -8.7515
       122        0.9569           -0.3013060              -8.1990 (HOMO)
       123        0.0431           -0.2954136              -8.0386 (LUMO)
       124                         -0.2733268              -7.4376
       125                         -0.2633566              -7.1663
       126                         -0.2283882              -6.2148
       127                         -0.2279569              -6.2030
       ...                                ...                  ...
       238                          1.0380567              28.2470
      -------------------------------------------------------------
                  HL-Gap            0.0058925 Eh            0.1603 eV
             Fermi-level           -0.3302911 Eh           -8.9877 eV

 SCC (total)                   0 d,  0 h,  0 min,  0.052 sec
 SCC setup                      ...        0 min,  0.000 sec (  0.288%)
 Dispersion                     ...        0 min,  0.000 sec (  0.907%)
 classical contributions        ...        0 min,  0.000 sec (  0.161%)
 integral evaluation            ...        0 min,  0.003 sec (  6.484%)
 iterations                     ...        0 min,  0.029 sec ( 55.102%)
 molecular gradient             ...        0 min,  0.018 sec ( 33.928%)
 printout                       ...        0 min,  0.002 sec (  3.106%)

         :::::::::::::::::::::::::::::::::::::::::::::::::::::
         ::                     SUMMARY                     ::
         :::::::::::::::::::::::::::::::::::::::::::::::::::::
         :: total energy            -127.901172115604 Eh    ::
         :: gradient norm              0.000078613467 Eh/a0 ::
         :: HOMO-LUMO gap              0.160341856000 eV    ::
         ::.................................................::
         :: SCC energy              -130.110675564420 Eh    ::
         :: -> isotropic ES            0.022139911492 Eh    ::
         :: -> anisotropic ES          0.007724523196 Eh    ::
         :: -> anisotropic XC          0.067765543926 Eh    ::
         :: -> dispersion             -0.117648136348 Eh    ::
         :: repulsion energy           2.209503448817 Eh    ::
         :: add. restraining           0.000000000000 Eh    ::
         :: total charge               0.000000000020 e     ::
         :::::::::::::::::::::::::::::::::::::::::::::::::::::

           -------------------------------------------------
          |                Property Printout                |
           -------------------------------------------------

    * Orbital Energies and Occupations

         #    Occupation            Energy/Eh            Energy/eV
      -------------------------------------------------------------
         1        2.0000           -1.0351841             -28.1688
       ...           ...                  ...                  ...
       110        2.0000           -0.4028223             -10.9614
       111        2.0000           -0.4002658             -10.8918
       112        2.0000           -0.3992787             -10.8649
       113        2.0000           -0.3971569             -10.8072
       114        2.0000           -0.3970031             -10.8030
       115        2.0000           -0.3931566             -10.6983
       116        1.9985           -0.3683746             -10.0240
       117        1.7932           -0.3634995              -9.8913
       118        1.2083           -0.3609541              -9.8221
       119        1.0000           -0.3507147              -9.5434
       120        1.0000           -0.3504714              -9.5368
       121        1.0000           -0.3216112              -8.7515
       122        0.9569           -0.3013060              -8.1990 (HOMO)
       123        0.0431           -0.2954136              -8.0386 (LUMO)
       124                         -0.2733268              -7.4376
       125                         -0.2633566              -7.1663
       126                         -0.2283882              -6.2148
       127                         -0.2279569              -6.2030
       128                         -0.2278415              -6.1999
       129                         -0.2275666              -6.1924
       130                         -0.2273529              -6.1866
       131                         -0.2272547              -6.1839
       132                         -0.2268612              -6.1732
       133                         -0.2230290              -6.0689
       ...                                ...                  ...
       238                          1.0380567              28.2470
      -------------------------------------------------------------
                  HL-Gap            0.0058925 Eh            0.1603 eV
             Fermi-level           -0.3302911 Eh           -8.9877 eV

     #   Z          covCN         q      C6AA      α(0)
     1   7 N        2.582    -0.225    25.933     7.563
     2   7 N        2.627    -0.206    25.483     7.497
     3   6 C        2.960    -0.008    28.212     8.712
     4   6 C        3.128     0.074    26.150     8.373
     5   6 C        3.015    -0.048    29.169     8.859
     6   1 H        0.926     0.036     2.500     2.473
     7   6 C        3.013    -0.048    29.161     8.858
     8   1 H        0.926     0.037     2.483     2.464
     9   6 C        3.128     0.074    26.168     8.376
    10   6 C        2.960    -0.007    28.187     8.708
    11   6 C        3.139     0.066    26.291     8.392
    12   6 C        3.025    -0.058    29.406     8.895
    13   1 H        0.926     0.030     2.589     2.516
    14   6 C        3.025    -0.057    29.392     8.893
    15   1 H        0.926     0.031     2.574     2.509
    16   6 C        3.137     0.064    26.353     8.402
    17   6 C        2.981     0.018    27.600     8.618
    18   6 C        2.925    -0.028    28.708     8.787
    19   6 C        2.918    -0.028    28.693     8.784
    20   6 C        2.920    -0.029    28.730     8.790
    21   1 H        0.926     0.034     2.528     2.486
    22   6 C        2.918    -0.029    28.718     8.788
    23   6 C        2.923    -0.031    28.777     8.797
    24   7 N        2.586    -0.224    25.901     7.558
    25   7 N        2.627    -0.206    25.492     7.499
    26   6 C        2.960    -0.007    28.202     8.711
    27   6 C        3.127     0.074    26.165     8.376
    28   6 C        3.015    -0.048    29.180     8.861
    29   1 H        0.926     0.036     2.497     2.471
    30   6 C        3.014    -0.048    29.161     8.858
    31   1 H        0.926     0.038     2.475     2.460
    32   6 C        3.126     0.074    26.169     8.376
    33   6 C        2.960    -0.008    28.214     8.712
    34   6 C        3.139     0.066    26.304     8.393
    35   6 C        3.025    -0.058    29.419     8.897
    36   1 H        0.926     0.029     2.600     2.521
    37   6 C        3.026    -0.057    29.392     8.893
    38   1 H        0.926     0.031     2.577     2.510
    39   6 C        3.136     0.063    26.368     8.405
    40   6 C        2.981     0.018    27.598     8.617
    41   6 C        2.925    -0.028    28.711     8.787
    42   6 C        2.918    -0.028    28.695     8.784
    43   6 C        2.920    -0.029    28.734     8.790
    44   1 H        0.926     0.034     2.530     2.487
    45   6 C        2.918    -0.029    28.717     8.788
    46   6 C        2.923    -0.031    28.782     8.798
    47  26 Fe       3.679     0.614     5.116     7.296
    48   6 C        2.982     0.018    27.597     8.617
    49   6 C        2.924    -0.030    28.755     8.794
    50   6 C        2.924    -0.030    28.758     8.794
    51   6 C        2.919    -0.028    28.704     8.786
    52   6 C        2.919    -0.028    28.712     8.787
    53   1 H        0.926     0.035     2.511     2.478
    54   6 C        2.920    -0.030    28.749     8.793
    55   1 H        0.926     0.035     2.522     2.484
    56   1 H        0.926     0.034     2.533     2.489
    57   6 C        2.982     0.018    27.606     8.619
    58   6 C        2.924    -0.029    28.724     8.789
    59   6 C        2.924    -0.031    28.769     8.796
    60   6 C        2.918    -0.028    28.703     8.785
    61   6 C        2.918    -0.029    28.714     8.787
    62   1 H        0.926     0.036     2.507     2.476
    63   6 C        2.920    -0.029    28.732     8.790
    64   1 H        0.926     0.034     2.525     2.485
    65   1 H        0.926     0.034     2.529     2.487
    66   1 H        0.926     0.036     2.500     2.472
    67   1 H        0.926     0.034     2.526     2.486
    68   1 H        0.926     0.036     2.503     2.474
    69   1 H        0.926     0.034     2.528     2.486
    70   1 H        0.926     0.039     2.458     2.452
    71   1 H        0.926     0.035     2.523     2.484
    72   1 H        0.926     0.037     2.483     2.464
    73   1 H        0.926     0.035     2.521     2.483
    74   1 H        0.926     0.039     2.460     2.453
    75   1 H        0.926     0.035     2.519     2.482
    76   1 H        0.926     0.040     2.449     2.447
    77   1 H        0.926     0.035     2.519     2.482
    78  17 Cl       0.787    -0.325   109.469    16.005

 Mol. C6AA /au·bohr⁶  :      96219.917060
 Mol. C8AA /au·bohr⁸  :    2520612.349729
 Mol. α(0) /au        :        506.094708


Wiberg/Mayer (AO) data.
largest (>0.10) Wiberg bond orders for each atom

 ---------------------------------------------------------------------------
     #   Z sym  total        # sym  WBO       # sym  WBO       # sym  WBO
 ---------------------------------------------------------------------------
     1   7 N    3.373 --     4 C    1.240     9 C    1.221    47 Fe   0.592
     2   7 N    3.436 --    11 C    1.245    16 C    1.227    47 Fe   0.652
     3   6 C    3.873 --     4 C    1.317    39 C    1.208    57 C    1.058
     4   6 C    3.934 --     3 C    1.317     1 N    1.240     5 C    1.170
     5   6 C    3.950 --     7 C    1.638     4 C    1.170     6 H    0.969
     6   1 H    0.998 --     5 C    0.969
     7   6 C    3.951 --     5 C    1.638     9 C    1.168     8 H    0.969
     8   1 H    0.998 --     7 C    0.969
     9   6 C    3.936 --    10 C    1.341     1 N    1.221     7 C    1.168
    10   6 C    3.869 --     9 C    1.341    11 C    1.184    17 C    1.055
    11   6 C    3.915 --    12 C    1.275     2 N    1.245    10 C    1.184
    12   6 C    3.926 --    14 C    1.490    11 C    1.275    13 H    0.971
    13   1 H    0.998 --    12 C    0.971
    14   6 C    3.921 --    12 C    1.490    16 C    1.268    15 H    0.970
    15   1 H    0.998 --    14 C    0.970
    16   6 C    3.921 --    14 C    1.268     2 N    1.227    26 C    1.217
    17   6 C    3.981 --    23 C    1.378    18 C    1.374    10 C    1.055
                            20 C    0.102
    18   6 C    3.973 --    19 C    1.456    17 C    1.374    76 H    0.969
                            22 C    0.107
    19   6 C    3.989 --    18 C    1.456    20 C    1.429    66 H    0.970
                            23 C    0.106
    20   6 C    3.974 --    22 C    1.433    19 C    1.429    21 H    0.971
                            17 C    0.102
    21   1 H    0.998 --    20 C    0.971
    22   6 C    3.990 --    23 C    1.452    20 C    1.433    67 H    0.970
                            18 C    0.107
    23   6 C    3.975 --    22 C    1.452    17 C    1.378    77 H    0.969
                            19 C    0.106
    24   7 N    3.379 --    27 C    1.234    32 C    1.226    47 Fe   0.596
    25   7 N    3.436 --    34 C    1.245    39 C    1.228    47 Fe   0.653
    26   6 C    3.871 --    27 C    1.328    16 C    1.217    48 C    1.034
    27   6 C    3.934 --    26 C    1.328    24 N    1.234    28 C    1.169
    28   6 C    3.950 --    30 C    1.640    27 C    1.169    29 H    0.969
    29   1 H    0.998 --    28 C    0.969
    30   6 C    3.950 --    28 C    1.640    32 C    1.167    31 H    0.969
    31   1 H    0.998 --    30 C    0.969
    32   6 C    3.936 --    33 C    1.339    24 N    1.226    30 C    1.167
    33   6 C    3.869 --    32 C    1.339    34 C    1.184    40 C    1.054
    34   6 C    3.917 --    35 C    1.277    25 N    1.245    33 C    1.184
    35   6 C    3.924 --    37 C    1.484    34 C    1.277    36 H    0.971
    36   1 H    0.998 --    35 C    0.971
    37   6 C    3.923 --    35 C    1.484    39 C    1.273    38 H    0.970
    38   1 H    0.998 --    37 C    0.970
    39   6 C    3.920 --    37 C    1.273    25 N    1.228     3 C    1.208
    40   6 C    3.982 --    46 C    1.379    41 C    1.375    33 C    1.054
                            43 C    0.103
    41   6 C    3.974 --    42 C    1.456    40 C    1.375    74 H    0.969
                            45 C    0.107
    42   6 C    3.989 --    41 C    1.456    43 C    1.429    68 H    0.970
                            46 C    0.106
    43   6 C    3.975 --    45 C    1.433    42 C    1.429    44 H    0.971
                            40 C    0.103
    44   1 H    0.998 --    43 C    0.971
    45   6 C    3.990 --    46 C    1.451    43 C    1.433    69 H    0.970
                            41 C    0.107
    46   6 C    3.975 --    45 C    1.451    40 C    1.379    75 H    0.969
                            42 C    0.106
    47  26 Fe   4.028 --    78 Cl   1.051    25 N    0.653     2 N    0.652
                            24 N    0.596     1 N    0.592
    48   6 C    3.983 --    49 C    1.388    50 C    1.387    26 C    1.034
                            54 C    0.106
    49   6 C    3.979 --    51 C    1.448    48 C    1.388    72 H    0.969
                            52 C    0.109
    50   6 C    3.980 --    52 C    1.450    48 C    1.387    73 H    0.970
                            51 C    0.109
    51   6 C    3.990 --    49 C    1.448    54 C    1.435    53 H    0.970
                            50 C    0.109
    52   6 C    3.990 --    50 C    1.450    54 C    1.434    55 H    0.970
                            49 C    0.109
    53   1 H    0.998 --    51 C    0.970
    54   6 C    3.982 --    51 C    1.435    52 C    1.434    56 H    0.971
                            48 C    0.106
    55   1 H    0.997 --    52 C    0.970
    56   1 H    0.998 --    54 C    0.971
    57   6 C    3.981 --    58 C    1.375    59 C    1.375     3 C    1.058
                            63 C    0.102
    58   6 C    3.975 --    60 C    1.455    57 C    1.375    70 H    0.969
                            61 C    0.106
    59   6 C    3.974 --    61 C    1.454    57 C    1.375    71 H    0.969
                            60 C    0.106
    60   6 C    3.990 --    58 C    1.455    63 C    1.430    62 H    0.970
                            59 C    0.106
    61   6 C    3.990 --    59 C    1.454    63 C    1.431    64 H    0.970
                            58 C    0.106
    62   1 H    0.998 --    60 C    0.970
    63   6 C    3.974 --    61 C    1.431    60 C    1.430    65 H    0.971
                            57 C    0.102
    64   1 H    0.998 --    61 C    0.970
    65   1 H    0.998 --    63 C    0.971
    66   1 H    0.997 --    19 C    0.970
    67   1 H    0.998 --    22 C    0.970
    68   1 H    0.997 --    42 C    0.970
    69   1 H    0.998 --    45 C    0.970
    70   1 H    0.998 --    58 C    0.969
    71   1 H    0.999 --    59 C    0.969
    72   1 H    0.998 --    49 C    0.969
    73   1 H    0.999 --    50 C    0.970
    74   1 H    0.998 --    41 C    0.969
    75   1 H    0.999 --    46 C    0.969
    76   1 H    0.998 --    18 C    0.969
    77   1 H    0.999 --    23 C    0.969
    78  17 Cl   1.169 --    47 Fe   1.051
 ---------------------------------------------------------------------------

Topologies differ in total number of bonds
Writing topology from bond orders to xtbtopo.mol

molecular dipole:
                 x           y           z       tot (Debye)
 q only:       -0.006       0.046      -0.977
   full:       -0.003       0.047      -1.229       3.126
molecular quadrupole (traceless):
                xx          xy          yy          xz          yz          zz
 q only:       13.485      -0.033       8.169      -1.193       2.248     -21.653
  q+dip:       19.327       0.618      12.622      -4.256       5.384     -31.949
   full:       16.230       0.183       9.494      -2.098       3.179     -25.724

           -------------------------------------------------
          |                Geometry Summary                 |
           -------------------------------------------------

      molecular mass/u    :      704.0196154
   center of mass at/Å    :        0.0268829      -0.0434634       0.0005290
  moments of inertia/u·Å² :        0.8685644E+04   0.8782183E+04   0.1639841E+05
rotational constants/cm⁻¹ :        0.1940861E-02   0.1919526E-02   0.1028004E-02

 * 81 selected distances

     #   Z          #   Z                                           value/Å
     1   7 N        4   6 C                                       1.3634608
     3   6 C        4   6 C                                       1.3930260
     4   6 C        5   6 C                                       1.4360527
     5   6 C        6   1 H                                       1.0723482
     5   6 C        7   6 C                                       1.3550653
     7   6 C        8   1 H                                       1.0721446
     1   7 N        9   6 C                                       1.3682610
     7   6 C        9   6 C                                       1.4360793
     9   6 C       10   6 C                                       1.3886184
     2   7 N       11   6 C                                       1.3649456
    10   6 C       11   6 C                                       1.4223265
    11   6 C       12   6 C                                       1.4121265
    12   6 C       13   1 H                                       1.0721074
    12   6 C       14   6 C                                       1.3751582
    14   6 C       15   1 H                                       1.0718954 (min)
     2   7 N       16   6 C                                       1.3692491
    14   6 C       16   6 C                                       1.4136239
    17   6 C       18   6 C                                       1.3951773
    18   6 C       19   6 C                                       1.3815521
    19   6 C       20   6 C                                       1.3859007
    20   6 C       21   1 H                                       1.0798293
    20   6 C       22   6 C                                       1.3852883
    17   6 C       23   6 C                                       1.3944114
    22   6 C       23   6 C                                       1.3823838
    16   6 C       26   6 C                                       1.4150775
    24   7 N       27   6 C                                       1.3646313
    26   6 C       27   6 C                                       1.3905925
    27   6 C       28   6 C                                       1.4359033
    28   6 C       29   1 H                                       1.0723014
    28   6 C       30   6 C                                       1.3549638
    30   6 C       31   1 H                                       1.0720597
    24   7 N       32   6 C                                       1.3666450
    30   6 C       32   6 C                                       1.4364484
    32   6 C       33   6 C                                       1.3888767
    25   7 N       34   6 C                                       1.3649513
    33   6 C       34   6 C                                       1.4225235
    34   6 C       35   6 C                                       1.4116824
    35   6 C       36   1 H                                       1.0721539
    35   6 C       37   6 C                                       1.3760032
    37   6 C       38   1 H                                       1.0720022
     3   6 C       39   6 C                                       1.4173852
    25   7 N       39   6 C                                       1.3693867
    37   6 C       39   6 C                                       1.4126390
    40   6 C       41   6 C                                       1.3951835
    41   6 C       42   6 C                                       1.3814957
    42   6 C       43   6 C                                       1.3858926
    43   6 C       44   1 H                                       1.0798292
    43   6 C       45   6 C                                       1.3852291
    40   6 C       46   6 C                                       1.3942908
    45   6 C       46   6 C                                       1.3824930
    48   6 C       49   6 C                                       1.3925057
    48   6 C       50   6 C                                       1.3928623
    49   6 C       51   6 C                                       1.3829358
    50   6 C       52   6 C                                       1.3825616
    51   6 C       53   1 H                                       1.0802048
    51   6 C       54   6 C                                       1.3850294
    52   6 C       54   6 C                                       1.3852404
    52   6 C       55   1 H                                       1.0802701
    54   6 C       56   1 H                                       1.0798567
    57   6 C       58   6 C                                       1.3949223
    57   6 C       59   6 C                                       1.3952284
    58   6 C       60   6 C                                       1.3817760
    59   6 C       61   6 C                                       1.3819360
    60   6 C       62   1 H                                       1.0801751
    60   6 C       63   6 C                                       1.3857943
    61   6 C       63   6 C                                       1.3854686
    61   6 C       64   1 H                                       1.0803013
    63   6 C       65   1 H                                       1.0798130
    19   6 C       66   1 H                                       1.0801270
    22   6 C       67   1 H                                       1.0803284
    42   6 C       68   1 H                                       1.0801424
    45   6 C       69   1 H                                       1.0803391
    58   6 C       70   1 H                                       1.0799116
    59   6 C       71   1 H                                       1.0803433
    49   6 C       72   1 H                                       1.0802116
    50   6 C       73   1 H                                       1.0802980
    41   6 C       74   1 H                                       1.0799556
    46   6 C       75   1 H                                       1.0803161
    18   6 C       76   1 H                                       1.0799330
    23   6 C       77   1 H                                       1.0803323
    47  26 Fe      78  17 Cl                                      2.1398612 (max)

 * 4 distinct bonds (by element types)

   Z      Z             #   av. dist./Å        max./Å        min./Å
   1 H    6 C          28     1.0778404     1.0803433     1.0718954
   6 C    6 C          44     1.3952212     1.4364484     1.3549638
   6 C    7 N           8     1.3664413     1.3693867     1.3634608
  17 Cl  26 Fe          1     2.1398612     2.1398612     2.1398612


optimized geometry written to: xtbopt.xyz


           -------------------------------------------------
          | TOTAL ENERGY             -127.901172115604 Eh   |
          | GRADIENT NORM               0.000078613467 Eh/α |
          | HOMO-LUMO GAP               0.160341856000 eV   |
           -------------------------------------------------

------------------------------------------------------------------------
 * finished run on 2026/09/18 at 10:12:07.066     
------------------------------------------------------------------------
 total:
 * wall-time:     0 d,  0 h,  0 min, 10.407 sec
 *  cpu-time:     0 d,  0 h,  0 min, 17.956 sec
 * ratio c/w:     1.725 speedup
 SCF:
 * wall-time:     0 d,  0 h,  0 min,  0.196 sec
 *  cpu-time:     0 d,  0 h,  0 min,  0.327 sec
 * ratio c/w:     1.664 speedup
 ANC optimizer:
 * wall-time:     0 d,  0 h,  0 min, 10.197 sec
 *  cpu-time:     0 d,  0 h,  0 min, 17.611 sec
 * ratio c/w:     1.727 speedup

normal termination of xtb
Note: The following floating-point exceptions are signalling: IEEE_UNDERFLOW_FLAG
