58
aligned d3map frame 1
Cu   0.9609535512 -1.8849797140 -0.2735512970
C    0.3433494279 -0.1261470068 -0.4742529466
Cl   1.6549311789 -3.8516744342 -0.0205491210
N    1.0942792667  0.9820765435 -0.2970822566
N   -0.8867757167  0.3297098921 -0.7991146447
C    0.3529208913  2.1204579824 -0.5099121184
C    2.4756645496  0.9547029299  0.0378503660
C   -0.9046665243  1.7050905873 -0.8316756732
C   -2.0051779199 -0.5297135927 -1.1154043791
C    0.9184334092  3.4901202271 -0.3822646594
C    3.4201314186  0.9312344945 -0.9876196537
C    2.8554116621  0.9447937130  1.3789523415
C   -2.1013865279  2.5120763899 -1.1789761200
C   -3.2557137815 -0.2442964769 -0.3164018600
H   -1.6661965743 -1.5564760596 -0.9288280633
H   -2.2134672710 -0.4350743953 -2.1832138235
H    0.8385047550  4.0311674623 -1.3246832396
H    1.9677708071  3.4320202449 -0.1020786736
H    0.3844214425  4.0593522870  0.3780067860
C    4.7626866792  0.9082262566 -0.6456141962
C    2.9765799643  0.9070834356 -2.4178730482
C    4.2081668877  0.9215777940  1.6792757514
C    1.8162046648  0.9326124228  2.4569831955
H   -2.4639841335  2.2533086290 -2.1730413046
H   -1.8440489343  3.5674270315 -1.1677483465
H   -2.9102138295  2.3372006791 -0.4709598430
C   -4.4816132699 -0.0726010740 -0.9701079355
C   -3.2067476867 -0.1865821223  1.0797789705
C    5.1721070097  0.9037369578  0.6807823912
H    5.5049955087  0.8844542380 -1.4301453247
H    2.3406427906  1.7624411056 -2.6442734466
H    2.4002788923  0.0013155653 -2.6086744840
H    3.8332325841  0.9217243447 -3.0855272460
H    4.5164913016  0.9083139680  2.7145513775
H    1.1168493033  1.7593105329  2.3353852903
H    2.2787445982  1.0073579264  3.4369793828
H    1.2505495329  0.0017468980  2.4089080925
C   -5.6188021214  0.2007386730 -0.2246715973
C   -4.6180704186 -0.1941801047 -2.4616636378
C   -4.3652043224  0.0939684570  1.7915440554
C   -1.9381881503 -0.4165234380  1.8450945584
C    6.6273114605  0.8455589946  1.0282962001
C   -5.5789484888  0.3009218045  1.1575868859
H   -6.5624026956  0.3357698719 -0.7340668517
H   -4.0326173708  0.5630214324 -2.9826155278
H   -5.6580885807 -0.0667579918 -2.7507382721
H   -4.2911169204 -1.1756190966 -2.8021513766
H   -4.3171887029  0.1435897541  2.8701180130
H   -1.3154748543  0.4779606304  1.8360216361
H   -1.3577033368 -1.2357181608  1.4236957200
H   -2.1667274682 -0.6521518091  2.8816991149
H    6.8203557527  1.3329676424  1.9809560602
H    7.2314516261  1.3181388655  0.2575410757
H    6.9416684178 -0.1949141505  1.1123442709
C   -6.8231531008  0.5832430803  1.9422149929
H   -7.3531821698 -0.3481291144  2.1434285907
H   -7.4924515161  1.2363273691  1.3866234059
H   -6.5845082005  1.0479358429  2.8958435934
58
aligned d3map frame 2
Cu   0.9609535512 -1.8849797140 -0.2735512970
C    0.3433278807 -0.1261141509 -0.4739472116
Cl   1.6538709398 -3.8519290113 -0.0196026624
N    1.0939137732  0.9823745363 -0.2968484631
N   -0.8869737599  0.3293213034 -0.7987626439
C    0.3521553097  2.1204737423 -0.5097350390
C    2.4753942536  0.9553333498  0.0377615990
C   -0.9053343086  1.7046753475 -0.8313435887
C   -2.0055018630 -0.5304790328 -1.1136326421
C    0.9166679168  3.4904046306 -0.3806580140
C    3.4198226939  0.9411051230 -0.9880737952
C    2.8553997092  0.9363021550  1.3785829707
C   -2.1022566746  2.5112846461 -1.1787797338
C   -3.2556139553 -0.2438168147 -0.3143995942
H   -1.6665379748 -1.5570136740 -0.9257494039
H   -2.2142043442 -0.4373867920 -2.1814951908
H    0.3938119219  4.0525922594  0.3925976898
H    0.8201633679  4.0384226955 -1.3173935213
H    1.9703824045  3.4326296121 -0.1173732730
C    4.7623500173  0.9177008940 -0.6464608853
C    2.9760462586  0.9276396192 -2.4184369243
C    4.2083563595  0.9128702733  1.6785589068
C    1.8166577557  0.9146087408  2.4568600259
H   -2.4674446232  2.2489836843 -2.1709430437
H   -1.8440907062  3.5664730549 -1.1720453251
H   -2.9095551485  2.3398095492 -0.4681826301
C   -4.4817045372 -0.0719943666 -0.9676687483
C   -3.2060094094 -0.1850451861  1.0817318973
C    5.1720598206  0.9038077088  0.6799403829
H    5.5047398813  0.9010034291 -1.4311088785
H    2.3945555507  0.0264322491 -2.6147363374
H    3.8328041517  0.9414693966 -3.0859765396
H    2.3451429042  1.7880616195 -2.6398011761
H    4.5166123651  0.8924517220  2.7137297897
H    1.1117095975  1.7368176315  2.3374025124
H    2.2789388073  0.9899758938  3.4369330747
H    1.2572686514 -0.0199538146  2.4065976487
C   -5.6185207720  0.2020877336 -0.2218939523
C   -4.6188854860 -0.1942253861 -2.4591099631
C   -4.3640700235  0.0962424576  1.7938205081
C   -1.9371597056 -0.4144310512  1.8467439879
C    6.6277741596  0.8451292532  1.0251796061
C   -5.5780940292  0.3029446563  1.1602721435
H   -6.5622756540  0.3371283351 -0.7310011365
H   -4.0333501441  0.5625024095 -2.9806561155
H   -5.6589759458 -0.0664581924 -2.7477689946
H   -4.2925133365 -1.1759360336 -2.7993600889
H   -4.3155560762  0.1466839351  2.8723355901
H   -1.3152378159  0.4806123129  1.8380259828
H   -1.3559943921 -1.2329068614  1.4249471582
H   -2.1653676857 -0.6506996458  2.8832763173
H    6.9523403473 -0.1948434313  1.0650335549
H    6.8166028987  1.2942167188  1.9972026373
H    7.2270328801  1.3552684260  0.2746716683
C   -6.8217976413  0.5855880003  1.9455703560
H   -6.5830237113  1.0576491024  2.8955604396
H   -7.3474530783 -0.3466073541  2.1543414416
H   -7.4949857315  1.2321225709  1.3870708132
58
aligned d3map frame 3
Cu   0.9609535512 -1.8849797140 -0.2735512970
C    0.3432932422 -0.1261278147 -0.4739826321
Cl   1.6533598345 -3.8522279517 -0.0205468486
N    1.0937268416  0.9824957639 -0.2972067381
N   -0.8870062033  0.3290402418 -0.7990766653
C    0.3518671676  2.1204652823 -0.5105896601
C    2.4754779364  0.9555189111  0.0362558460
C   -0.9054906398  1.7043872195 -0.8323589358
C   -2.0057064348 -0.5308865923 -1.1129249817
C    0.9162955140  3.4905034241 -0.3822414274
C    3.4186774857  0.9380363396 -0.9904157481
C    2.8569192233  0.9393798166  1.3768866055
C   -2.1023545454  2.5105656609 -1.1810092102
C   -3.2548878783 -0.2436889986 -0.3124305392
H   -1.6665277603 -1.5573863414 -0.9252904225
H   -2.2154465766 -0.4378035220 -2.1805840780
H    0.8348399448  4.0325112074 -1.3239676468
H    1.9659478222  3.4331116283 -0.1031207295
H    0.3825251849  4.0583968854  0.3792063611
C    4.7617935467  0.9147558923 -0.6502654031
C    2.9733832155  0.9202654179 -2.4202380926
C    4.2100040914  0.9159959027  1.6752955763
C    1.8192456011  0.9203867912  2.4562647001
H   -2.4688965364  2.2449319225 -2.1717714495
H   -1.8434996537  3.5656099698 -1.1784421669
H   -2.9089085895  2.3421118059 -0.4688172478
C   -4.4817274542 -0.0718363171 -0.9644707803
C   -3.2036667039 -0.1838835452  1.0835012891
C    5.1728237071  0.9040684789  0.6754632826
H    5.5029634308  0.8956507131 -1.4359969449
H    2.3951800990  0.0163462107 -2.6139365931
H    3.8292841740  0.9359647603 -3.0888305003
H    2.3388128977  1.7776947881 -2.6426227407
H    4.5198423960  0.8977152134  2.7100410645
H    1.1149145028  1.7430580078  2.3363200470
H    2.2826434888  0.9968293182  3.4357305161
H    1.2589680811 -0.0137434507  2.4080400122
C   -5.6172290266  0.2044227302 -0.2177261577
C   -4.6208273965 -0.1967069832 -2.4555128913
C   -4.3606590437  0.0995141478  1.7967210453
C   -1.9344094882 -0.4146396435  1.8474138103
C    6.6281721984  0.8455727432  1.0223318017
C   -5.5749696937  0.3072353611  1.1643937669
H   -6.5615813615  0.3397401720 -0.7256512931
H   -4.0368256749  0.5597265355 -2.9792192773
H   -5.6614550274 -0.0705319872 -2.7429352397
H   -4.2938822544 -1.1786639464 -2.7944911246
H   -4.3106470029  0.1508598563  2.8751243991
H   -1.3110294764  0.4793630747  1.8375069187
H   -1.3549803341 -1.2343399201  1.4255868052
H   -2.1619715188 -0.6498757762  2.8843249902
H    7.2343371725  1.2941150296  0.2390200652
H    6.9358569298 -0.1943266284  1.1337026302
H    6.8254438456  1.3563639784  1.9618876879
C   -6.8180272425  0.5936743070  1.9493578206
H   -7.4721451380  1.2718637462  1.4057073943
H   -6.5763407317  1.0315956792  2.9147479759
H   -7.3664374262 -0.3321134510  2.1253520636
58
aligned d3map frame 4
Cu   0.9609535512 -1.8849797140 -0.2735512970
C    0.3435759379 -0.1260767832 -0.4743880470
Cl   1.6558058772 -3.8511703821 -0.0190885367
N    1.0945279420  0.9820166208 -0.2964691716
N   -0.8866303394  0.3300267031 -0.7985273247
C    0.3530585863  2.1205777455 -0.5080023267
C    2.4759706523  0.9540361244  0.0381961311
C   -0.9045730621  1.7054236252 -0.8298584259
C   -2.0052618899 -0.5290761344 -1.1148545089
C    0.9184182572  3.4901721902 -0.3788824821
C    3.4202993275  0.9366245660 -0.9874502200
C    2.8559180412  0.9370093741  1.3792278354
C   -2.1013812066  2.5125233559 -1.1765824014
C   -3.2548287117 -0.2452412062 -0.3137178810
H   -1.6658914379 -1.5560689832 -0.9303289052
H   -2.2149163355 -0.4326977390 -2.1822362869
H    0.8485801558  4.0285318075 -1.3236905917
H    1.9648606028  3.4320630737 -0.0880938519
H    0.3771528978  4.0620362102  0.3741748202
C    4.7629884068  0.9121992649 -0.6457909236
C    2.9766391445  0.9198705823 -2.4177828978
C    4.2086726248  0.9125092084  1.6791748939
C    1.8170462189  0.9182901937  2.4574569508
H   -2.4632989277  2.2549715939 -2.1712173382
H   -1.8443728605  3.5679329033 -1.1639018171
H   -2.9105282278  2.3363856140 -0.4692420198
C   -4.4817070137 -0.0722546665 -0.9658351085
C   -3.2043698060 -0.1904723150  1.0822568605
C    5.1725557116  0.9003952537  0.6804331160
H    5.5050897902  0.8930252035 -1.4306441688
H    2.3399928603  1.7758778834 -2.6395882933
H    2.4010752863  0.0146745769 -2.6134122810
H    3.8332340039  0.9388102137 -3.0854083212
H    4.5172572762  0.8934826210  2.7142799285
H    1.1122076911  1.7403020275  2.3359604396
H    2.2792793604  0.9959416608  3.4373817367
H    1.2575426821 -0.0163219192  2.4094491809
C   -5.6177834052  0.1990421786 -0.2185961645
C   -4.6196267544 -0.1904840470 -2.4575336056
C   -4.3623210568  0.0882842170  1.7962294759
C   -1.9351086375 -0.4217007582  1.8459714352
C    6.6275845815  0.8404472964  1.0283883119
C   -5.5764713332  0.2960388418  1.1642813057
H   -6.5623115478  0.3350730461 -0.7260137720
H   -4.0361021374  0.5690927991 -2.9772057879
H   -5.6602095776 -0.0641230086 -2.7450545736
H   -4.2913803807 -1.1704790973 -2.8008880034
H   -4.3124270313  0.1352656341  2.8748343179
H   -1.3134559354  0.4735518604  1.8395362079
H   -1.3538917630 -1.2387851421  1.4215272569
H   -2.1626973921 -0.6610836748  2.8819226338
H    7.2339046602  1.2988518249  0.2509323259
H    6.9370196145 -0.2000885190  1.1280970209
H    6.8230149421  1.3407839672  1.9738635689
C   -6.8219294750  0.5787814467  1.9467963812
H   -6.5821666562  0.9384713709  2.9442159271
H   -7.4123424964 -0.3322275987  2.0466047655
H   -7.4363764176  1.3205765683  1.4408071148
58
aligned d3map frame 5
Cu   0.9609535512 -1.8849797140 -0.2735512970
C    0.3432894285 -0.1261053904 -0.4738789805
Cl   1.6502104492 -3.8532743089 -0.0200716051
N    1.0925873387  0.9832927433 -0.2971292128
N   -0.8875606469  0.3277814144 -0.7986686207
C    0.3494933390  2.1204974166 -0.5102785944
C    2.4744206956  0.9571014519  0.0360732110
C   -0.9074896900  1.7030911454 -0.8318699930
C   -2.0049495171 -0.5334192558 -1.1135562518
C    0.9127859733  3.4910049937 -0.3819481103
C    3.4174783508  0.9421475196 -0.9908093622
C    2.8560733509  0.9384071894  1.3765781686
C   -2.1054254696  2.5076311914 -1.1806044253
C   -3.2548175045 -0.2510471179 -0.3123754383
H   -1.6638383350 -1.5596796891 -0.9280241102
H   -2.2152083827 -0.4386946153 -2.1809690617
H    0.3717254279  4.0618824354  0.3720226237
H    0.8406274095  4.0294101626 -1.3265399232
H    1.9597396649  3.4345572355 -0.0926457881
C    4.7605979804  0.9181047319 -0.6509244201
C    2.9718586095  0.9286521612 -2.4205892566
C    4.2092442690  0.9142610743  1.6747444745
C    1.8185829919  0.9178505484  2.4561087802
H   -2.4691978160  2.2442150685 -2.1730030449
H   -1.8490450715  3.5632572898 -1.1743753191
H   -2.9131490653  2.3349741808 -0.4707570348
C   -4.4817686015 -0.0839521643 -0.9631107749
C   -3.2034593057 -0.1944328695  1.0847892152
C    5.1718615713  0.9041607941  0.6747655443
H    5.5016847613  0.9008460183 -1.4367772032
H    2.3836508006  0.0312677889 -2.6143280031
H    3.8278429229  0.9350227448 -3.0892115809
H    2.3469587719  1.7932030603 -2.6429579835
H    4.5191596772  0.8938227596  2.7094255012
H    1.1134553409  1.7399050438  2.3365811140
H    2.2820241262  0.9943157019  3.4355531389
H    1.2591630861 -0.0167767169  2.4075724922
C   -5.6202841367  0.1833681842 -0.2150967881
C   -4.6212611377 -0.2056320579 -2.4543813856
C   -4.3612349587  0.0794093787  1.7977700087
C   -1.9326199592 -0.4211943867  1.8473205107
C    6.6273497564  0.8440341071  1.0207300261
C   -5.5786253445  0.2811000894  1.1656562334
H   -6.5642651673  0.3135562828 -0.7250169787
H   -4.0378432422  0.5522075493 -2.9766770183
H   -5.6620006472 -0.0795350354 -2.7414253825
H   -4.2938250408 -1.1867148529 -2.7954914489
H   -4.3143702421  0.1274281767  2.8764892684
H   -1.3124777867  0.4750456401  1.8375499077
H   -1.3506831851 -1.2385145644  1.4242807341
H   -2.1584343455 -0.6580933497  2.8842234794
H    7.2325113503  1.3039391328  0.2432274098
H    6.9371324283 -0.1966405874  1.1181587481
H    6.8239161854  1.3427795050  1.9668366452
C   -6.8100447495  0.5737926754  1.9666720025
H   -7.6676979688  0.7363348910  1.3191081818
H   -6.6624343415  1.4611735411  2.5808240566
H   -7.0316068378 -0.2581896304  2.6339448325
58
aligned d3map frame 6
Cu   0.9609535512 -1.8849797140 -0.2735512970
C    0.3432679499 -0.1261410463 -0.4739758470
Cl   1.6578925686 -3.8505992259 -0.0202417666
N    1.0953481379  0.9812867300 -0.2970041119
N   -0.8862542010  0.3310007377 -0.7993385800
C    0.3553786918  2.1204830704 -0.5104588090
C    2.4755637824  0.9526914339  0.0425348781
C   -0.9024864929  1.7063716190 -0.8326831506
C   -2.0063587501 -0.5269405676 -1.1133891416
C    0.9233691467  3.4892860863 -0.3848750685
C    3.4240164723  0.9355776131 -0.9800236224
C    2.8503433427  0.9349464752  1.3844654072
C   -2.0979384670  2.5143589291 -1.1820457384
C   -3.2540002164 -0.2430952685 -0.3090451412
H   -1.6674735027 -1.5542848433 -0.9298851324
H   -2.2185425252 -0.4301214176 -2.1802023208
H    0.8901478804  4.0118499454 -1.3406298427
H    1.9588442082  3.4310054237 -0.0572487508
H    0.3590826671  4.0764710136  0.3386176940
C    4.7645838702  0.9104262331 -0.6331550678
C    2.9853421730  0.9183008915 -2.4118576909
C    4.2025808774  0.9092493185  1.6899847450
C    1.8077994223  0.9168300730  2.4591851695
H   -1.8435274019  3.5701441704 -1.1561805501
H   -2.9131317333  2.3285914215 -0.4842483753
H   -2.4497653733  2.2666925844 -2.1828889747
C   -4.4822409870 -0.0708078997 -0.9573022908
C   -3.2003244297 -0.1919920972  1.0876780277
C    5.1694535866  0.8972191418  0.6954615145
H    5.5108600784  0.8916314830 -1.4140682320
H    2.3400668742  1.7677314268 -2.6335618501
H    2.4203269543  0.0073933776 -2.6117416636
H    3.8438802270  0.9482049813 -3.0765676997
H    4.5057020622  0.8892446592  2.7266708112
H    1.1022303570  1.7376454737  2.3336958666
H    2.2664544196  0.9970625616  3.4405837044
H    1.2497750250 -0.0186580735  2.4111637787
C   -5.6188044959  0.1925058308 -0.2062042834
C   -4.6236018273 -0.1835085127 -2.4491086088
C   -4.3574174922  0.0782254199  1.8045437249
C   -1.9283277951 -0.4211404254  1.8473737963
C    6.6257675230  0.8409370440  1.0387136985
C   -5.5753274740  0.2816352140  1.1760352281
H   -6.5641321370  0.3255818578 -0.7128535739
H   -4.0369322388  0.5746548482 -2.9671862585
H   -5.6639619432 -0.0507017453 -2.7344914909
H   -4.3011542449 -1.1641277720 -2.7962635479
H   -4.3070048120  0.1202651931  2.8833185857
H   -1.3072128986  0.4743839344  1.8362576934
H   -1.3483178068 -1.2390857336  1.4228349690
H   -2.1519970516 -0.6578400370  2.8847678822
H    6.9963572626 -0.1747633873  0.9015556800
H    6.7952964493  1.1278506431  2.0731989496
H    7.2020722467  1.4966438501  0.3893571108
C   -6.8062158113  0.5934588176  1.9704891294
H   -6.8556911808  1.6632531693  2.1769432745
H   -6.7936059295  0.0690052649  2.9231639844
H   -7.7032039513  0.3127970905  1.4240553286
