78
Part 3c canonical analysis input derived from fecltdcpp.xyz; metal-centred porphyrin frame
N    2.3412625636 -0.0000000000 -0.0005129929
N    0.2607622099 -1.9674602690  0.0093616130
C    2.6466268402  2.5179871308 -0.4035325616
C    3.1158939344  1.1368655838 -0.2210467603
C    4.4297524234  0.7635019301 -0.1794605862
H    5.2828625258  1.4011294558 -0.2995033048
C    4.5387468275 -0.5670043083  0.1113412549
H    5.3896726099 -1.1499543662  0.2340420470
C    3.3490015682 -1.0640028671  0.1767061363
C    2.8806268991 -2.3701443351  0.3907835281
C    1.3809819544 -2.8325687451  0.1847175774
C    0.9977884922 -4.0775617899  0.0550879396
H    1.6390802289 -4.9101095240  0.1254593965
C   -0.3320768977 -4.0391898417 -0.2259994383
H   -0.9335114031 -4.9086875341 -0.3992351592
C   -0.7642790947 -2.7414581748 -0.2258684696
C    3.8449283970 -3.4037967712  0.6396343224
C    3.9445478819 -4.0381467593  1.8908243985
C    4.9126945343 -5.0318001711  2.1007548160
C    5.7701617251 -5.4071579394  1.0657857479
H    6.5193710059 -6.1784295697  1.2136976721
C    5.6563471534 -4.7850132899 -0.1750568009
C    4.7035821212 -3.7881498744 -0.3875485726
N   -1.6481141525  0.0531008652 -0.0007183550
N    0.3484338237  1.8702162042  0.0097631911
C   -2.1225293581 -2.3104419713 -0.4724306289
C   -2.4919615129 -1.0422199944 -0.2484867167
C   -3.8429687890 -0.6136850272 -0.3129292397
H   -4.7108477488 -1.2096548230 -0.5052200407
C   -3.8306428302  0.6982104383 -0.0176981250
H   -4.6990142798  1.3287677801  0.0461788429
C   -2.4494734226  1.0512248166  0.1243421897
C   -2.0576239347  2.4752184629  0.3461293316
C   -0.7535495936  2.8272517142  0.1958649567
C   -0.3776570563  4.2110644480  0.1598633372
H   -1.0062555086  5.0784515880  0.2711198644
C    0.9350883430  4.2216237381 -0.1266048819
H    1.5463467945  5.0939610558 -0.2515026146
C    1.3782408148  2.8537244302 -0.1595014579
C   -3.1235041932  3.5131098430  0.6515572426
C   -3.2188808573  4.0493871055  1.9525851871
C   -4.1997500337  4.9932843767  2.2725409325
C   -5.0972695658  5.4294709733  1.3005566233
H   -5.8543820649  6.1635340519  1.5506693817
C   -5.0115668109  4.9153809283  0.0059501474
C   -4.0365397536  3.9623039242 -0.3175233597
Fe   0.0000000000  0.0000000000  0.0000000000
C   -3.1094645707 -3.3450523476 -0.9301553519
C   -3.8724799153 -4.1030816699 -0.0313273356
C   -3.2766721683 -3.5767207608 -2.3090165042
C   -4.7843286594 -5.0605484780 -0.5000690475
C   -4.1874069467 -4.5311093311 -2.7733789887
H   -5.3668397210 -5.6363373120  0.2044865386
C   -4.9449343781 -5.2743242769 -1.8708003386
H   -4.3013691307 -4.6890436214 -3.8377713198
H   -5.6513672732 -6.0124287188 -2.2340969300
C    3.6844419554  3.5386073879 -0.7594444577
C    4.3151445102  4.3213216758  0.2167630788
C    4.0665967782  3.7145474279 -2.1050332913
C    5.3020669429  5.2524367853 -0.1401866184
C    5.0464934507  4.6501243991 -2.4588257456
H    5.7862786741  5.8448797120  0.6226124404
C    5.6689474799  5.4195719846 -1.4760950403
H    5.3184912148  4.7704568750 -3.5002389384
H    6.4329455209  6.1422456630 -1.7436078370
H    4.9978821677 -5.5107060641  3.0692978408
H    6.3080964243 -5.0777893400 -0.9833394111
H   -4.2596547456  5.3812689448  3.2805130363
H   -5.7000291044  5.2543951520 -0.7544090967
Cl   3.8906429037  4.1319449079  1.8979974463
Cl   3.3213358682  2.7806650810 -3.3808159296
Cl  -3.6967776766 -3.8680984823  1.6871290857
Cl  -2.3505215252 -2.6747408733 -3.4858179157
Cl  -2.1317803307  3.5275221543  3.2192899605
Cl  -3.9561319871  3.3685665218 -1.9573005310
Cl   2.9079877738 -3.6092777556  3.2312052771
Cl   4.5867858502 -3.0717541322 -1.9784143186
Cl   0.3984586170 -0.2949092416  1.7425671001
