61
aligned d3map frame 1
Cu  -0.9327451582 -1.1585237160 -1.4240506260
C   -0.2080623970 -0.4832490316  0.1845877785
Cl  -1.7484805909 -1.8686891903 -3.2270771154
N    1.0161954565 -0.6455386162  0.7256619290
N   -0.8720391785  0.3157688351  1.0490762483
C    1.1179138079  0.0413781262  1.9034573300
C    2.0839447711 -1.4305975926  0.1446949189
C   -2.2108570493  0.7597071282  0.8594672617
C   -0.0744959210  0.6494073421  2.1097557957
H    2.0174368606  0.0570384152  2.4825345626
C    3.3815531411 -0.6605673534  0.1361022252
H    1.7713216907 -1.6871524270 -0.8722657103
H    2.1864520030 -2.3589847122  0.7110845292
C   -2.4335181363  1.9600558008  0.1814425090
C   -3.2595843066 -0.0268776149  1.3389736065
H   -0.4170834327  1.2792622494  2.9043392119
C    3.5338230899  0.4137692406 -0.7464420930
C    4.4177051437 -0.9938934633  1.0126242281
C   -3.7470493150  2.3649052953 -0.0118068551
C   -1.2875895769  2.7654915173 -0.3836599821
C   -4.5574423925  0.4169642749  1.1249533087
C   -3.0017903055 -1.3500343197  2.0194039863
C    2.4499717595  0.7955663831 -1.7081618345
C    4.7166943800  1.1381352002 -0.7348352915
C    4.3115088816 -2.1475335172  1.9701525254
C    5.5875448874 -0.2480433716  0.9932036710
C   -4.7988708898  1.6025076544  0.4584119515
H   -3.9516884685  3.2792448917 -0.5455619611
C   -1.2325156068  2.5591848339 -1.9001588843
C   -1.4007445906  4.2509703673 -0.0369032354
H   -0.3480585959  2.4002514308  0.0444521020
H   -5.3889235756 -0.1758639006  1.4716607488
C   -3.7508912891 -1.4634240481  3.3483958910
C   -3.3902204175 -2.4868597688  1.0702008341
H   -1.9319769203 -1.4405930601  2.2336019417
H    1.5487708438  1.1122108381 -1.1857727467
H    2.1770259826 -0.0438581662 -2.3461504725
H    2.7799987609  1.6124929071 -2.3442574215
C    5.7542393667  0.8227226163  0.1285898159
H    4.8324460995  1.9673050457 -1.4181417886
H    4.2374840528 -3.0908666645  1.4295010012
H    3.4405581300 -2.0567444456  2.6181056845
H    5.1963673660 -2.1919453013  2.5999275990
H    6.3893416388 -0.5081728065  1.6697147109
H   -5.8147214581  1.9292278128  0.2938955700
H   -1.1419044264  1.4985281517 -2.1358357211
H   -0.3788914488  3.0843761718 -2.3226729614
H   -2.1386674621  2.9342090116 -2.3688946836
H   -2.2469439097  4.7108879969 -0.5392432586
H   -0.4991834306  4.7717211100 -0.3515667819
H   -1.5207908230  4.3857256421  1.0361708482
H   -3.5188416948 -0.6171771433  3.9920300205
H   -3.4575939878 -2.3772573899  3.8601088142
H   -4.8257473240 -1.4941597590  3.1942483829
H   -4.4521276715 -2.4498459150  0.8412257289
H   -3.1649676344 -3.4499540140  1.5225121262
H   -2.8359582974 -2.4030251540  0.1352088072
C    7.0338800296  1.6006476468  0.1092366115
H    6.8598632788  2.6270146158 -0.2049732296
H    7.7317885572  1.1465114242 -0.5948612888
H    7.5019858886  1.6043788306  1.0908969701
61
aligned d3map frame 2
Cu  -0.9327451582 -1.1585237160 -1.4240506260
C   -0.2081029619 -0.4827912734  0.1844017588
Cl  -1.7412723296 -1.8689027701 -3.2302626026
N    1.0173960451 -0.6460435611  0.7225183193
N   -0.8692477355  0.3168064675  1.0504858627
C    1.1225203797  0.0406629042  1.9001370392
C    2.0838254992 -1.4302893894  0.1377902303
C   -2.2074153257  0.7641745426  0.8644670667
C   -0.0688657656  0.6496691305  2.1092647066
H    2.0234311052  0.0558319314  2.4770299393
C    3.3824432673 -0.6620058594  0.1353291439
H    1.7716378087 -1.6803269184 -0.8808916469
H    2.1841283518 -2.3621636215  0.6988487067
C   -2.4294287002  1.9580200448  0.1749390388
C   -3.2561270332 -0.0120420573  1.3607068436
H   -0.4091773349  1.2799410285  2.9045022727
C    3.5388805126  0.4142877005 -0.7445240312
C    4.4143317985 -0.9974388423  1.0155716594
C   -3.7425170821  2.3669664016 -0.0128782550
C   -1.2840582434  2.7528857017 -0.4059603712
C   -4.5534750826  0.4351486803  1.1509443438
C   -2.9977504109 -1.3290889532  2.0527443364
C    2.4599161130  0.7964503121 -1.7116449445
C    4.7213874918  1.1383833260 -0.7256328697
C    4.3035797846 -2.1533141958  1.9698657498
C    5.5847198659 -0.2516221577  1.0032204598
C   -4.7942713410  1.6145529318  0.4732328117
H   -3.9468284213  3.2766726293 -0.5546383135
C   -1.2435357881  2.5371942583 -1.9215623603
C   -1.3853999945  4.2410655423 -0.0670985868
H   -0.3428900872  2.3847613350  0.0159564481
H   -5.3851577285 -0.1498770486  1.5101013715
C   -3.7545971947 -1.4377075601  3.3776635008
C   -3.3752871549 -2.4736276763  1.1083246842
H   -1.9289723873 -1.4135041514  2.2745253886
H    2.7882211775  1.6226243536 -2.3366010954
H    1.5507978913  1.0991162989 -1.1948115349
H    2.2011750284 -0.0391878398 -2.3605235578
C    5.7552001930  0.8209213785  0.1422790968
H    4.8410744400  1.9692689670 -1.4061877791
H    3.4290598279 -2.0645967730  2.6132730733
H    5.1850401188 -2.1988401226  2.6043067399
H    4.2329412476 -3.0953603969  1.4264976536
H    6.3830201941 -0.5139562089  1.6830023729
H   -5.8098099888  1.9442671788  0.3128266879
H   -1.1607331695  1.4746010922 -2.1516242033
H   -0.3906670064  3.0549049928 -2.3546804623
H   -2.1516081616  2.9144630106 -2.3846996796
H   -2.2335903404  4.7027926374 -0.5643935970
H   -0.4837638458  4.7546057189 -0.3932109678
H   -1.4947189364  4.3829602829  1.0062183947
H   -3.5368987989 -0.5823508342  4.0141949251
H   -3.4541094292 -2.3428115018  3.9006099062
H   -4.8279318772 -1.4831057821  3.2167567526
H   -4.4358391880 -2.4416037635  0.8723030573
H   -3.1496537354 -3.4329474492  1.5684140367
H   -2.8153351471 -2.3937635069  0.1763435264
C    7.0325487582  1.6027330136  0.1281965150
H    6.8409564884  2.6539204901 -0.0752162890
H    7.6892337617  1.2241566081 -0.6555727857
H    7.5543608068  1.5146775942  1.0780065787
61
aligned d3map frame 3
Cu  -0.9327451582 -1.1585237160 -1.4240506260
C   -0.2086619467 -0.4836054639  0.1849839263
Cl  -1.7505728753 -1.8719575700 -3.2248758596
N    1.0153948726 -0.6468130197  0.7262761681
N   -0.8725818662  0.3148816622  1.0500031768
C    1.1170284302  0.0389847430  1.9047149927
C    2.0829006255 -1.4315570517  0.1443697664
C   -2.2110284505  0.7599255112  0.8605285533
C   -0.0752247177  0.6472704230  2.1112095677
H    2.0164085258  0.0538927559  2.4840325705
C    3.3821128613 -0.6642780447  0.1423105113
H    1.7722162895 -1.6828374740 -0.8745001460
H    2.1820566858 -2.3627867578  0.7066974528
C   -2.4324891875  1.9627025650  0.1863333229
C   -3.2605253149 -0.0276063117  1.3366188356
H   -0.4178089544  1.2766101475  2.9062027685
C    3.5395343695  0.4122592389 -0.7364139431
C    4.4147777739 -1.0026336246  1.0211958968
C   -3.7455692321  2.3697448918 -0.0051797305
C   -1.2856769038  2.7675621769 -0.3777943766
C   -4.5579508109  0.4183355629  1.1241871796
C   -3.0046852574 -1.3531912461  2.0130001496
C    2.4595674255  0.7988916664 -1.7006074679
C    4.7242911267  1.1337533543 -0.7193324551
C    4.3024931793 -2.1585807942  1.9752260797
C    5.5864254894 -0.2598365644  1.0071890672
C   -4.7981716927  1.6067826206  0.4624629051
H   -3.9492842666  3.2861785191 -0.5356794215
C   -1.2301342998  2.5605498973 -1.8942210881
C   -1.3975830905  4.2532992699 -0.0319121999
H   -0.3466606461  2.4017214047  0.0508838325
H   -5.3900229541 -0.1750861261  1.4685384775
C   -3.7431322645 -1.4626022487  3.3483134658
C   -3.4073076699 -2.4869407074  1.0661423863
H   -1.9336931170 -1.4504952409  2.2179346569
H    1.5543373981  1.1081654837 -1.1808330450
H    2.1931899539 -0.0362949622 -2.3469620100
H    2.7904776425  1.6219893156 -2.3282422313
C    5.7584491469  0.8130311277  0.1458790193
H    4.8437631375  1.9646515665 -1.3998920095
H    4.2297586825 -3.1003992557  1.4317268867
H    3.4285518779 -2.0682900658  2.6192078613
H    5.1842976673 -2.2058028595  2.6090838708
H    6.3858282251 -0.5237400993  1.6850746889
H   -5.8136821234  1.9352588765  0.2993487707
H   -1.1409018148  1.4996498283 -2.1293516535
H   -0.3756461224  3.0843779153 -2.3166845511
H   -2.1356727328  2.9365440970 -2.3633927492
H   -2.2415408114  4.7143191081 -0.5370227279
H   -0.4942832936  4.7725545049 -0.3441091376
H   -1.5206112158  4.3886351803  1.0407507173
H   -3.4959856865 -0.6210021333  3.9924639496
H   -3.4555937549 -2.3812441639  3.8546473228
H   -4.8195586704 -1.4805482312  3.2034568787
H   -4.4707588206 -2.4438138778  0.8456736582
H   -3.1840372347 -3.4515929225  1.5161396496
H   -2.8598705077 -2.4056780246  0.1269576153
C    7.0411056701  1.5861295065  0.1341638491
H    7.7593691696  1.1003902422 -0.5270199704
H    7.4778288938  1.6293085424  1.1294012704
H    6.8814708719  2.5989530075 -0.2275796628
61
aligned d3map frame 4
Cu  -0.9327451582 -1.1585237160 -1.4240506260
C   -0.2080229688 -0.4827980689  0.1843961727
Cl  -1.7412159229 -1.8665885699 -3.2311930299
N    1.0176785108 -0.6450702235  0.7223798761
N   -0.8693262516  0.3174460540  1.0497429388
C    1.1228465861  0.0430698029  1.8991497699
C    2.0834426283 -1.4313428893  0.1390766896
C   -2.2086527627  0.7619135031  0.8648082148
C   -0.0687160252  0.6518781377  2.1079097160
H    2.0239089817  0.0592441222  2.4757897890
C    3.3831756422 -0.6649474031  0.1344136462
H    1.7708308016 -1.6830050371 -0.8790780806
H    2.1829128456 -2.3622959361  0.7018713139
C   -2.4341177994  1.9561399122  0.1769955994
C   -3.2552708194 -0.0176881416  1.3602208388
H   -0.4089483036  1.2827823896  2.9026683328
C    3.5422032553  0.4067073714 -0.7500202632
C    4.4143688266 -0.9987593785  1.0166780507
C   -3.7483327410  2.3619335711 -0.0096955078
C   -1.2911555377  2.7543491890 -0.4040683803
C   -4.5538565511  0.4266404414  1.1518723526
C   -2.9942033245 -1.3353317306  2.0501346773
C    2.4639808973  0.7873601401 -1.7185630672
C    4.7271187638  1.1278785082 -0.7351708577
C    4.3006122250 -2.1497878743  1.9764846837
C    5.5862426800 -0.2562377758  1.0004835441
C   -4.7980072016  1.6063811437  0.4760446062
H   -3.9552941795  3.2715916619 -0.5504840451
C   -1.2472635482  2.5340201650 -1.9189392340
C   -1.3997235913  4.2432566372 -0.0705030024
H   -0.3491390722  2.3915128264  0.0206295364
H   -5.3838241053 -0.1608390116  1.5110106232
C   -3.7474519229 -1.4457597494  3.3769802254
C   -3.3742786693 -2.4788272689  1.1054665829
H   -1.9247921873 -1.4197315268  2.2688699032
H    2.7920795203  1.6135652031 -2.3436057800
H    1.5538369120  1.0891307382 -1.2030117540
H    2.2071414545 -0.0489547637 -2.3674131383
C    5.7598423678  0.8117670911  0.1335739370
H    4.8481014552  1.9548152090 -1.4202826396
H    4.2321041039 -3.0945000671  1.4374842981
H    3.4239438108 -2.0583116050  2.6164964325
H    5.1799935103 -2.1918823119  2.6140262945
H    6.3843186900 -0.5164511620  1.6813664296
H   -5.8144295518  1.9338483773  0.3166141542
H   -1.1580218268  1.4712179321 -2.1458574922
H   -0.3969980989  3.0555511655 -2.3525774766
H   -2.1570488792  2.9044831621 -2.3842337907
H   -2.2483841641  4.6998043158 -0.5717994406
H   -0.4994279499  4.7595017837 -0.3959927091
H   -1.5126080677  4.3885264150  1.0019833182
H   -3.5275241186 -0.5915401621  4.0142679514
H   -3.4461570986 -2.3519125500  3.8976688678
H   -4.8212345086 -1.4901377877  3.2188154188
H   -4.4349300193 -2.4451393730  0.8701000694
H   -3.1498105140 -3.4386915062  1.5649514078
H   -2.8148072180 -2.3993614900  0.1731890409
C    7.0423615380  1.5850146908  0.1192555593
H    7.4857300716  1.6208730960  1.1118722513
H    6.8802538223  2.6005555232 -0.2340367543
H    7.7562421501  1.1043802415 -0.5505385231
61
aligned d3map frame 5
Cu  -0.9327451582 -1.1585237160 -1.4240506260
C   -0.2080889968 -0.4829007131  0.1844437277
Cl  -1.7500841529 -1.8680075673 -3.2266304751
N    1.0159021493 -0.6453754019  0.7262217399
N   -0.8726898712  0.3157122846  1.0488521607
C    1.1166722483  0.0408215966  1.9045204764
C    2.0850839028 -1.4278128804  0.1441154287
C   -2.2104425836  0.7622903661  0.8575206947
C   -0.0758881680  0.6487123174  2.1102857628
H    2.0157178320  0.0561207515  2.4843480711
C    3.3820635887 -0.6565862034  0.1415141357
H    1.7746874895 -1.6801949666 -0.8745399468
H    2.1870989658 -2.3585131369  0.7068017043
C   -2.4299537023  1.9599179797  0.1736110791
C   -3.2613172379 -0.0185755984  1.3416453380
H   -0.4188889975  1.2781816443  2.9049932277
C    3.5368222044  0.4186364569 -0.7404036795
C    4.4154353627 -0.9903261993  1.0202277913
C   -3.7423628288  2.3680762236 -0.0203082235
C   -1.2824023148  2.7592620448 -0.3967935546
C   -4.5579433155  0.4283258681  1.1265244919
C   -3.0071997256 -1.3398303370  2.0271284164
C    2.4566458693  0.7981346985 -1.7071929169
C    4.7196138117  1.1416939998 -0.7257753164
C    4.3076740593 -2.1456197092  1.9755736043
C    5.5865965809 -0.2450921975  1.0037010457
C   -4.7962094578  1.6114725620  0.4546272813
H   -3.9444955492  3.2804607310 -0.5583389601
C   -1.2314608324  2.5478040026 -1.9127231848
C   -1.3895918686  4.2463060563 -0.0548465680
H   -0.3431929919  2.3922011286  0.0304412034
H   -5.3910187640 -0.1602264484  1.4766392856
C   -3.7593819337 -1.4481600633  3.3547747271
C   -3.3955183811 -2.4787417788  1.0803316601
H   -1.9379949099 -1.4314713647  2.2439243610
H    2.7825879111  1.6253769662 -2.3319635120
H    1.5468975167  1.0982014650 -1.1900421193
H    2.2000100960 -0.0380216849 -2.3562656727
C    5.7561090658  0.8245853839  0.1397314670
H    4.8392324322  1.9704844072 -1.4089012490
H    4.2392127890 -3.0883763774  1.4331442841
H    3.4331117177 -2.0583937288  2.6190922419
H    5.1893548202 -2.1884286052  2.6099087000
H    6.3863836932 -0.5079644244  1.6815101646
H   -5.8111510159  1.9407372623  0.2895812954
H   -1.1464399493  1.4859496150 -2.1451978456
H   -0.3761781190  3.0674374544 -2.3387183411
H   -2.1367552519  2.9256725515 -2.3808138619
H   -2.2356287834  4.7072656816 -0.5565127271
H   -0.4871691897  4.7629240789 -0.3738274954
H   -1.5062974278  4.3852364909  1.0180668187
H   -3.5273180920 -0.6005267649  3.9965733036
H   -3.4688498132 -2.3610896631  3.8696615515
H   -4.8339456701 -1.4775341459  3.1983701407
H   -4.4569190232 -2.4404128480  0.8491898128
H   -3.1729299976 -3.4409670024  1.5357996078
H   -2.8393297859 -2.3984848778  0.1461944462
C    7.0172103571  1.6326563835  0.1443189745
H    6.8528295425  2.5782149658  0.6617877933
H    7.3311883318  1.8597569071 -0.8723070864
H    7.8191107877  1.1016375117  0.6508485401
61
aligned d3map frame 6
Cu  -0.9327451582 -1.1585237160 -1.4240506260
C   -0.2082461240 -0.4829205611  0.1845111513
Cl  -1.7399888738 -1.8707905086 -3.2300523194
N    1.0174238334 -0.6468472637  0.7220046342
N   -0.8686652195  0.3165606961  1.0512991956
C    1.1233835596  0.0390921414  1.8999223853
C    2.0833842901 -1.4312509842  0.1367443459
C   -2.2080163211  0.7613709523  0.8677121529
C   -0.0676826449  0.6484246940  2.1100038064
H    2.0244925651  0.0527727614  2.4766044511
C    3.3833021024 -0.6651909242  0.1364640405
H    1.7717640657 -1.6790181104 -0.8827494771
H    2.1816301351 -2.3643570298  0.6960725297
C   -2.4341870673  1.9556228429  0.1803112507
C   -3.2540932757 -0.0183964307  1.3639050050
H   -0.4073761968  1.2785819477  2.9055661973
C    3.5391969009  0.4171274570 -0.7345981882
C    4.4191913440 -1.0120170536  1.0090725541
C   -3.7486592405  2.3608557899 -0.0059906400
C   -1.2919452880  2.7556028621 -0.3996403819
C   -4.5529305471  0.4253212842  1.1560729135
C   -2.9921051391 -1.3349893064  2.0554480749
C    2.4567858250  0.8126131297 -1.6924328299
C    4.7260995955  1.1364251870 -0.7176386990
C    4.3083717850 -2.1749226107  1.9547530801
C    5.5918491548 -0.2720730636  0.9948811690
C   -4.7978366900  1.6047285604  0.4798730339
H   -3.9561589361  3.2705744287 -0.5465297122
C   -1.2551744378  2.5483430488 -1.9164636086
C   -1.3955429621  4.2415465166 -0.0517866431
H   -0.3488632250  2.3869700404  0.0175399075
H   -5.3826088662 -0.1624459191  1.5154309736
C   -3.7365646897 -1.4378519920  3.3878379909
C   -3.3812446600 -2.4806083195  1.1172092584
H   -1.9215267173 -1.4218735941  2.2671612018
H    2.7887246452  1.6366624054 -2.3183052522
H    1.5556684395  1.1245858447 -1.1670783549
H    2.1827699088 -0.0185969761 -2.3407190304
C    5.7629700546  0.8067808981  0.1395571333
H    4.8434952045  1.9711398358 -1.3938619646
H    5.1946142923 -2.2312143175  2.5816310527
H    4.2267361345 -3.1123090379  1.4050021884
H    3.4397243094 -2.0847000817  2.6059250950
H    6.3947669110 -0.5421447903  1.6661577807
H   -5.8144761621  1.9315429050  0.3204937743
H   -1.1685887322  1.4874047139 -2.1523139649
H   -0.4057371615  3.0718999350 -2.3492804708
H   -2.1661218544  2.9244006305 -2.3749177872
H   -2.2498782370  4.7029051334 -0.5387557238
H   -0.4987262665  4.7601787067 -0.3830392962
H   -1.4958036673  4.3770691431  1.0232398182
H   -3.5062824009 -0.5837280504  4.0216644654
H   -3.4376214349 -2.3448483272  3.9083873568
H   -4.8117504284 -1.4750461475  3.2375110388
H   -4.4444441552 -2.4488489788  0.8935226882
H   -3.1504684441 -3.4393888445  1.5758939861
H   -2.8320107141 -2.4021196322  0.1788917646
C    7.0370502767  1.5940408609  0.1598933412
H    7.0955960937  2.2627116782 -0.6948661215
H    7.8982598510  0.9287740679  0.1459375780
H    7.0934707916  2.1926467289  1.0692307114
