67
aligned d3map frame 1
Cu   0.7475674701 -0.8494694599 -0.0558905003
C   -0.1609864357  0.8072742748 -0.0367877882
Cl   1.6737024669 -2.7475588401 -0.0621332297
N    0.2771961162  2.0826705190 -0.0438975651
N   -1.5082300385  0.9041463260 -0.0002555622
C   -0.7814288997  2.9684503907 -0.0144026434
C    1.6603308538  2.5217770204 -0.0820065485
C   -2.3826725376 -0.2168206110  0.0239711310
C   -1.9172645887  2.2188069788  0.0137288161
C   -0.5929977794  4.4414956138 -0.0160030667
C    2.6427882853  1.3804308339 -0.0338223822
H    1.8253681120  3.1909089822  0.7686139877
H    1.8068486160  3.1056018936 -0.9962054598
C   -2.7592392413 -0.7540027855  1.2563948578
C   -2.8267879145 -0.7550348088 -1.1852542184
C   -3.3550130195  2.5857582354  0.0555096429
H   -1.5583704309  4.9390894830 -0.0119474631
H   -0.0413929816  4.7611204014 -0.9001080535
H   -0.0349902122  4.7628893193  0.8636999039
C    3.1306749798  0.8209457364 -1.2191097834
C    3.0656907756  0.8772512256  1.2006171800
C   -3.6007103389 -1.8576281126  1.2573419247
C   -2.2160702632 -0.1932793947  2.5493644022
C   -3.6669970563 -1.8586920362 -1.1387557526
C   -2.3551990200 -0.1953381824 -2.5064599942
H   -3.8150533345  2.2135637556  0.9707378601
H   -3.8835815656  2.1395617386 -0.7863071659
H   -3.4744609509  3.6645243660  0.0157408724
C    4.0343376411 -0.2270080980 -1.1502146146
C    2.6684250946  1.3101296195 -2.5619666157
C    2.5341500032  1.4329666774  2.4907636345
C    3.9685715779 -0.1732747622  1.2304087867
C   -4.0532295855 -2.4023727558  0.0711134366
H   -3.8962065284 -2.3049060944  2.1930566656
C   -1.1181728960 -1.1230583384  3.0734802895
C   -3.3102814009  0.0061005830  3.5997760367
H   -1.7643270574  0.7843192600  2.3508315272
H   -4.0136112666 -2.3067727078 -2.0563785366
C   -1.2859222518 -1.1249277000 -3.0872197505
C   -3.5041305807  0.0010107686 -3.4971982858
H   -1.8945377012  0.7830183458 -2.3338595905
C    4.4553340323 -0.7456248849  0.0650384692
H    4.3946721327 -0.6743890565 -2.0653553011
H    3.0042846952  2.3315704781 -2.7465592108
H    1.5813646223  1.2834653792 -2.6281201296
H    3.0706396135  0.6767071125 -3.3478239681
H    2.8940013491  0.8418924304  3.3284665255
H    1.4451573245  1.4092973076  2.5013698219
H    2.8608002892  2.4632962355  2.6393109980
H    4.2772308151 -0.5770557604  2.1840442916
H   -4.7020451517 -3.2652955158  0.0894908367
H   -1.5260788799 -2.1047508868  3.3001635324
H   -0.6732617822 -0.7125147344  3.9773175498
H   -0.3364335317 -1.2450139990  2.3220263610
H   -4.1362285829  0.5863611245  3.1923332942
H   -2.9053549105  0.5378960481  4.4579988850
H   -3.6994159182 -0.9461193464  3.9488403264
H   -1.7047180474 -2.1067966310 -3.2922258588
H   -0.4663431742 -1.2464157417 -2.3771388196
H   -0.8888527272 -0.7144392908 -4.0130991691
H   -3.9132554552 -0.9519963012 -3.8203200969
H   -3.1451784398  0.5280687463 -4.3784814200
H   -4.3058244374  0.5849827174 -3.0487154744
C    5.3521936757 -1.9395051195  0.1150909452
H    5.9406568115 -1.9542029207  1.0295850138
H    6.0181837407 -1.9695431085 -0.7442741990
H    4.7279111215 -2.8334376589  0.0947898739
67
aligned d3map frame 2
Cu   0.7475674701 -0.8494694599 -0.0558905003
C   -0.1610268607  0.8072363390 -0.0379391342
Cl   1.6735106656 -2.7472546857 -0.0951237953
N    0.2772027782  2.0825050048 -0.0586162157
N   -1.5084586828  0.9043583778 -0.0102618727
C   -0.7814021135  2.9685048965 -0.0391051007
C    1.6610509314  2.5195066759 -0.0932736402
C   -2.3830953085 -0.2167048392  0.0006555432
C   -1.9174076697  2.2190863466 -0.0098992520
C   -0.5931239953  4.4415892052 -0.0502298979
C    2.6331524010  1.3810212669 -0.2647662788
H    1.8721683622  3.0610383083  0.8339639577
H    1.7692231032  3.2263341486 -0.9224144880
C   -2.7743517108 -0.7595923143  1.2257635461
C   -2.8122596279 -0.7497923460 -1.2164499103
C   -3.3552767571  2.5869152663  0.0172917768
H   -1.5564515654  4.9392286874  0.0124748512
H   -0.0972767377  4.7638083581 -0.9662482606
H    0.0180276630  4.7603307094  0.7939804358
C    2.9160934149  0.8995020290 -1.5470394539
C    3.2499906755  0.8026076150  0.8491303117
C   -3.6159535097 -1.8631098014  1.2116301101
C   -2.2453147765 -0.2058342670  2.5274442739
C   -3.6527955914 -1.8536641570 -1.1849943710
C   -2.3252487804 -0.1846559743 -2.5298312363
H   -3.4724874525  3.6666784142  0.0157655290
H   -3.8335232893  2.1804195036  0.9080811217
H   -3.8680688058  2.1748884510 -0.8515210923
C    3.8071790203 -0.1510226138 -1.6952953854
C    2.2475626950  1.4802046789 -2.7600948706
C    2.9430772406  1.2680446344  2.2439489432
C    4.1388525158 -0.2435761019  0.6617482989
C   -4.0540018555 -2.4025732817  0.0176705309
H   -3.9225392347 -2.3145263645  2.1417942231
C   -1.1583274580 -1.1430075453  3.0610313628
C   -3.3515465052 -0.0059792788  3.5649909583
H   -1.7863477502  0.7702049331  2.3381378095
H   -3.9879431537 -2.2979012708 -2.1087136016
C   -1.2468550083 -1.1094265211 -3.1012529537
C   -3.4624930650  0.0131903256 -3.5337856253
H   -1.8692638851  0.7943223980 -2.3483999527
C    4.4197105096 -0.7427829253 -0.6011668408
H    4.0070210820 -0.5381043757 -2.6842939912
H    2.5160140844  0.9089388040 -3.6445299832
H    2.5544106342  2.5149023506 -2.9200103761
H    1.1638391521  1.4530575841 -2.6541184927
H    3.4359687465  0.6247902626  2.9677236176
H    1.8709509859  1.2326501953  2.4342295270
H    3.2932511441  2.2885299708  2.4055880398
H    4.5989629413 -0.7059156690  1.5230753985
H   -4.7030200828 -3.2655117487  0.0242043099
H   -1.5735504913 -2.1233961549  3.2799482451
H   -0.7213292866 -0.7377869110  3.9711060782
H   -0.3693964098 -1.2662132990  2.3173591969
H   -4.1672400138  0.5842623507  3.1513288786
H   -2.9537530917  0.5158619735  4.4325749910
H   -3.7530870224 -0.9576539184  3.9013261015
H   -0.4333976240 -1.2295701496 -2.3839467639
H   -0.8422165802 -0.6959451837 -4.0225176066
H   -1.6604548498 -2.0923063026 -3.3118728101
H   -3.8628565983 -0.9395793226 -3.8683226258
H   -3.0947381349  0.5476097026 -4.4069842412
H   -4.2726253008  0.5904362756 -3.0917681051
C    5.3032894166 -1.9358642660 -0.7689123692
H    6.0776161081 -1.9640192182 -0.0055208376
H    5.7652163247 -1.9510830467 -1.7533729276
H    4.6886642994 -2.8305976596 -0.6641031860
67
aligned d3map frame 3
Cu   0.7475674701 -0.8494694599 -0.0558905003
C   -0.1611652708  0.8071178140 -0.0356813475
Cl   1.6768179383 -2.7460005954 -0.0522197288
N    0.2787884821  2.0819766072 -0.0397327417
N   -1.5082246975  0.9056726224  0.0025019710
C   -0.7786151926  2.9691086385 -0.0097437203
C    1.6630298042  2.5175747831 -0.0763064301
C   -2.3841422852 -0.2138525244  0.0382170203
C   -1.9154023993  2.2208775075  0.0186197456
C   -0.5887201093  4.4420228693 -0.0110784540
C    2.6417791298  1.3799353768  0.0592787796
H    1.8115856156  3.2321827633  0.7398120269
H    1.8293412489  3.0499552427 -1.0178376271
C   -2.7513859893 -0.7443610560  1.2765049489
C   -2.8392920215 -0.7571776101 -1.1644254202
C   -3.3525548954  2.5901894605  0.0594711009
H   -1.5535489719  4.9404564686 -0.0262922368
H   -0.0204228089  4.7585929974 -0.8854841140
H   -0.0473167132  4.7655026059  0.8783119177
C    3.2100026432  0.7947497252 -1.0767191982
C    2.9805477657  0.9066236431  1.3310502992
C   -3.5951164739 -1.8461928579  1.2897415255
C   -2.1972089310 -0.1782663135  2.5625513288
C   -3.6818991669 -1.8584265482 -1.1056267148
C   -2.3759772112 -0.2063022449 -2.4921119102
H   -3.8721034258  2.1869230979 -0.8094655791
H   -3.4683397652  3.6700686576  0.0695450288
H   -3.8249047517  2.1759147079  0.9498788229
C    4.1069957417 -0.2497810369 -0.9214909329
C    2.8423865956  1.2507937749 -2.4599387451
C    2.3650875561  1.4950106945  2.5682230366
C    3.8777799359 -0.1427016241  1.4470922639
C   -4.0592103388 -2.3953636886  0.1100421027
H   -3.8833971260 -2.2885341546  2.2300449685
C   -1.0960719554 -1.1064604377  3.0826982844
C   -3.2827691635  0.0272388557  3.6207663251
H   -1.7464706594  0.7981828958  2.3560679284
H   -4.0373891807 -2.3099662601 -2.0181493978
C   -1.3168596711 -1.1449597860 -3.0767580270
C   -3.5324374479 -0.0084081155 -3.4737458126
H   -1.9080405390  0.7700358574 -2.3280688072
C    4.4427441930 -0.7409456279  0.3311152606
H    4.5295684557 -0.7173967207 -1.7990377288
H    3.1843141433  2.2703556356 -2.6435182104
H    1.7630312691  1.2134036117 -2.6032430509
H    3.3039260759  0.6029452072 -3.2000986062
H    2.6739499244  0.9310903501  3.4441366780
H    1.2778048637  1.4646352936  2.5106002231
H    2.6758927151  2.5316113099  2.7066472897
H    4.1206602614 -0.5234324909  2.4288967487
H   -4.7099732573 -3.2565579905  0.1380540633
H   -1.5028141479 -2.0871223269  3.3158410199
H   -0.6451574068 -0.6925408031  3.9819956839
H   -0.3191451999 -1.2315586841  2.3268153669
H   -3.6712164976 -0.9228090245  3.9764179537
H   -4.1106200650  0.6080176654  3.2179575142
H   -2.8698075828  0.5611972813  4.4737782799
H   -1.7424306510 -2.1259793027 -3.2716751732
H   -0.4915538252 -1.2659868399 -2.3733052226
H   -0.9262605914 -0.7424011232 -4.0088270540
H   -3.9486338966 -0.9607931306 -3.7895948260
H   -3.1787188761  0.5136430813 -4.3600829496
H   -4.3276139981  0.5808031501 -3.0205426293
C    5.3337478184 -1.9324766197  0.4677391827
H    6.0740141736 -1.9650934451 -0.3285135126
H    4.7159023436 -2.8281571679  0.3955364336
H    5.8382130164 -1.9411372892  1.4311287812
67
aligned d3map frame 4
Cu   0.7475674701 -0.8494694599 -0.0558905003
C   -0.1612942828  0.8070175280 -0.0379089084
Cl   1.6764175427 -2.7455858834 -0.1052722530
N    0.2787551210  2.0816696491 -0.0632629202
N   -1.5086018190  0.9060416616 -0.0134660722
C   -0.7785804883  2.9691480386 -0.0478869144
C    1.6639700921  2.5145631080 -0.0950336159
C   -2.3854677397 -0.2132842547 -0.0073128557
C   -1.9156642394  2.2213807435 -0.0179896654
C   -0.5891945038  4.4420954398 -0.0646471674
C    2.6274259789  1.3804940174 -0.3329403299
H    1.8898134217  3.0129345970  0.8525320348
H    1.7642238602  3.2570595442 -0.8934422584
C   -2.7826679192 -0.7576998937  1.2151177077
C   -2.8114479095 -0.7426995736 -1.2271807712
C   -3.3530853592  2.5912457282  0.0047409942
H   -1.5508673276  4.9404513596  0.0156796390
H   -0.1117147342  4.7628886107 -0.9909938194
H    0.0385964276  4.7613365807  0.7669181445
C    2.8488464967  0.9263972439 -1.6371689599
C    3.2968944696  0.7793503957  0.7377326648
C   -3.6272238594 -1.8589078672  1.1956070462
C   -2.2574448903 -0.2078545139  2.5199342900
C   -3.6545499407 -1.8447372959 -1.2011499551
C   -2.3193314948 -0.1751353712 -2.5376210417
H   -3.4683526757  3.6706074882  0.0403112562
H   -3.8422412528  2.1537519841  0.8744940741
H   -3.8566348673  2.2122077419 -0.8843731781
C    3.7280493114 -0.1230823179 -1.8499516880
C    2.1278962514  1.5368613435 -2.8046445641
C    3.0605457122  1.2154382793  2.1556384274
C    4.1736184142 -0.2635326273  0.4857495310
C   -4.0618651935 -2.3949749208 -0.0011091069
H   -3.9389009093 -2.3110714394  2.1237344069
C   -1.1812117182 -1.1535253153  3.0601936152
C   -3.3689122522  0.0012472168  3.5500294543
H   -1.7893881882  0.7643323349  2.3333455375
H   -3.9871342864 -2.2864146742 -2.1270207923
C   -1.2408433944 -1.0999550432 -3.1087782875
C   -3.4534393341  0.0270633760 -3.5442987823
H   -1.8624780028  0.8027340469 -2.3523011623
C    4.3907242804 -0.7383456897 -0.7989564085
H    3.8793385023 -0.4892753125 -2.8554469744
H    2.4222746070  2.5777264841 -2.9468768682
H    1.0496246306  1.5004163532 -2.6552834352
H    2.3625294726  0.9929259262 -3.7155551547
H    3.5931154544  0.5603212632  2.8395542088
H    1.9998742510  1.1695578179  2.4003601859
H    3.4139128889  2.2343399567  2.3199524513
H    4.6743730826 -0.7438180782  1.3138623699
H   -4.7130915993 -3.2562709242  0.0011768970
H   -1.6057664334 -2.1300750123  3.2783208063
H   -0.7455719730 -0.7508113865  3.9720043459
H   -0.3896181302 -1.2840471015  2.3207230021
H   -4.1759114271  0.6001689271  3.1317330308
H   -2.9720953357  0.5178715707  4.4211680899
H   -3.7821477049 -0.9469930358  3.8818655738
H   -1.6550120784 -2.0818324544 -3.3230039718
H   -0.4291573316 -1.2227889810 -2.3900273857
H   -0.8334721366 -0.6845326581 -4.0279427506
H   -3.8532158676 -0.9241585258 -3.8839458653
H   -3.0829657329  0.5649857270 -4.4142062717
H   -4.2646483443  0.6026889062 -3.1021754871
C    5.2614465479 -1.9299809248 -1.0318380484
H    6.0823422386 -1.9639122666 -0.3190065666
H    5.6605092542 -1.9372673215 -2.0434532295
H    4.6547224682 -2.8257230518 -0.8949265667
67
aligned d3map frame 5
Cu   0.7475674701 -0.8494694599 -0.0558905003
C   -0.1620995702  0.8064996209 -0.0386090502
Cl   1.6814501880 -2.7422597928 -0.1295879943
N    0.2818092897  2.0797620718 -0.0741282733
N   -1.5091031959  0.9092594871 -0.0208846128
C   -0.7729293223  2.9702272667 -0.0683124613
C    1.6701735670  2.5021905983 -0.1077672598
C   -2.3893800026 -0.2074626406 -0.0177444893
C   -1.9122321317  2.2257630070 -0.0375530978
C   -0.5810818949  4.4429257374 -0.0930775615
C    2.6112348406  1.3794464232 -0.4628268904
H    1.9273202110  2.9236401133  0.8683552798
H    1.7570138365  3.3020705472 -0.8501925971
C   -2.8114561014 -0.7358871016  1.2033716994
C   -2.7939015984 -0.7503440886 -1.2390381997
C   -3.3486797108  2.5998955418 -0.0250648771
H   -1.5404691285  4.9429375597  0.0031693979
H   -0.1207462729  4.7609234426 -1.0291555034
H    0.0618320936  4.7629884400  0.7263669306
C    2.7231818182  0.9760495982 -1.7973927924
C    3.3666013693  0.7387664017  0.5246798416
C   -3.6585647008 -1.8349982786  1.1813974737
C   -2.3067147476 -0.1720478140  2.5102912876
C   -3.6403899246 -1.8499461986 -1.2154068941
C   -2.2794049654 -0.1990172637 -2.5477944566
H   -3.8528166579  2.1966284019 -0.9030651509
H   -3.4611078561  3.6801224952 -0.0205667038
H   -3.8394460930  2.1890654255  0.8567698364
C    3.5716551122 -0.0703287398 -2.1215947007
C    1.9201539810  1.6397147348 -2.8789815333
C    3.2588762582  1.1239268162  1.9726697383
C    4.2117438378 -0.2972815593  0.1612159571
C   -4.0718033084 -2.3845931433 -0.0168324037
H   -3.9892420211 -2.2749211663  2.1087886487
C   -1.2265316970 -1.1038172879  3.0668056264
C   -3.4302194460  0.0320081815  3.5281761360
H   -1.8464091379  0.8035607286  2.3223548444
H   -3.9567823982 -2.3018521715 -2.1420380549
C   -1.2046506617 -1.1392508982 -3.1001890934
C   -3.3999193308  0.0078764312 -3.5687420194
H   -1.8144775334  0.7754702674 -2.3647554834
C    4.3139719034 -0.7279691998 -1.1530210001
H    3.6364787906 -0.3978799719 -3.1495636605
H    0.8546577324  1.5842125256 -2.6606297651
H    2.0967917481  1.1485920988 -3.8320377711
H    2.1959579572  2.6900670374 -2.9831154754
H    3.8568375696  0.4509098736  2.5809489962
H    2.2257548192  1.0577782124  2.3124322878
H    3.6185817314  2.1400803119  2.1396066353
H    4.7783114790 -0.8089614896  0.9255085903
H   -4.7253931707 -3.2440986696 -0.0164608410
H   -1.6435565925 -2.0837980033  3.2842359960
H   -0.8056333110 -0.6926897804  3.9817587130
H   -0.4256020658 -1.2292816000  2.3366156958
H   -4.2427927933  0.6130771864  3.0957719195
H   -3.0490895442  0.5651563591  4.3963508093
H   -3.8313952823 -0.9184635673  3.8683125241
H   -1.6260167536 -2.1191237047 -3.3094260680
H   -0.4003380337 -1.2628982599 -2.3733210572
H   -0.7848453567 -0.7358858132 -4.0190654496
H   -3.8100344696 -0.9414270322 -3.9013002557
H   -3.0123288618  0.5299515742 -4.4408369713
H   -4.2072226907  0.6005500762 -3.1422186006
C    5.1521346826 -1.9157539591 -1.4984128001
H    6.0508637446 -1.9547803775 -0.8867475919
H    5.4305725925 -1.9121562739 -2.5496206231
H    4.5672434280 -2.8143419180 -1.2995384314
67
aligned d3map frame 6
Cu   0.7475674701 -0.8494694599 -0.0558905003
C   -0.1625055979  0.8061593594 -0.0352047291
Cl   1.6897591865 -2.7388476461 -0.0043749784
N    0.2860977965  2.0782704194 -0.0178536983
N   -1.5082720719  0.9121776640  0.0174003636
C   -0.7650918667  2.9713192813  0.0333406378
C    1.6766544529  2.4928757612 -0.0534792343
C   -2.3911102556 -0.2018678958  0.0555245830
C   -1.9063837535  2.2296793253  0.0594976021
C   -0.5696551837  4.4437541690  0.0512275784
C    2.6229071345  1.3793447685  0.3176294613
H    1.7944015044  3.3227672922  0.6505473623
H    1.9010293200  2.8699365878 -1.0553441150
C   -2.7298650854 -0.7520597121  1.2934381484
C   -2.8819937989 -0.7199936355 -1.1440988623
C   -3.3405033253  2.6074131388  0.1239404186
H   -1.5316576926  4.9452425163 -0.0015614043
H    0.0361763290  4.7635311591 -0.7960546936
H   -0.0678207582  4.7603072956  0.9662757884
C    3.3681647806  0.7141813494 -0.6614256801
C    2.7502425571  1.0104651285  1.6607464774
C   -3.5805136142 -1.8486519197  1.3086759484
C   -2.1438855000 -0.2110779794  2.5761613419
C   -3.7307836277 -1.8163036072 -1.0832850684
C   -2.4475249706 -0.1484475371 -2.4727408721
H   -3.4493000676  3.6877282658  0.1488492438
H   -3.8029716653  2.1856622101  1.0160248242
H   -3.8747838382  2.2177178937 -0.7421186652
C    4.2168385378 -0.3127953950 -0.2808483676
C    3.2473318329  1.0631222585 -2.1175369704
C    1.9629494965  1.7044540396  2.7347893782
C    3.6006590065 -0.0289484314  2.0020349461
C   -4.0793617806 -2.3731914183  0.1320329971
H   -3.8471795095 -2.3060302016  2.2481790238
C   -1.0474583798 -1.1600977297  3.0673704231
C   -3.2084127344 -0.0032748424  3.6552373704
H   -1.6834778624  0.7617710377  2.3739239586
H   -4.1139841769 -2.2481554558 -1.9941056186
C   -1.4001340729 -1.0781732339 -3.0918496437
C   -3.6236727902  0.0634411178 -3.4275751524
H   -1.9761380791  0.8253236268 -2.3038796546
C    4.3320825357 -0.7112455210  1.0424429622
H    4.7756729531 -0.8434311816 -1.0377924606
H    3.6023233883  2.0758566232 -2.3127114688
H    2.2117247282  0.9848969752 -2.4471137767
H    3.8423652925  0.3767487318 -2.7136213594
H    2.2312736809  2.7599950880  2.7971108489
H    2.1624986867  1.2480084204  3.7005000153
H    0.8938320865  1.6333479306  2.5401578762
H    3.6767892123 -0.3298671052  3.0373938311
H   -4.7353370143 -3.2303659615  0.1616715838
H   -1.4625058000 -2.1394322696  3.2912330836
H   -0.5797578042 -0.7648167918  3.9663753782
H   -0.2811827005 -1.2824967530  2.3003170241
H   -4.0330169905  0.5968979425  3.2747669153
H   -2.7725117668  0.5112333056  4.5088163122
H   -3.6067477931 -0.9520138306  4.0033722065
H   -1.8294246478 -2.0567700103 -3.2909745125
H   -0.5609341721 -1.2075966887 -2.4068922132
H   -1.0294502058 -0.6628613485 -4.0264184955
H   -4.0424332135 -0.8843441933 -3.7537345352
H   -3.2894479124  0.6039702941 -4.3103961829
H   -4.4119997202  0.6405068092 -2.9475597634
C    5.1747177922 -1.8900140660  1.4077378201
H    6.0753514726 -1.9333823903  0.7990974185
H    4.5955874264 -2.7947217024  1.2203974794
H    5.4506231578 -1.8692384622  2.4594126010
