58
aligned d3map frame 1
Cu  -0.1723305414 -1.8634170574 -0.4864939713
C    0.1996439134 -0.0374580916 -0.6811532442
Cl  -0.6290588083 -3.8903826250 -0.2328932151
N    1.2729972565  0.5885543779 -1.2084963899
N   -0.6162783171  0.9571383932 -0.2711659183
C    1.1379504671  1.9580335179 -1.1232415039
C    2.4515913910 -0.0885063590 -1.6893991627
C   -1.8602731794  0.7478748879  0.3858377249
C   -0.0653720695  2.1925450362 -0.5310922687
C    2.1768079634  2.8965597936 -1.6173757858
C    3.5659044112 -0.0148414236 -0.6725980839
H    2.7675761922  0.3521536133 -2.6386251783
H    2.1726217598 -1.1352113439 -1.8556798643
C   -1.8730074434  0.6240088558  1.7768796486
C   -3.0258258006  0.6570250189 -0.3764409298
C   -0.7740323728  3.4488990735 -0.1815020906
H    2.3265857585  2.7777009678 -2.6905836353
H    3.1272942162  2.7115198989 -1.1176221837
H    1.8732261401  3.9213646327 -1.4249743075
C    4.8242543669  0.4567115120 -1.0176302393
C    3.3238234602 -0.4180269622  0.6350654069
C   -3.0936038290  0.4051350738  2.4005212536
C   -0.5945590311  0.6675599730  2.5805824883
C   -4.2247052078  0.4374548666  0.2877700814
C   -2.9793703048  0.7285925677 -1.8840098252
H   -0.1306525181  4.3074809673 -0.3496237200
H   -1.0776130424  3.4318579237  0.8644025058
H   -1.6736530512  3.5602331419 -0.7868983667
C    5.8293844353  0.5243374990 -0.0675328303
H    5.0229740055  0.7657634721 -2.0344276008
C    4.3264160085 -0.3451551188  1.5841414041
H    2.3467906119 -0.7993570844  0.8985658657
C   -4.2587712618  0.3164721814  1.6635315227
H   -3.1336156505  0.2902467913  3.4721476566
C   -0.2505538220 -0.7471080431  3.0546604131
C   -0.6941738959  1.6300124562  3.7657274384
H    0.2214260066  1.0160626979  1.9389776501
H   -5.1398678359  0.3475308298 -0.2756184189
C   -3.1602045547 -0.6804875866 -2.4551877936
C   -4.0303485154  1.6861699414 -2.4485752054
H   -1.9944629207  1.0932534116 -2.1934632443
C    5.5808648699  0.1279441739  1.2348809448
H    6.8068990638  0.8893585479 -0.3459254561
H    4.1307167187 -0.6634354570  2.5970598039
H   -5.1988847301  0.1392842503  2.1641975810
H   -1.0183073270 -1.1240543070  3.7255015099
H    0.7019581638 -0.7480188295  3.5800424052
H   -0.1817377219 -1.4247211796  2.2031262344
H   -1.0117873592  2.6175364745  3.4360112846
H    0.2769243738  1.7239952268  4.2465058310
H   -1.4034983095  1.2716752454  4.5064405755
H   -2.3932688145 -1.3477359589 -2.0615688543
H   -3.0821092739 -0.6618831429 -3.5398494840
H   -4.1330046232 -1.0817747836 -2.1825463404
H   -5.0352442484  1.3028264016 -2.2958529880
H   -3.8778614322  1.8123247605 -3.5181157467
H   -3.9593739310  2.6622306531 -1.9719715760
H    6.3643074775  0.1835127717  1.9757180890
58
aligned d3map frame 2
Cu  -0.1723305414 -1.8634170574 -0.4864939713
C    0.1996099702 -0.0374305964 -0.6810968087
Cl  -0.6245245272 -3.8908078323 -0.2281334659
N    1.2745259891  0.5877480262 -1.2062418380
N   -0.6147659107  0.9577636128 -0.2695278253
C    1.1419849376  1.9572971572 -1.1180180290
C    2.4523719248 -0.0904514279 -1.6874238532
C   -1.8600306334  0.7495082081  0.3853726897
C   -0.0613396208  2.1927132461 -0.5262399457
C    2.1827929815  2.8949728680 -1.6096455256
C    3.5654707523 -0.0216252675 -0.6689456979
H    2.7704624785  0.3520501193 -2.6350802057
H    2.1715669281 -1.1361674971 -1.8567340457
C   -1.8744647645  0.6169354448  1.7755443281
C   -3.0253171143  0.6683195079 -0.3785135430
C   -0.7674473135  3.4494995981 -0.1730530059
H    1.8798142346  3.9200196753 -1.4175894917
H    2.3347157470  2.7762093935 -2.6825609024
H    3.1320599037  2.7089398886 -1.1079444022
C    4.8244221899  0.4509391170 -1.0103641782
C    3.3215926894 -0.4303097578  0.6366804825
C   -3.0965213296  0.3988118643  2.3966554036
C   -0.5968498982  0.6511571090  2.5809963479
C   -4.2256301633  0.4491390010  0.2831620800
C   -2.9763816064  0.7486567847 -1.8856041168
H   -1.6735829621  3.5581180003 -0.7691776914
H   -0.1265193714  4.3080991125 -0.3504390205
H   -1.0599381665  3.4354438985  0.8761566892
C    5.8283761820  0.5141503387 -0.0587127559
H    5.0245940899  0.7642033788 -2.0255883322
C    4.3230258489 -0.3619051948  1.5873112244
H    2.3440938570 -0.8124791878  0.8973097323
C   -4.2613339533  0.3193464894  1.6581127261
H   -3.1379888623  0.2771944381  3.4674934826
C   -0.2615995734 -0.7662187798  3.0531899113
C   -0.6927121061  1.6122367729  3.7675648345
H    0.2220779904  0.9960100435  1.9411658635
H   -5.1406527676  0.3664564934 -0.2815262187
C   -3.1491315908 -0.6583863378 -2.4643885411
C   -4.0307682308  1.7037905144 -2.4478763431
H   -1.9926281795  1.1198001606 -2.1910378390
C    5.5780829945  0.1122469591  1.2416681600
H    6.8063776913  0.8799793594 -0.3343282417
H    4.1259288513 -0.6844769435  2.5985977067
H   -5.2025726537  0.1425631365  2.1568064004
H   -1.0319136901 -1.1397718643  3.7229703066
H    0.6905510002 -0.7735275116  3.5791728845
H   -0.1960058362 -1.4429342401  2.2006839033
H   -0.9988283913  2.6035252238  3.4382617359
H    0.2769025280  1.6955882929  4.2532592762
H   -1.4093045712  1.2596034738  4.5039937880
H   -2.3798651768 -1.3239955257 -2.0724628681
H   -3.0689115065 -0.6339019682 -3.5487797520
H   -4.1205959991 -1.0655816873 -2.1957047273
H   -5.0339468357  1.3130133390 -2.3028885339
H   -3.8741361907  1.8387191703 -3.5157479611
H   -3.9681497078  2.6767682161 -1.9638646066
H    6.3606262029  0.1643294081  1.9837119797
58
aligned d3map frame 3
Cu  -0.1723305414 -1.8634170574 -0.4864939713
C    0.1998630092 -0.0374739908 -0.6808831549
Cl  -0.6298520945 -3.8899927931 -0.2312167270
N    1.2729501917  0.5891527860 -1.2080769147
N   -0.6166297225  0.9566416471 -0.2706555892
C    1.1370264749  1.9584592228 -1.1227099469
C    2.4524386079 -0.0870848945 -1.6881626064
C   -1.8594525343  0.7460508150  0.3881381018
C   -0.0662047474  2.1923149052 -0.5300358796
C    2.1742732624  2.8984815910 -1.6173571692
C    3.5650617971 -0.0131021547 -0.6695223846
H    2.7693860080  0.3545866853 -2.6365850655
H    2.1742692822 -1.1337890215 -1.8554987632
C   -1.8689388500  0.6131784617  1.7784107956
C   -3.0271923065  0.6634160862 -0.3717027766
C   -0.7750182072  3.4493622382 -0.1828117357
H    2.3246569728  2.7787252393 -2.6903658367
H    3.1250042013  2.7161151961 -1.1170669720
H    1.8680032984  3.9227863248 -1.4265656539
C    4.8210731673  0.4680800427 -1.0097402328
C    3.3231626294 -0.4248271455  0.6355157619
C   -3.0886250762  0.3935907405  2.4036588189
C   -0.5889205698  0.6501671575  2.5799325559
C   -4.2249962274  0.4428328275  0.2940566097
C   -2.9836917526  0.7436389165 -1.8788857203
H   -1.1415909293  3.4033905478  0.8415611250
H   -1.6341965276  3.5971386188 -0.8374667487
H   -0.1091309023  4.3013835187 -0.2837227652
C    5.8240147430  0.5370010425 -0.0574101427
H    5.0197945254  0.7836896737 -2.0245289053
C    4.3235846188 -0.3508506960  1.5867973956
H    2.3479551728 -0.8134703931  0.8951497585
C   -4.2558931501  0.3129410823  1.6691083928
H   -3.1262336429  0.2720394676  3.4746566577
C   -0.2517174838 -0.7655230436  3.0556628772
C   -0.6818651666  1.6153034810  3.7634582176
H    0.2280280253  0.9933621129  1.9367365364
H   -5.1418436439  0.3591604673 -0.2675391077
C   -3.1656664264 -0.6623611220 -2.4573094929
C   -4.0354770757  1.7045405472 -2.4361055306
H   -1.9992908381  1.1097936022 -2.1881085515
C    5.5756319630  0.1320834660  1.2424033655
H    6.7997119013  0.9096759184 -0.3320203190
H    4.1280781244 -0.6759119533  2.5975945836
H   -5.1952241640  0.1352202614  2.1710517856
H   -1.0206457885 -1.1379473259  3.7276542794
H    0.7012034296 -0.7703691597  3.5802695639
H   -0.1867397585 -1.4445185636  2.2049568304
H   -0.9886683103  2.6054235369  3.4313443979
H    0.2889737452  1.7004127159  4.2463715841
H   -1.3966067143  1.2651357811  4.5028737549
H   -2.3984951454 -1.3318579409 -2.0680839087
H   -3.0889147412 -0.6381269488 -3.5419610331
H   -4.1382809413 -1.0647182003 -2.1855531214
H   -5.0401734047  1.3203893195 -2.2841142167
H   -3.8847216738  1.8370047064 -3.5051415056
H   -3.9635140070  2.6776008848 -1.9536057236
H    6.3573894842  0.1886034368  1.9849483722
58
aligned d3map frame 4
Cu  -0.1723305414 -1.8634170574 -0.4864939713
C    0.1997423347 -0.0374430371 -0.6808374029
Cl  -0.6301093681 -3.8902364233 -0.2336390559
N    1.2726329283  0.5886476287 -1.2089971838
N   -0.6167466283  0.9570903279 -0.2714864599
C    1.1366941626  1.9580352003 -1.1250628507
C    2.4525034943 -0.0874715124 -1.6880072000
C   -1.8587838728  0.7466138039  0.3889054048
C   -0.0663519334  2.1925064716 -0.5322535194
C    2.1739273653  2.8973847502 -1.6209980467
C    3.5660591785 -0.0092819772 -0.6706645319
H    2.7682065002  0.3519300185 -2.6379195936
H    2.1755966273 -1.1350094125 -1.8524094663
C   -1.8664468900  0.6144862768  1.7792941903
C   -3.0274576978  0.6630236769 -0.3693665962
C   -0.7747430469  3.4502375882 -0.1865349040
H    2.3212514131  2.7790799032 -2.6946003465
H    3.1257460946  2.7128399310 -1.1235832946
H    1.8695747110  3.9218219403 -1.4278570975
C    4.8243749120  0.4616994181 -1.0166852021
C    3.3232036605 -0.4068699445  0.6385572820
C   -3.0851681653  0.3942205276  2.4061719093
C   -0.5854260732  0.6527673501  2.5791873694
C   -4.2242208748  0.4415745898  0.2979776201
C   -2.9859495088  0.7433672333 -1.8765757900
H   -1.6245547269  3.6059063605 -0.8515925673
H   -0.1041172466  4.3001686989 -0.2733293472
H   -1.1549090282  3.3991211841  0.8325982333
C    5.8285387033  0.5346513953 -0.0659772598
H    5.0237484384  0.7662752165 -2.0347040782
C    4.3248328136 -0.3286228010  1.5882494580
H    2.3463532569 -0.7879883939  0.9029733273
C   -4.2532709081  0.3121034997  1.6731036369
H   -3.1213866605  0.2731978767  3.4772746835
C   -0.2461214020 -0.7627759214  3.0538935364
C   -0.6776837536  1.6173097619  3.7632250754
H    0.2302499812  0.9972702856  1.9350732138
H   -5.1416893859  0.3569382626 -0.2624300427
C   -3.1640584083 -0.6631776691 -2.4548907867
C   -4.0415780929  1.7008181561 -2.4325020014
H   -2.0030848930  1.1127900092 -2.1868181358
C    5.5791186089  0.1441802930  1.2380658867
H    6.8059869819  0.8992670635 -0.3451305511
H    4.1284216385 -0.6423363374  2.6024572599
H   -5.1917889085  0.1336580906  2.1763061065
H   -1.0135008981 -1.1359900196  3.7272186762
H    0.7077849919 -0.7670738042  3.5767232594
H   -0.1822489051 -1.4415061450  2.2028594594
H   -0.9844708524  2.6076204095  3.4316842563
H    0.2934354858  1.7020492392  4.2456561971
H   -1.3920556612  1.2669024989  4.5028815814
H   -2.3949880435 -1.3305988530 -2.0657835510
H   -3.0875808020 -0.6387748440 -3.5395576087
H   -4.1355132476 -1.0682003515 -2.1829218862
H   -5.0446533870  1.3118401029 -2.2820215577
H   -3.8907898178  1.8361498114 -3.5011757497
H   -3.9742114876  2.6731347563 -1.9478580293
H    6.3617282332  0.2041481272  1.9794397280
