50
aligned d3map frame 1
Cu   0.1271476515 -0.3189695029 -0.1305666087
C   -0.0110231810 -0.1707096693  1.7379004621
Cl   0.0671414572 -0.6399646603 -2.2069445641
N    1.0062563894  0.0320727137  2.6114413883
N   -1.1309931740 -0.2028186349  2.5003447976
C    0.5357775809  0.1480525852  3.8871172613
C   -0.8104143740 -0.0102158446  3.8213812217
C    2.3719082381  0.1392818980  2.2435331018
C   -2.4655891047 -0.3911169091  1.9695363633
C    2.9886354215  1.3902354346  2.3049451244
C    3.0728376199 -0.9944823490  1.8381154175
C   -3.1735110279 -1.5447862090  2.6126620571
H   -2.3383381014 -0.5650957443  0.8932055326
H   -3.0335709315  0.5344484908  2.0966118963
C    4.3199945459  1.4892439500  1.9393360782
C    2.2089402965  2.5900422438  2.7476262437
C    4.4055454473 -0.8521507832  1.4778560957
C    2.4066781227 -2.3360769187  1.7837407174
C   -4.1200428585 -1.3169815326  3.6673418082
C   -2.8963619535 -2.8463788467  2.2055384678
C    5.0411838920  0.3785304800  1.5188799562
H    4.8077638977  2.4526937648  1.9780641765
H    1.7922539083  2.4246041115  3.7406896427
H    1.3787164432  2.7732592594  2.0649074713
H    2.8417337095  3.4726842704  2.7721081501
H    4.9559732113 -1.7253306865  1.1585008969
H    1.7520572756 -2.4808715729  2.6416936581
H    3.1491173040 -3.1295083100  1.7691069425
H    1.8027060406 -2.4164465621  0.8778137447
C   -4.8004370835 -2.4486486638  4.2094203091
C   -4.3839625629 -0.0787019184  4.2082936606
C   -3.5739861592 -3.9112512353  2.7889822539
C   -1.8910045545 -3.1342581962  1.1322776862
C    6.4767192218  0.5242598380  1.1164378534
C   -4.5412808574 -3.7233467195  3.7844487567
H   -5.5324106158 -2.2723656573  4.9837597079
H   -1.5498175300 -0.0078439325  4.5940281893
H   -5.0958987805  0.0147728046  5.0090801435
H   -3.9085886734  0.8296259680  3.8894519765
H   -3.3564469875 -4.9166042398  2.4590171348
H   -0.9224439297 -2.6985524330  1.3728003832
H   -2.2098692559 -2.7171429848  0.1774783626
H   -1.7652831906 -4.2061032846  1.0068920345
H    6.5554592233  1.1536071648  0.2306001255
H    6.9198951808 -0.4425840722  0.8933912500
H    7.0494651180  0.9976341432  1.9124143839
C   -5.2504203197 -4.9098327093  4.3595763006
H   -4.5355395565 -5.5830582660  4.8308052080
H   -5.7587253116 -5.4634922061  3.5716761379
H   -5.9835358850 -4.6052315299  5.1015051862
50
aligned d3map frame 2
Cu   0.1271476515 -0.3189695029 -0.1305666087
C   -0.0248671018 -0.0725270403  1.7039635659
Cl  -0.0799815100 -0.4175006167 -2.2031367536
N    0.9648362700  0.1145733391  2.6120014482
N   -1.1606278279 -0.1881772984  2.4342770129
C    0.4905298185  0.0600557285  3.8903643634
C   -0.8474521888 -0.1319977890  3.7698550637
C    2.3517362569  0.3341911058  2.4116726819
C   -2.4592815897 -0.5629230025  1.9132931021
C    2.8930263916  1.5935659273  2.1471192938
C    3.1458472160 -0.7688578717  2.1054742973
C   -3.2231879106 -1.4660234010  2.8333875957
H   -2.4117563728 -1.0332258343  0.9225831864
H   -2.9490089672  0.3858805905  1.6780023793
C    4.2468310010  1.7565972542  1.9091622910
C    2.1620802070  2.8878900759  2.3311573759
C    4.4360290998 -0.6276667959  1.6138943091
C    2.5570843491 -2.1472430162  2.1017785946
C   -4.3306183749 -0.9414085780  3.5807456456
C   -2.8623050542 -2.8070655125  2.9232451522
C    5.0208565437  0.6272650853  1.6723605707
H    4.5284244342  2.7973862372  1.8376239410
H    1.7379216222  2.8984352795  3.3347262637
H    1.3882443252  2.9449362165  1.5650837559
H    2.8589234921  3.7202625289  2.2905454198
H    5.0413066867 -1.5174109577  1.7108269448
H    3.3409350532 -2.8511579074  1.8267166462
H    1.8242831615 -2.2862367998  1.3114327296
H    2.1855897061 -2.3984714080  3.0971786357
C   -4.9264216039 -1.7688454997  4.5796563827
C   -4.7924317821  0.3522891410  3.4875061679
C   -3.4754640652 -3.5432493970  3.9310168758
C   -1.8866369829 -3.4294860420  1.9713148391
C    6.4962182699  0.7779834614  1.4612917366
C   -4.4154220916 -3.0144114366  4.8247338991
H   -5.8393196219 -1.4920362606  5.0860715851
H   -1.5464835264 -0.1055281883  4.5787806109
H   -5.4900456631  0.6899930506  4.2332545573
H   -4.3011675058  1.1542471501  2.9696039618
H   -3.4236417806 -4.6196312942  3.8558407955
H   -0.9397540157 -2.9304125810  2.1716613042
H   -2.2303776469 -3.2200693003  0.9587495095
H   -1.8907406577 -4.5137686448  2.0398256678
H    6.8933941344  1.7449511675  1.1543531508
H    6.8792616672  0.0614811782  0.7395964517
H    6.9511401815  0.5651975209  2.4274531714
C   -5.0321839095 -3.8009067325  5.9393771401
H   -4.3231554072 -4.5702818453  6.2421714116
H   -5.9621136907 -4.3160463026  5.7036626680
H   -5.1129396668 -3.2565252094  6.8763008632
50
aligned d3map frame 3
Cu   0.1271476515 -0.3189695029 -0.1305666087
C    0.0138229748 -0.3203150417  1.7166202694
Cl   0.3492843081 -0.8077288033 -2.1413449253
N    1.0941732002 -0.0338191849  2.4846148463
N   -1.0695660463 -0.1855730945  2.5196134187
C    0.7261288488  0.3218699549  3.7495967236
C   -0.6259258912  0.2058078659  3.7585679083
C    2.4456280406 -0.0185569039  2.0542753060
C   -2.4364926867 -0.3081889416  2.0561081640
C    3.1734473406  1.1584306547  1.8699172362
C    2.9706377995 -1.2726188359  1.7496768303
C   -3.3538678140 -1.2526495081  2.7717437039
H   -2.3898221928 -0.6051118182  1.0003580903
H   -2.9347868497  0.6628257638  2.1213481580
C    4.4535899114  1.0320990499  1.3587763012
C    2.5690399391  2.5136460744  2.0736578948
C    4.3150893485 -1.3212386754  1.4087350379
C    2.1814705199 -2.5212114637  2.0042990786
C   -4.6414612893 -0.7972684193  3.2132163970
C   -3.1288458231 -2.6257112802  2.7995153750
C    5.0967856534 -0.1920835183  1.2236538713
H    4.9918604621  1.9503167444  1.1722410192
H    2.4324556512  2.6645214750  3.1440566869
H    1.5872464086  2.5772156158  1.6035670402
H    3.1327828329  3.3814695266  1.7432638737
H    4.6264224389 -2.3307105894  1.1819317034
H    2.6711937461 -3.4648487966  1.7691460842
H    1.2566301002 -2.3858630987  1.4499395655
H    1.8727593877 -2.4713391069  3.0503179187
C   -5.5328032661 -1.7400079965  3.8083698278
C   -5.1420763413  0.4454345266  2.8958948028
C   -4.0039038400 -3.5052743637  3.4273503885
C   -1.8905465076 -3.1785358238  2.1619366214
C    6.5351500411 -0.2897929905  0.8168134962
C   -5.2087530906 -3.0578462865  3.9841871791
H   -6.5035278485 -1.4296808917  4.1659357450
H   -1.2504839470  0.3720028090  4.6106315669
H   -6.1491167462  0.6721251252  3.1981045297
H   -4.7519773643  1.3423890946  2.4531813093
H   -3.6424074512 -4.4879388934  3.6931054935
H   -0.9726119864 -3.0749785554  2.7385409015
H   -1.5912304896 -2.6027656607  1.2866079919
H   -1.9272601510 -4.2262417526  1.8767283842
H    7.0449295846  0.6038696562  1.1752523480
H    6.5264997654 -0.2502383325 -0.2691434373
H    7.0453320225 -1.2028035738  1.1198411265
C   -6.1839702370 -4.0182983336  4.5907207237
H   -6.0527389188 -5.0305801237  4.2107104949
H   -7.1966569895 -3.6939790551  4.3562382450
H   -5.9627277522 -3.9751592652  5.6536833662
50
aligned d3map frame 4
Cu   0.1271476515 -0.3189695029 -0.1305666087
C   -0.0349872067 -0.2280736698  1.7316708980
Cl  -0.0068132029 -0.8794491275 -2.2014990423
N    0.9850325507 -0.0592566347  2.6092315631
N   -1.1507628173 -0.2572094506  2.5003587745
C    0.4976000442 -0.0801572309  3.8836425471
C   -0.8562640595 -0.1611740752  3.8379130899
C    2.2857993308 -0.0889878757  2.0444508418
C   -2.4753796082 -0.1930589028  1.9175764551
C    2.9161132998  1.1207065636  1.7472094683
C    2.9860396816 -1.2919752109  2.1042166357
C   -3.5066950951 -1.2185236848  2.2788621677
H   -2.1569154219 -0.1860469427  0.8671094544
H   -2.8348545014  0.8211868831  2.1112415239
C    4.2351747129  1.0915296934  1.3286218512
C    2.2621740174  2.4597834127  1.8977556456
C    4.3212191060 -1.2524733057  1.7275326386
C    2.3446726391 -2.5981480790  2.4636077035
C   -4.7655730308 -0.8308406883  2.8490333276
C   -3.4390414041 -2.5456221654  1.8654165483
C    4.9236083550 -0.1108010165  1.2235413312
H    4.6856260592  2.0407956451  1.0763479149
H    2.5145958080  2.9046410372  2.8598144749
H    1.2076181734  2.1944625805  1.9781415046
H    2.5017488827  3.1733224466  1.1144614687
H    4.9423766680 -2.1315679379  1.6339507367
H    2.1677285676 -2.6548541615  3.5364788191
H    2.8416468053 -3.5297828678  2.2066314722
H    1.3557952692 -2.5659204171  2.0020579451
C   -5.7201811759 -1.8412008762  3.1736123212
C   -5.0568881615  0.4675940953  3.2023342804
C   -4.3878687885 -3.5068951956  2.1958938060
C   -2.3855734449 -2.9730651057  0.8891970282
C    6.3449946810 -0.0355688117  0.7566800280
C   -5.4935272080 -3.1782591815  2.9905248923
H   -6.5771006538 -1.4881636789  3.7281537702
H   -1.5377444022 -0.2918624824  4.6516766216
H   -6.0667648658  0.6696228079  3.5124683552
H   -4.3955997844  1.3021510875  3.0648125605
H   -4.1399120004 -4.5227550509  1.9248197607
H   -1.4124110543 -3.1111653078  1.3579012708
H   -2.4754230660 -2.2872028367  0.0472816258
H   -2.5704669284 -3.9832013711  0.5344880649
H    6.9991703046  0.2261727914  1.5876626544
H    6.4091190113  0.8198331464  0.0895088075
H    6.7464088250 -0.9500616559  0.3227799568
C   -6.4263628572 -4.2975500251  3.3346254003
H   -6.2629680791 -5.2042061211  2.7535740126
H   -7.4647894200 -3.9705685909  3.3133441775
H   -6.3203846573 -4.5945741893  4.3744542588
50
aligned d3map frame 5
Cu   0.1271476515 -0.3189695029 -0.1305666087
C   -0.0253998047 -0.1597621106  1.7089887901
Cl  -0.0254182573 -0.5356120041 -2.2103661138
N    0.9908915875  0.0819382717  2.5737343918
N   -1.1626280729 -0.1888685435  2.4455686058
C    0.5225479113 -0.0022114843  3.8526885132
C   -0.8299981047 -0.0789173908  3.7730744948
C    2.3793235044  0.1593425261  2.2942333779
C   -2.5207438338 -0.1484387248  1.9433265001
C    2.9593649331  1.2937159097  1.7234814723
C    3.0998485546 -0.9856672500  2.6272247959
C   -3.3994750753 -1.1550446141  2.6217753980
H   -2.4154949018 -0.3999947033  0.8800336180
H   -2.9537718644  0.8537961608  2.0019337142
C    4.3405498368  1.3443707495  1.6476378966
C    2.1240252690  2.4480159831  1.2617168845
C    4.4830771932 -0.9205780388  2.5345034110
C    2.3558349919 -2.1855262256  3.1305968557
C   -4.2740390823 -0.6975602955  3.6638947231
C   -3.3971810523 -2.4326761536  2.0700898468
C    5.0743136239  0.2346855445  2.0486009596
H    4.9049770415  2.1230216815  1.1549117441
H    2.3630193887  3.4459042686  1.6281497469
H    1.0437993264  2.3744372088  1.3907252055
H    2.3609832145  2.5040348355  0.2030400457
H    5.1619397749 -1.7340208440  2.7463006283
H    2.9950138168 -2.9312540525  3.6006156346
H    1.7550282923 -2.6198307338  2.3360061547
H    1.7585148801 -1.8761897083  3.9905182805
C   -5.2098665456 -1.6546589783  4.1595205088
C   -4.2222744576  0.6022705127  4.1148705247
C   -4.2104113934 -3.3277716404  2.7563804964
C   -2.7145360022 -2.8782917542  0.8127397952
C    6.5580697617  0.4090277046  1.9389151550
C   -5.1333314049 -2.9556289948  3.7421031546
H   -5.9453568449 -1.2160412782  4.8176473702
H   -1.5748902661 -0.1136157035  4.5396497933
H   -5.0324193252  0.8856009662  4.7631288296
H   -3.5375983743  1.3142373229  3.6941309214
H   -4.0923060218 -4.3500844046  2.4279560031
H   -1.6651046328 -2.5940917619  0.8737686521
H   -2.9333756067 -2.3689859034 -0.1253531172
H   -2.9048561259 -3.9454419750  0.7396100110
H    7.0026293280  0.4671538864  2.9318777307
H    6.8485773683  1.3152575744  1.4142298850
H    7.0306306742 -0.4578483640  1.4796637960
C   -5.9378977544 -4.0720550840  4.3317345800
H   -6.9813175077 -3.9792238308  4.0334035398
H   -5.8161320460 -4.1345107876  5.4119992976
H   -5.4113765178 -4.9486420691  3.9642166585
50
aligned d3map frame 6
Cu   0.1271476515 -0.3189695029 -0.1305666087
C    0.0363440475 -0.1639392993  1.7413810924
Cl   0.1334145853 -0.6327101600 -2.2279454902
N    0.9754529798  0.0343745406  2.6993989141
N   -1.0650507913 -0.1884661068  2.5306928135
C    0.5294501605  0.3281845949  3.9551487489
C   -0.8113494923  0.1565479260  3.8351485705
C    2.3451604412  0.1164758471  2.3402109731
C   -2.4003512911 -0.5111684555  2.0711322059
C    2.7878304223  1.2670968684  1.6851361939
C    3.2059812724 -0.9670016482  2.5019227211
C   -2.9746954249 -1.7147552782  2.7546705508
H   -2.3018726865 -0.7357810302  1.0011786101
H   -2.9917842234  0.3996500399  2.1977799203
C    4.1025565990  1.3249243121  1.2560200133
C    1.9029066555  2.4710179779  1.5806795009
C    4.5362447177 -0.8570936579  2.1218247701
C    2.5820322546 -2.1182771505  3.2312054427
C   -4.1201734720 -1.5685250163  3.6071163137
C   -2.3387621535 -2.9458152768  2.6251138813
C    4.9618080621  0.2415555043  1.3923309089
H    4.5599405296  2.2638772509  0.9788529035
H    1.8255587773  2.7526537117  0.5309791475
H    2.4320295325  3.2320761073  2.1549307776
H    0.8994918609  2.4370624608  1.9955162810
H    5.1298123769 -1.7576818018  2.0584214989
H    1.8867392299 -1.8446440530  4.0232090430
H    3.3655826088 -2.7177670916  3.6868633055
H    2.0828781009 -2.8221529044  2.5623637111
C   -4.5887301213 -2.7099301667  4.3248244505
C   -4.7800108891 -0.4049965109  3.9333601262
C   -2.9207098824 -4.0427991851  3.2508116387
C   -1.3534485779 -3.2451459963  1.5365069259
C    6.3780224094  0.3724450743  0.9220510747
C   -4.0170641493 -3.9355642436  4.1159294291
H   -5.4927950734 -2.6697605323  4.9143288785
H   -1.5578466700  0.2173165991  4.5985325669
H   -5.3917705559 -0.2426148363  4.8029761501
H   -4.5511636243  0.5330780887  3.4639510196
H   -2.5394338562 -5.0458519489  3.1265187093
H   -0.3478362731 -2.8861334109  1.7501754593
H   -1.6249984561 -2.7328836643  0.6139292695
H   -1.3015030867 -4.2862146689  1.2301459873
H    7.1443277323  0.3890456370  1.6963165824
H    6.4579962370  1.2753753361  0.3226655761
H    6.6510806393 -0.4859496866  0.3102526189
C   -4.5501108646 -5.1547280533  4.8021512266
H   -4.4470560133 -4.9683039968  5.8703130214
H   -3.9640953735 -6.0056470383  4.4583166616
H   -5.5733575348 -5.5035231745  4.6925746808
50
aligned d3map frame 7
Cu   0.1271476515 -0.3189695029 -0.1305666087
C   -0.0186386108 -0.0766740340  1.6729923429
Cl   0.1755262902 -0.3471315550 -2.2442549116
N    1.0329360738  0.1224138740  2.5058229384
N   -1.0953871219 -0.1461686803  2.4930339626
C    0.5892117411  0.3400234474  3.7777920060
C   -0.7584199928  0.1804574149  3.7832945457
C    2.3828564503  0.3319958734  2.1241876195
C   -2.4460511295 -0.4130696620  2.0426666405
C    2.7209774611  1.5959519685  1.6372609125
C    3.2720974473 -0.7396319919  2.1683562502
C   -2.9676611969 -1.5918808782  2.8068943595
H   -2.4192036921 -0.6363671836  0.9682519447
H   -3.1334459882  0.4196708573  2.2142894476
C    3.9943581654  1.7343708452  1.1125405497
C    1.6928746973  2.6840316388  1.6874074330
C    4.5097146758 -0.5578861135  1.5671681571
C    2.9104605797 -2.1157261947  2.6397207453
C   -3.9965195611 -1.4259063644  3.7938440918
C   -2.4672589189 -2.8768040031  2.6190786595
C    4.8482842226  0.6472413995  0.9727492796
H    4.1526076509  2.5710661000  0.4472943870
H    0.6804816711  2.3392312679  1.8956027236
H    1.6805526661  3.2383280799  0.7484992125
H    1.9325677062  3.3121536722  2.5406915403
H    5.2667186475 -1.3136942046  1.7191572282
H    2.4900749265 -2.2011648168  3.6404971006
H    3.9029035439 -2.5522397344  2.7137230200
H    2.3102378867 -2.5932012669  1.8627423092
C   -4.5481977545 -2.5983143478  4.3926483872
C   -4.4689573695 -0.1809547672  4.1438683103
C   -3.1106079627 -4.0118550447  3.1000106253
C   -1.4662689250 -3.0648851518  1.5199193287
C    6.1757736979  0.9599639077  0.3531246913
C   -4.1347998084 -3.8549500828  4.0425245991
H   -5.4219471633 -2.5962248673  5.0274869946
H   -1.4784813936  0.2569924519  4.5702887951
H   -5.2487229668 -0.0988396519  4.8801239812
H   -4.0733097152  0.7739458634  3.8534761252
H   -2.8019740223 -4.9767040970  2.7248488870
H   -0.4756252268 -2.8121181691  1.8947983475
H   -1.7586665303 -2.4524692193  0.6674218736
H   -1.5011156225 -4.0586233437  1.0821414975
H    6.9317629376  0.6830090156  1.0871293040
H    6.2156598674  2.0189197594  0.1123686952
H    6.3071113484  0.3209306103 -0.5187047553
C   -4.8403269622 -5.1023044117  4.4758121289
H   -4.2071322955 -5.9876579748  4.4363479610
H   -5.6816520970 -5.3047383600  3.8148340784
H   -5.1605778752 -4.9942405450  5.5085077932
