47
aligned d3map frame 1
Cu   0.0392856484 -1.3111830956  0.1225863541
C   -0.0414038778  0.5935472352 -0.0848414464
Cl   0.0548674019 -3.4064032584 -0.1326612009
N    1.0676271798  1.3623402804 -0.0901058584
N   -1.1100825936  1.4122084094 -0.1752546752
C    0.6889245522  2.6682810047 -0.0942767129
C   -0.7063189592  2.7109658274 -0.1722435837
C    2.3883992583  0.8487724940 -0.0426302988
C    3.2183060493  0.8478727976 -1.1640586199
C    2.8422163931  0.2988249104  1.1543781994
C    4.5345898185  0.4303285423 -1.0663075405
C    2.7100922456  1.3086387693 -2.4957231220
C    4.1513755552 -0.1556625650  1.2086020099
C    1.8988308541  0.1234838014  2.3055651158
C    5.0347579386 -0.0267366189  0.1472425984
H    5.1653644176  0.5301073581 -1.9376797926
H    3.3997241676  0.9664941834 -3.2665667401
H    2.6595187294  2.3977726981 -2.4706405767
H    1.7371598289  0.8762997981 -2.7105224750
H    4.4550684233 -0.5827342508  2.1532312612
H    1.3942982904 -0.8400982844  2.2462128423
H    1.1279768888  0.8745654372  2.4528044514
H    2.4905906112  0.1301996456  3.2224213036
C    6.4861571790 -0.3619794518  0.2982346488
H    6.5823193279 -1.3645988995  0.7116426552
H    6.8586403675  0.3982996583  0.9792626127
H    6.9600150111 -0.3006207151 -0.6808321305
C   -2.4336796056  0.9061026026 -0.1274427534
C   -3.0861282708  0.4478574107 -1.2718849685
C   -3.0341133853  0.8544802022  1.1291590150
C   -4.4142838414  0.0877395501 -1.1171217796
C   -2.4372484208  0.5392038501 -2.6196864110
C   -4.3290548764  0.3755258624  1.2545163433
C   -2.2924831330  1.4023128308  2.3097761078
C   -5.0325188581 -0.0118341836  0.1231733213
H   -4.9764383456 -0.3595018934 -1.9239524298
H   -1.6240975225 -0.1883785400 -2.6054217865
H   -1.9219287071  1.4892500016 -2.7550473351
H   -3.1434226105  0.4072233365 -3.4344836840
H   -4.7832455017  0.3663244266  2.2346352622
H   -1.4553625460  0.7236878106  2.4770838177
H   -2.9663914437  1.2932824137  3.1545813750
H   -1.9708083072  2.4258085859  2.1204013245
C   -6.4197166170 -0.5663813452  0.2208762934
H   -7.2863291588  0.0868174719  0.1394899699
H   -6.5580800170 -1.1811619200  1.1061725209
H   -6.5810363990 -1.2208906490 -0.6354824489
47
aligned d3map frame 2
Cu   0.0392856484 -1.3111830956  0.1225863541
C    0.0581042973  0.5807963798  0.2070105715
Cl   0.0866894609 -3.2215647131  0.7781717026
N    1.0631579467  1.4795904138  0.1517222522
N   -1.0646079975  1.3162631813  0.0689505726
C    0.5891223686  2.7517008895  0.0746543542
C   -0.8023990401  2.6483379356 -0.0124636795
C    2.4372003221  1.1345489623  0.0934244143
C    2.9776659363  0.4202272933 -0.9761498285
C    3.2292223883  1.6138534305  1.1346688469
C    4.2894762564  0.0113142289 -0.8074926605
C    2.2088689803  0.0440441072 -2.2055213602
C    4.5686600682  1.2552074775  1.1606801505
C    2.7011750957  2.4236991466  2.2797749899
C    5.0939610628  0.3180447903  0.2836082606
H    4.6544266764 -0.7072017799 -1.5269841114
H    1.1445078471 -0.0950603207 -2.0194022323
H    2.5662443555 -0.9026904656 -2.6121858702
H    2.3781382699  0.8455102995 -2.9187205516
H    5.2631697670  1.5454360865  1.9355140945
H    1.6284994028  2.2892475207  2.4134007993
H    2.9182849773  3.4724470766  2.0980885624
H    3.1706823536  2.1189037537  3.2165314617
C    6.4501292765 -0.1969626628  0.6541770370
H    6.2499576773 -0.7979931671  1.5396671606
H    7.0829455061  0.6492003320  0.9073942315
H    6.9005315124 -0.8563283549 -0.0869387501
C   -2.3605653707  0.8168668715 -0.2164192620
C   -2.6906908049  0.3735848180 -1.4970222962
C   -3.2172557816  0.5882598249  0.8587802481
C   -3.9038496703 -0.2816103672 -1.6258577748
C   -1.6212646538  0.4224632362 -2.5457818383
C   -4.5152894034  0.1540822528  0.6383630214
C   -2.7765529426  0.8269478994  2.2704465579
C   -4.8798126918 -0.2513687338 -0.6374029031
H   -4.1055890282 -0.6637148333 -2.6159667104
H   -0.8316968251 -0.2890982998 -2.2986850464
H   -1.0327423127  1.3295614762 -2.6772311507
H   -1.9337555946  0.1536774964 -3.5508186949
H   -5.1960439791  0.0175020928  1.4659655601
H   -1.7411567834  0.4923645840  2.3432714735
H   -3.4352338143  0.1520497169  2.8093231052
H   -2.8169556193  1.8276696465  2.6991710416
C   -6.2418463541 -0.7710823420 -0.9782080104
H   -6.3328081410 -1.8060404973 -0.6543294951
H   -6.5732101150 -0.7609092204 -2.0130720428
H   -6.9203364367 -0.1320777537 -0.4133353347
47
aligned d3map frame 3
Cu   0.0392856484 -1.3111830956  0.1225863541
C   -0.0335030462  0.5822626141  0.1442991034
Cl   0.1740533074 -3.3844811985  0.3242691269
N    1.1039856475  1.2933017024 -0.0025452469
N   -1.0821834809  1.4050246689 -0.0649539304
C    0.7303759568  2.5963712414 -0.1090340209
C   -0.6638559451  2.6974561877 -0.1314957395
C    2.4055934885  0.7313073638 -0.0231399643
C    3.1169988700  0.7911133588 -1.2217530265
C    2.9695567631  0.2562797700  1.1590258334
C    4.3959906930  0.2667101591 -1.1463693878
C    2.5712836827  1.4758139046 -2.4371941191
C    4.2476221541 -0.2821482460  1.1654275378
C    2.1843390345  0.3205494515  2.4338805991
C    4.9982435372 -0.2380504549  0.0000550204
H    4.8880243067  0.2903027339 -2.1078621551
H    2.0138650881  2.3844188241 -2.2123016682
H    1.8125406950  1.0199814827 -3.0743168947
H    3.2740338142  1.7096733001 -3.2316154715
H    4.6479380531 -0.7040109261  2.0757698310
H    1.7053103580 -0.6110141800  2.7326898680
H    1.5623343758  1.2078581087  2.5101199537
H    2.9270448355  0.3963638986  3.2298016059
C    6.4063336120 -0.6731270064 -0.2640223867
H    6.7513576866 -1.2860086373  0.5670814550
H    7.0693265881  0.1802659117 -0.3768407693
H    6.3996585151 -1.2419620872 -1.1931402454
C   -2.4577669589  1.0618621235 -0.0463073473
C   -3.0120534136  0.4311956541 -1.1600632654
C   -3.2586743873  1.4961525268  1.0082886723
C   -4.3363159034  0.0399142528 -1.0558449293
C   -2.2116881184  0.0505738151 -2.3685749029
C   -4.6110370294  1.1946758292  0.9612537556
C   -2.7439384193  2.2628615894  2.1877787580
C   -5.1901545362  0.4067879790 -0.0229728816
H   -4.5712022082 -0.5239416311 -1.9468630301
H   -1.6846080766 -0.8936413678 -2.2221566035
H   -1.6536782329  0.9315086714 -2.6832865529
H   -2.8424789312 -0.0454494819 -3.2477096577
H   -5.1839932494  1.5210941761  1.8169284122
H   -2.2100618741  1.6185175285  2.8871293411
H   -3.5610220914  2.6700777528  2.7762388328
H   -2.1073828355  3.0555796444  1.7962737913
C   -6.6408244023  0.0367332178 -0.0245452957
H   -7.2220329339  0.9559914541  0.0138039004
H   -6.8379141001 -0.6729673025  0.7744101595
H   -7.0039955314 -0.5351938796 -0.8782214215
47
aligned d3map frame 4
Cu   0.0392856484 -1.3111830956  0.1225863541
C    0.1240075132  0.5660073349  0.0401803141
Cl   0.0734764310 -3.4188196551  0.0681198706
N    1.0245549301  1.5644844415 -0.0741795416
N   -1.0254664223  1.2543300017 -0.1191193733
C    0.4833515684  2.8091003439 -0.1575128492
C   -0.8986081595  2.6051454937 -0.2140372019
C    2.4361542440  1.4437931017 -0.0170331370
C    3.1686536647  0.5732548335 -0.8244706653
C    3.1549121039  2.2062103778  0.9012962042
C    4.5314896245  0.3368041761 -0.7672804072
C    2.3860971713 -0.1059721441 -1.9062160062
C    4.4997815789  1.8994582228  1.0449139521
C    2.4742456968  3.1683589476  1.8269935163
C    5.2011367466  1.0034087887  0.2520290183
H    5.0822699615 -0.3153376018 -1.4294542180
H    1.5640806677 -0.6708716568 -1.4680009841
H    2.8626866040 -0.7412488316 -2.6536687399
H    1.8918284604  0.6290902970 -2.5347340173
H    5.1026233558  2.4257609915  1.7705386566
H    1.9487260702  2.5791183041  2.5774539282
H    1.9162994697  3.8656258087  1.2085003352
H    3.2186747245  3.7706602737  2.3503562249
C    6.6658734702  0.7339600266  0.4059440473
H    6.7504730268  0.1999090322  1.3509475127
H    7.1300559498  1.7023771436  0.5710805236
H    7.0447489096  0.2813453215 -0.5097367011
C   -2.2721505271  0.5789772313 -0.1152009821
C   -3.1399005397  0.7261335795 -1.1972271641
C   -2.7179474355 -0.1758755006  0.9681714914
C   -4.3587957005  0.0707454023 -1.2461612137
C   -2.7392881952  1.5856504535 -2.3577004928
C   -3.8493109320 -0.9604296659  0.8054555516
C   -2.0753429305 -0.1825492630  2.3213187708
C   -4.7346982861 -0.8266570466 -0.2542804746
H   -5.0786107834  0.1815392669 -2.0440391556
H   -2.6710385686  2.5874546872 -1.9304719297
H   -3.4539163654  1.4556467129 -3.1694087308
H   -1.7277653560  1.3156160344 -2.6473526601
H   -4.1285183134 -1.6090147138  1.6230052519
H   -2.2855149965  0.7976826239  2.7505830267
H   -0.9975246923 -0.3133363524  2.3519545544
H   -2.4949233196 -1.0263194521  2.8680227247
C   -6.0708361913 -1.5016317466 -0.2312449912
H   -6.4596922123 -1.4093818736 -1.2434656519
H   -6.7782507476 -0.9625089526  0.3930628190
H   -6.0976985171 -2.5844769791 -0.1109062921
47
aligned d3map frame 5
Cu   0.0392856484 -1.3111830956  0.1225863541
C   -0.0275813986  0.5666368128 -0.0266197114
Cl  -0.2016888209 -3.4179348700  0.0381303293
N    0.9900097592  1.4522973161  0.0070562357
N   -1.1557338764  1.2925485000 -0.1707691364
C    0.5316554780  2.7203769769 -0.1684418711
C   -0.8599517155  2.6174181452 -0.2546635420
C    2.3800333344  1.1738560720 -0.0203235895
C    2.8766091052  0.6853506984 -1.2290926442
C    3.1891024304  1.4323976732  1.0841152613
C    4.2343323274  0.4387355561 -1.3398631402
C    2.0384761338  0.3484446927 -2.4240589203
C    4.5372770801  1.1567338047  0.9113976128
C    2.5951736283  1.8980462809  2.3788631473
C    5.0579616088  0.5593988182 -0.2268241170
H    4.6572441622 -0.0553208945 -2.2025194041
H    1.3268567994  1.1054798716 -2.7517030322
H    1.3384143171 -0.4351167492 -2.1319211850
H    2.5933385698 -0.0699183420 -3.2587764123
H    5.1910742371  1.1236013156  1.7706970587
H    1.7197430224  2.5337569076  2.2521370750
H    3.4329502100  2.3228910776  2.9244419026
H    2.3385997259  1.0140486396  2.9650098800
C    6.4984150106  0.1553803565 -0.2869008931
H    7.2831076127  0.9014309276 -0.4012038751
H    6.5885797364 -0.3441840527 -1.2475636154
H    6.8893613987 -0.5624574659  0.4333405177
C   -2.5001158433  0.8438369276 -0.1303575094
C   -3.1532401534  0.3111127445 -1.2416897710
C   -3.1580181887  1.0111456458  1.0867726488
C   -4.4700822473 -0.0891539754 -1.0888921097
C   -2.4631051637  0.3743947674 -2.5704737955
C   -4.4981490234  0.6626849411  1.1546667746
C   -2.5453026054  1.6884682274  2.2741253477
C   -5.1656237191  0.0461088308  0.1062595069
H   -4.9700923703 -0.5716874388 -1.9160375633
H   -1.8079855043 -0.4965400175 -2.6260149463
H   -1.9203727714  1.3143923905 -2.6616367523
H   -3.1771299723  0.1130916887 -3.3462860804
H   -4.9841178548  0.8282333763  2.1051586847
H   -2.9347304711  2.6904663647  2.4575383531
H   -1.4648625188  1.7809497824  2.2122192904
H   -2.7845126467  1.0569307759  3.1290054904
C   -6.6184280926 -0.3007363133  0.2084549588
H   -6.5863502133 -1.1184123578  0.9258715810
H   -7.1650119516 -0.7351361183 -0.6242465995
H   -7.1143569528  0.5688196669  0.6393653354
47
aligned d3map frame 6
Cu   0.0392856484 -1.3111830956  0.1225863541
C   -0.0250363858  0.5883640800  0.1137993487
Cl   0.0684569439 -3.3396389504  0.6333986743
N    1.0669212610  1.3806679468  0.1438560016
N   -1.0986719426  1.4021286774  0.0393094651
C    0.7868728184  2.7099932574  0.0857069865
C   -0.6030071839  2.6648832473 -0.0585287508
C    2.4077210982  1.0418192651  0.4567169597
C    3.4771054857  1.5220643618 -0.2996752459
C    2.6082401730  0.4869702406  1.7189199001
C    4.7817852369  1.1959181358  0.0288681643
C    3.1731140329  2.2067810962 -1.5968525811
C    3.9212493662  0.2329699280  2.0861901619
C    1.4611884979  0.2960243067  2.6643109056
C    4.9709490779  0.5112831214  1.2235532888
H    5.5067028087  1.5752979560 -0.6766015040
H    3.9346124858  2.1991653558 -2.3759014171
H    3.2141060455  3.2538833796 -1.2947003282
H    2.1562822759  2.1071938024 -1.9653478682
H    4.1881082730 -0.1609358307  3.0560193018
H    1.2831001691 -0.7754749564  2.5822127763
H    0.7393167240  1.0137151244  2.2850485937
H    1.7554347903  0.5828786764  3.6752429823
C    6.3453884845  0.1781699351  1.7151812006
H    6.6425655826  0.7090659105  2.6180844774
H    7.2101688740  0.2787754959  1.0651038708
H    6.2076733641 -0.8688398881  1.9829177646
C   -2.4429181387  0.9914833805 -0.1469987206
C   -2.8467602075  0.7468946482 -1.4594444711
C   -3.3391954470  0.8653384082  0.9127220282
C   -4.1526672373  0.3614397222 -1.7117638499
C   -1.8548074141  0.8477000151 -2.5782947276
C   -4.6303344484  0.4481029154  0.6283634043
C   -2.8216930853  1.0429020754  2.3072309781
C   -5.0006079684  0.0635005504 -0.6521931011
H   -4.4784905346  0.2102217700 -2.7305820897
H   -2.2000566648  0.0891162987 -3.2826722495
H   -0.8602410430  0.5630024876 -2.2373405852
H   -1.8919368794  1.7844969683 -3.1269552007
H   -5.3625146115  0.3965063422  1.4209899832
H   -1.7564861025  0.8154538378  2.2534160279
H   -3.3432621362  0.3200738947  2.9278928300
H   -2.9422506714  2.0611694380  2.6753050412
C   -6.3773289688 -0.4915653289 -0.8469421955
H   -6.1646772821 -1.3776485421 -1.4418754010
H   -7.0993844981  0.0354233461 -1.4648157666
H   -6.9357283035 -0.8266192789  0.0269490077
47
aligned d3map frame 7
Cu   0.0392856484 -1.3111830956  0.1225863541
C    0.1358885913  0.5417387734 -0.0242696975
Cl   0.2732961198 -3.4226422105  0.4882308309
N    1.1158268716  1.4629543194  0.0857450361
N   -1.0054603390  1.2500014848  0.1027790563
C    0.6614958461  2.7388940413  0.2060588275
C   -0.7262399765  2.5804247906  0.1453788507
C    2.4902734524  1.1895636325 -0.1301226442
C    2.8407664624  1.0463683034 -1.4728800231
C    3.4516721983  1.0660902410  0.8707212628
C    4.1471990931  0.7426614284 -1.8156589444
C    1.9163805712  1.0333308152 -2.6515477821
C    4.7455605189  0.7486226460  0.4854107574
C    3.1044768226  1.1877665317  2.3235125054
C    5.1120366228  0.5404106724 -0.8358814936
H    4.3041571879  0.5404251828 -2.8652239402
H    0.8652303106  1.2267678444 -2.4405495689
H    1.8950423287  0.0541200034 -3.1312251794
H    2.0767319599  1.7721704670 -3.4313276543
H    5.4131707828  0.6595662070  1.3299872842
H    2.6817878684  2.1820151476  2.4626885784
H    3.9941560468  0.9608395582  2.9040242727
H    2.3497378666  0.4556937304  2.6155544775
C    6.4680664362  0.0985553733 -1.2916151631
H    6.4804138911  0.0748391079 -2.3800471454
H    6.9442453872 -0.7907720776 -0.8879848358
H    7.1722839522  0.8769138650 -0.9998727242
C   -2.3139951512  0.7474490717  0.3161232405
C   -3.1499827271  0.4978338843 -0.7721059720
C   -2.6717935299  0.4592792397  1.6318633247
C   -4.4211696586  0.0479195670 -0.4569956007
C   -2.7429416395  0.9341613012 -2.1468400645
C   -3.9423565077 -0.0184231397  1.9137414341
C   -1.7397644688  0.7016294029  2.7792869208
C   -4.8023330001 -0.2397645626  0.8477701587
H   -5.2049297257 -0.0062270640 -1.1984850202
H   -1.8675696181  1.5847172384 -2.1828231539
H   -3.5707971143  1.4692006054 -2.6103623606
H   -2.5415384430  0.0773170306 -2.7834326141
H   -4.3829295039 -0.0332707507  2.8999877713
H   -1.1544383686 -0.2176170794  2.7383734127
H   -2.2620323278  0.8359828995  3.7221132020
H   -1.1637991132  1.5968990351  2.5476897537
C   -6.1720489128 -0.6964771510  1.2435957908
H   -6.7302915672 -1.4616322052  0.7076735977
H   -6.8659028679  0.1385594666  1.1974490417
H   -6.0511208043 -1.2408442301  2.1799705364
47
aligned d3map frame 8
Cu   0.0392856484 -1.3111830956  0.1225863541
C   -0.0626912315  0.5630663148 -0.0519637743
Cl  -0.6585797304 -3.1145906081  0.8683019325
N    0.8309627660  1.4511283077  0.4315119602
N   -1.2686137378  1.1585898876  0.0555418195
C    0.1661673376  2.5661098273  0.8362063010
C   -1.1913846612  2.4305975040  0.5307652007
C    2.2215993526  1.2087965743  0.5651155554
C    3.1042369192  1.6055091752 -0.4398310253
C    2.7420960819  0.6166690795  1.7138931205
C    4.4559052536  1.3269010152 -0.3308738749
C    2.6321982718  2.3304643258 -1.6627523046
C    4.1158779733  0.4770912025  1.8428820663
C    1.8913525548  0.1268729720  2.8462743891
C    5.0042278022  0.7722838769  0.8195707673
H    5.0439066131  1.5021187282 -1.2200730472
H    2.2977982263  3.3387153787 -1.4209643471
H    1.8921003789  1.7164148117 -2.1771430464
H    3.4639188967  2.4752360653 -2.3460788617
H    4.3988332710  0.2375237301  2.8575188170
H    0.9118548648  0.5490820881  2.6251636168
H    2.1776638491  0.3621518873  3.8673956162
H    1.8868505963 -0.9636743723  2.8070799279
C    6.4775250523  0.5792685770  1.0036534380
H    6.6014521875 -0.4902584569  1.1653725937
H    6.7975833446  1.0439548025  1.9321988291
H    7.1860665688  0.8184775828  0.2114250143
C   -2.4230426237  0.5381556537 -0.4854696675
C   -2.5841277078  0.7362866988 -1.8566813853
C   -3.3419146083 -0.1962633610  0.2618834011
C   -3.6985565792  0.2108646226 -2.4888314170
C   -1.6817841619  1.7905259168 -2.4226440523
C   -4.4229978750 -0.6830558691 -0.4566409371
C   -3.0721550116 -0.6319319940  1.6695109679
C   -4.6730639607 -0.5105768880 -1.8103633525
H   -3.6845737399  0.3542542087 -3.5594677703
H   -0.7068261982  1.9169164333 -1.9490657530
H   -2.1845705979  2.7548623781 -2.3616058534
H   -1.4586611810  1.5582808010 -3.4600802081
H   -5.2263777241 -1.1983399158  0.0493927161
H   -2.5246430628 -1.5740688583  1.7131397043
H   -4.0086709546 -0.8005250898  2.1932000420
H   -2.4758904173  0.1159477331  2.1910716225
C   -6.0031247421 -0.9236757801 -2.3596116339
H   -5.8085449330 -1.3723327642 -3.3318026283
H   -6.5088896229  0.0137425108 -2.5747809299
H   -6.5261745959 -1.5913929529 -1.6752656503
47
aligned d3map frame 9
Cu   0.0392856484 -1.3111830956  0.1225863541
C   -0.1447280548  0.5810383372  0.0369418949
Cl  -0.2839649084 -3.3827305691  0.2373440320
N    0.9597965847  1.3544810860  0.0901585352
N   -1.1934862377  1.4083811425 -0.1529660202
C    0.6111389342  2.6596128397 -0.0647066477
C   -0.7770117803  2.7010766145 -0.2257148279
C    2.2693211857  0.8589783768  0.3139154095
C    3.2127297029  0.8439944639 -0.7137535557
C    2.6596239517  0.4729982243  1.5945031020
C    4.5254638854  0.4900501482 -0.4530738960
C    2.7885416370  1.2992354361 -2.0763749593
C    3.9389634152 -0.0185875646  1.8067077219
C    1.6847556633  0.2974256949  2.7191178157
C    4.8956390389  0.0257364945  0.8035739795
H    5.2077563832  0.5394155599 -1.2892329937
H    3.3436367826  2.1860426658 -2.3801796931
H    1.7438308555  1.6017853463 -2.1566400173
H    3.0872778013  0.6244281361 -2.8732721030
H    4.0602011512 -0.4358763503  2.7957049456
H    1.0116653769  1.1538581345  2.7253779635
H    2.2680164070  0.2999836303  3.6355343401
H    1.0988402373 -0.6229301425  2.7414391141
C    6.3051064732 -0.2925781578  1.1957773409
H    6.6467990968 -1.2247967732  0.7489958421
H    6.4124419351 -0.3485981295  2.2755495426
H    7.0236780807  0.4188810916  0.7903658389
C   -2.5501741915  1.0374754626 -0.3323116118
C   -2.9248278259  0.5474532919 -1.5832867350
C   -3.4978570862  1.2699919425  0.6627093761
C   -4.2530244919  0.2609152196 -1.8505379991
C   -1.8110848474  0.5327297935 -2.5859420632
C   -4.8173292526  0.9599247098  0.3714420436
C   -3.0853945852  1.8719297938  1.9709670805
C   -5.1976605320  0.4049084566 -0.8418804429
H   -4.3835603298 -0.1298458118 -2.8491793192
H   -0.9610569509 -0.0607190982 -2.2452589587
H   -1.5874389956  1.5908048713 -2.7160356025
H   -2.1115641899  0.0891739006 -3.5309107210
H   -5.4596318344  1.1409003968  1.2209725376
H   -2.9891276330  1.0462112098  2.6768113660
H   -3.8745371801  2.4925590975  2.3854658287
H   -2.2520339542  2.5703069887  1.9026998627
C   -6.6580936331  0.0766064014 -0.8690638592
H   -7.0120113606 -0.1815406797 -1.8652626567
H   -7.2380054345  0.8051667917 -0.3089290085
H   -6.7278591704 -0.8647479047 -0.3243238931
