67
aligned d3map frame 1
Cu  -0.6887802611  0.1894456328 -0.1896613554
C   -0.1886644277  0.0837713337  1.6317139998
Cl  -1.5025317311  0.3886552359 -2.1209705443
N    1.0691260911 -0.0167466473  2.1653130553
N   -2.4405269591  0.1507349236  2.6829394836
C    1.0441253226 -0.0759101001  3.5252520932
C    2.2524865429 -0.0374890072  1.3842427178
C   -0.2588326923 -0.0241653829  3.9343719191
H    1.9485960961 -0.1474640114  4.0964436288
C   -3.0314320638  1.3387807274  2.4061322866
C   -3.1632609374 -0.9913371735  2.8051335647
H   -0.6303444238 -0.0405617610  4.9406730456
C   -4.4048399761  1.3954712518  2.2526358189
C   -2.2036593922  2.5896058067  2.3054992283
C   -4.5351743000 -0.9476758175  2.6606048363
C   -2.4373549551 -2.2920922580  3.0127947750
C   -5.1722665170  0.2511306152  2.3758913583
H   -4.8708089623  2.3399768658  2.0262735482
C   -2.3370536898  3.2106579423  0.9130463757
C   -2.6159686162  3.5838202038  3.3961818481
H   -1.1551268785  2.3261110153  2.4585297920
H   -5.1071543013 -1.8556061977  2.7480033179
C   -3.1998666399 -3.2644519027  3.9126827257
C   -2.1756292212 -2.9134445425  1.6345098959
H   -1.4723893919 -2.0814809883  3.4793367315
H   -6.2419575577  0.2870889901  2.2450824426
H   -2.0514057638  2.4881685708  0.1495402559
H   -1.6792752208  4.0717461196  0.8333131639
H   -3.3555251184  3.5359367679  0.7180015595
H   -3.6439131237  3.9125589577  3.2664011761
H   -1.9707335903  4.4570395559  3.3515537367
H   -2.5174425762  3.1345430122  4.3820677566
H   -3.5137833113 -2.7773172626  4.8331355864
H   -2.5504428209 -4.0970262761  4.1706224587
H   -4.0755553090 -3.6707604135  3.4133179649
H   -3.1135511504 -3.1383759371  1.1321509521
H   -1.6100630702 -3.8342794917  1.7478434429
H   -1.6052324016 -2.2269125281  1.0096292247
C   -1.0244797261  0.0827227250  2.7502010676
C    2.9042004632  1.1665013274  1.1051007474
C    2.7290233136 -1.2571565364  0.8997181209
C    4.0499930148  1.1283995210  0.3233251004
C    2.3406850864  2.4807025018  1.5922123781
C    3.8814877118 -1.2531588057  0.1260263117
C    1.9892962659 -2.5456981639  1.1707656683
C    4.5377127194 -0.0714412367 -0.1584112935
H    4.5639645861  2.0450841433  0.0794226861
C    3.4117843480  3.3751772793  2.2174260293
C    1.6458401473  3.1902245586  0.4270517751
H    1.5895592762  2.2753786284  2.3613006508
H    4.2659679756 -2.1816011684 -0.2674688324
C    1.3729329074 -3.0647414352 -0.1302699210
C    2.9022131675 -3.5958458174  1.8057517308
H    1.1741714992 -2.3419210471  1.8715069521
H    5.4296629009 -0.0838988732 -0.7675462779
H    3.9559946921  2.8356800527  2.9897521182
H    2.9461511561  4.2485789581  2.6692703506
H    4.1225937801  3.7216350836  1.4721491233
H    2.3582224665  3.4122781073 -0.3638478841
H    1.1985479600  4.1231056704  0.7639009623
H    0.8629117649  2.5545609624  0.0145428595
H    0.7103889668 -2.3116664950 -0.5554539636
H    0.7967403681 -3.9684178220  0.0565446285
H    2.1457128180 -3.2915659295 -0.8604323311
H    3.6954103022 -3.8918169052  1.1244788626
H    2.3266949535 -4.4829201076  2.0619216044
H    3.3569463659 -3.2049331823  2.7136683894
67
aligned d3map frame 2
Cu  -0.6887802611  0.1894456328 -0.1896613554
C   -0.1350603577  0.0067240464  1.5936978336
Cl  -1.2841639213  0.1839186500 -2.2182507293
N    1.1354781813 -0.0985971613  2.0952037197
N   -2.4382319694  0.1279692624  2.7389728829
C    1.0572465294 -0.2666285634  3.4439827478
C    2.3904516740  0.1935518859  1.5031448563
C   -0.2579428385 -0.3420778360  3.8077691101
H    1.9998129642 -0.3127303022  3.9527953752
C   -2.9964312797  1.3550851936  2.8798417826
C   -3.2161455155 -0.9674866241  2.9298432730
H   -0.6817637787 -0.5105851769  4.7788061261
C   -4.3153285913  1.5079290864  3.2673633964
C   -2.1695807997  2.5627851644  2.5368007548
C   -4.5067128941 -0.8485646911  3.4044322015
C   -2.5877827518 -2.2789964609  2.5462696319
C   -5.0967184241  0.3994631361  3.5400979623
H   -4.8413489974  2.4461633934  3.3263276631
C   -2.5494466158  3.0437438125  1.1343723202
C   -2.2387037724  3.6573153992  3.6069761403
H   -1.1339741086  2.2419830219  2.4069043348
H   -4.9640304852 -1.7960777002  3.6329424751
C   -2.3609496473 -3.2575570532  3.6985159669
C   -3.5138140460 -2.9646384579  1.5330523054
H   -1.6262278408 -2.1902326850  2.0356717356
H   -6.1340238490  0.6038956622  3.7518707847
H   -2.1431219496  2.4138408687  0.3440244359
H   -2.0674471589  4.0054900145  0.9819796677
H   -3.6030287140  3.3009663897  1.2046158909
H   -3.2482844003  4.0207424769  3.7809009047
H   -1.5676361135  4.4338546280  3.2499229610
H   -1.9100794118  3.2443526090  4.5582890067
H   -1.6298241811 -2.9091045255  4.4245419297
H   -1.8930502419 -4.1698349733  3.3375679936
H   -3.2934002685 -3.4628011215  4.2178358432
H   -4.3650733320 -3.3426425835  2.0944137748
H   -2.9368562363 -3.7736698886  1.0934679539
H   -3.8113032637 -2.2331494026  0.7823336339
C   -1.0358223469 -0.0743850123  2.6574886421
C    2.7958051347  1.5111477204  1.2753863263
C    3.3010075287 -0.8167882689  1.1876433039
C    3.9938097309  1.7695848566  0.6246476512
C    1.8323154114  2.6370433832  1.5686416182
C    4.5871373428 -0.5331159752  0.7492491536
C    2.8281581874 -2.2394960110  1.3701773912
C    4.9203421323  0.7655872078  0.4170788577
H    4.3577265864  2.7626519325  0.4116964679
C    1.8548564902  2.9356772530  3.0681550774
C    2.1006262983  3.9277864572  0.7902960031
H    0.8728456054  2.2585232858  1.2026021431
H    5.3298353227 -1.3159063748  0.7317087268
C    2.1396143328 -2.7143099624  0.0885914895
C    3.9222920431 -3.1894182488  1.8600279319
H    2.1157447487 -2.2306319631  2.2004667325
H    5.8040285556  1.0811596434 -0.1179801336
H    1.4828566763  2.1235054445  3.6892048686
H    1.2390113822  3.8194695185  3.2213023703
H    2.9003748953  3.0621589873  3.3357636852
H    2.7126824860  4.6456913488  1.3309607948
H    1.1499006659  4.4023122098  0.5563068281
H    2.5937391171  3.7140419622 -0.1575234478
H    1.1756723613 -2.2769408922 -0.1690749434
H    1.8874241674 -3.7639502709  0.2234391070
H    2.9013356733 -2.6318532422 -0.6826132702
H    4.7261474952 -3.3147837488  1.1396160967
H    3.4734480511 -4.1539749516  2.0878753814
H    4.2716584579 -2.7793640826  2.8053883523
67
aligned d3map frame 3
Cu  -0.6887802611  0.1894456328 -0.1896613554
C   -0.3086792376  0.0787945121  1.6388926082
Cl  -2.0112958000  0.7140373281 -1.7150098222
N    0.9385224266  0.1865022767  2.1954496914
N   -2.5523461004  0.2348986747  2.4494626503
C    0.8976032371  0.5119186449  3.5168085658
C    2.1294564515  0.0919354822  1.4315281001
C   -0.4152288161  0.5965437528  3.8870337509
H    1.8437839759  0.7329798296  3.9699322194
C   -3.3299799667  1.3448884581  2.4707247117
C   -3.0328579711 -0.9780337312  2.0759553250
H   -0.9043023407  0.7763063360  4.8248099709
C   -4.6217460149  1.2015644559  1.9976254349
C   -2.8088969482  2.6619116467  2.9745305648
C   -4.3282347757 -1.1036774598  1.6164407150
C   -2.2638002523 -2.1902991225  2.5242735827
C   -5.1554044491  0.0076300829  1.5466484200
H   -5.2613003341  2.0679889581  2.0247669539
C   -2.5275749547  3.5974976287  1.7964127749
C   -3.8161570468  3.2088175696  3.9915707434
H   -1.8451174331  2.4831136843  3.4556008419
H   -4.7642934138 -2.0465127990  1.3335068748
C   -2.8022157929 -2.6117566407  3.8914560582
C   -2.3641168451 -3.3290524807  1.5008354653
H   -1.2356328904 -1.8300867567  2.6036206620
H   -6.1571400088 -0.1510466597  1.1806013707
H   -1.8291560627  3.1237685379  1.1077045487
H   -1.8865959816  4.3986713621  2.1538611626
H   -3.4474022308  4.0289078402  1.4104906932
H   -4.7057868143  3.6618769775  3.5615961550
H   -3.4635419928  4.0540712070  4.5764133300
H   -4.2087836026  2.4085619943  4.6152403658
H   -2.4515248315 -1.9424635751  4.6738497837
H   -2.4180352381 -3.6124974364  4.0714211885
H   -3.8850536296 -2.5735412642  3.9768036800
H   -3.4017121451 -3.6001425978  1.3203851285
H   -1.9206612875 -4.2406174613  1.8920425951
H   -2.0630264613 -3.0896050238  0.4814414867
C   -1.1613693803  0.3237894625  2.7170848836
C    2.8066589926  1.2741085194  1.1215160620
C    2.5360395674 -1.1217464917  0.8737590360
C    3.9582457992  1.1468410923  0.3578956073
C    2.3085775311  2.6380629093  1.5380436252
C    3.6023427279 -1.1804772453 -0.0129976018
C    1.7143942590 -2.3340789987  1.2427457123
C    4.2936112845 -0.0200409624 -0.3020093084
H    4.6795016420  1.9337765493  0.2014078684
C    3.4689141696  3.4510091576  2.1133419010
C    1.5069201816  3.2554064632  0.3891038283
H    1.7049799168  2.4568052695  2.4328398088
H    3.8398525862 -2.0643999813 -0.5847828225
C    2.0742599083 -3.5322839978  0.3613804280
C    1.7783888878 -2.7917265411  2.7007916754
H    0.6884655625 -2.0656271654  0.9736811406
H    5.1156499328  0.1559062905 -0.9802944537
H    4.1356081700  2.7576878618  2.6218047096
H    3.0482053224  4.1146653262  2.8659192067
H    4.0866949514  3.9663610554  1.3829447191
H    2.0982115139  3.2136449379 -0.5224602924
H    1.2769684115  4.2937510710  0.6188155943
H    0.5681674124  2.7119626189  0.2860471269
H    1.7460455541 -3.2845157621 -0.6474575379
H    1.5142334936 -4.3830725973  0.7435553842
H    3.1346232012 -3.7660534711  0.3088752140
H    2.7655426614 -3.1916420901  2.9164030693
H    1.0812420848 -3.6159573048  2.8363460567
H    1.5162635716 -1.9634880853  3.3559397489
67
aligned d3map frame 4
Cu  -0.6887802611  0.1894456328 -0.1896613554
C   -0.1743632213 -0.0584687817  1.5892239644
Cl  -1.3647698167 -0.3426223159 -2.1054290933
N    1.0695503021 -0.3873557402  2.0597358110
N   -2.4135059872  0.0637627683  2.6497736082
C    1.0279975354 -0.8679215251  3.3328774051
C    2.2253284889 -0.3334965983  1.2399070315
C   -0.2896320266 -0.8942961850  3.6946962775
H    1.9620790002 -1.0602067453  3.8227399972
C   -2.8596624441  1.3291799789  2.8418873426
C   -3.2573170181 -0.9954876585  2.5627331811
H   -0.6487348474 -1.2479947207  4.6417307570
C   -4.2041357669  1.6538498793  2.8395899920
C   -1.8319661135  2.4214970225  2.7390195755
C   -4.5994119551 -0.7187370979  2.7274496342
C   -2.8080847115 -2.4051884394  2.2926210293
C   -5.0718144154  0.5770456030  2.8753288723
H   -4.4939645832  2.6899005396  2.8948723594
C   -1.8939142578  3.0312489698  1.3365967602
C   -1.9678111604  3.3866822067  3.9213957621
H   -0.8213776276  2.0485440411  2.9175841071
H   -5.2265044735 -1.5915272507  2.7917111056
C   -3.3009812134 -3.4211577359  3.3229438549
C   -3.3430457615 -2.7383923775  0.8936785493
H   -1.7182062356 -2.4547715100  2.2389229257
H   -6.1104733013  0.8450680824  2.9848486764
H   -1.5154302437  2.2712569303  0.6541825320
H   -1.2141925948  3.8668183184  1.4790926399
H   -2.8612066371  3.3001023623  0.9204283360
H   -2.9501999533  3.8500325717  3.9638316556
H   -1.2482044916  4.1866631235  3.7696435867
H   -1.8735015783  2.9345691214  4.9063972168
H   -2.6563308553 -3.4195622185  4.1990150152
H   -3.3026105174 -4.4438163435  2.9546626948
H   -4.3154411536 -3.1747360618  3.6253174790
H   -4.4111819301 -2.9255616108  0.9755869930
H   -2.9005724479 -3.7120779644  0.7018444662
H   -3.2867831485 -2.0612767408  0.0419135988
C   -1.0297170333 -0.2505299321  2.6760008796
C    2.8937023293  0.8670707282  0.9866113625
C    2.7955509333 -1.5024927874  0.7322312229
C    3.9835092292  0.8916900200  0.1280192465
C    2.3981235747  2.1843691192  1.5353178684
C    3.8666923598 -1.4512548487 -0.1491427242
C    2.2005016990 -2.8493898070  1.0680695271
C    4.4696738481 -0.2522266112 -0.4758491938
H    4.5256517235  1.8193944479  0.0310042020
C    2.5691502518  2.2625541622  3.0528381785
C    3.0191120568  3.4371631656  0.9118511860
H    1.3677446493  2.2115557181  1.1673167357
H    4.1806951190 -2.3933892900 -0.5715805681
C    1.2077855309 -3.3209001968  0.0030831767
C    3.1864195253 -3.9552653321  1.4481222644
H    1.5564969968 -2.6824176998  1.9366143638
H    5.2899159034 -0.1916799871 -1.1760726336
H    2.2209103318  1.3860514762  3.5952234237
H    2.0720371714  3.1675175344  3.3959532344
H    3.6350598214  2.3012618273  3.2603453839
H    4.0753187298  3.5211185055  1.1561820966
H    2.5407356984  4.3816869258  1.1625218506
H    2.8798292785  3.3618662553 -0.1661744890
H    1.1037837845 -2.5312860322 -0.7402612429
H    0.1912562613 -3.4363900881  0.3730275920
H    1.4421615252 -4.2508489378 -0.5088138155
H    3.6675825715 -4.4641173483  0.6171920255
H    2.5798816644 -4.6689310668  2.0017810632
H    3.9364887180 -3.5175218350  2.1036254873
67
aligned d3map frame 5
Cu  -0.6887802611  0.1894456328 -0.1896613554
C   -0.3316315353  0.1100167632  1.6299652653
Cl  -1.2386783780  0.2769514614 -2.2026039650
N    0.9740608534 -0.0722322769  2.0025527154
N   -2.3959876586  0.1056020764  3.0513426629
C    1.1493031013 -0.1915558876  3.3473989902
C    2.0798330198 -0.3509877924  1.1596967279
C   -0.0915000935 -0.1162634880  3.9152850535
H    2.0804108230 -0.2157854174  3.8783400616
C   -2.8744722069  1.3418179055  3.3343032777
C   -3.2060423693 -0.9775577821  2.9409777378
H   -0.3122432211 -0.1281005678  4.9650774540
C   -4.2527104444  1.4360785994  3.2664915074
C   -1.9511705244  2.4710349781  3.6980073636
C   -4.5796013838 -0.8511234631  2.9888423895
C   -2.4884271652 -2.2993188667  2.9425313601
C   -5.1554874097  0.4089135312  3.0577416393
H   -4.6254563541  2.4058946987  3.5510525854
C   -1.5825402000  3.4137253937  2.5500216702
C   -2.6519698391  3.2921914557  4.7854962395
H   -1.0227662295  2.0147355917  4.0474706595
H   -5.1881746106 -1.7306475184  2.8655005416
C   -3.1582479063 -3.1661860586  4.0086397424
C   -2.5448327478 -2.9158814206  1.5386377671
H   -1.4641403070 -2.0810855447  3.2529949930
H   -6.2298995654  0.4984505665  3.0414782398
H   -1.2953270601  2.8649387846  1.6539920480
H   -0.8100136852  4.1410148055  2.7840208849
H   -2.4696629845  3.9616934849  2.2436281773
H   -3.2769948700  4.0438548613  4.3101774739
H   -1.8789524680  3.6124138347  5.4788458688
H   -3.3143332056  2.6252135262  5.3331673132
H   -3.0330704812 -2.9075734383  5.0576999977
H   -2.5833807181 -4.0882155326  3.9794224531
H   -4.2030897159 -3.3723574522  3.7916573534
H   -3.5828249901 -3.1320172111  1.2967419128
H   -2.0364547089 -3.8681685504  1.4147525314
H   -2.1131037310 -2.1011814146  0.9580961719
C   -1.0059586120 -0.0847168570  2.8370126389
C    3.0606185026  0.6183230142  0.9344407970
C    2.2004337519 -1.6462772982  0.6526260568
C    4.1569372738  0.2677456945  0.1594272005
C    2.9443721556  2.0523176517  1.3949818964
C    3.3386684971 -2.0018767451 -0.0578384249
C    1.1121467859 -2.6595270531  0.9171231454
C    4.2656730858 -1.0169021006 -0.3379808894
H    4.7372340720  1.0748380026 -0.2598858745
C    4.2940814524  2.7682830659  1.4575051957
C    1.9590499452  2.6655405046  0.3965190229
H    2.4601292142  2.0546141399  2.3764848875
H    3.4753896030 -2.9889069290 -0.4722626481
C    0.4713947182 -3.1202277330 -0.3940575982
C    1.7640499774 -3.8088601299  1.6875063851
H    0.3186024604 -2.2495638249  1.5489533227
H    5.0375503208 -1.1796408652 -1.0758815241
H    4.9885201541  2.2035977097  2.0760478971
H    4.1209589827  3.7608453562  1.8681836050
H    4.8253913528  2.9827588221  0.5342334831
H    2.4163055435  2.7763156819 -0.5837690928
H    1.5107673477  3.5841995366  0.7692295449
H    1.0958769687  2.0043766460  0.3257841391
H    0.4566018776 -2.3903186160 -1.2026870886
H   -0.5990664763 -3.3023922370 -0.3272934876
H    0.9765192784 -4.0258594274 -0.7203330830
H    2.5258258719 -4.3335238948  1.1171392103
H    1.0375154560 -4.5552103051  2.0019169664
H    2.2390198648 -3.4219508905  2.5867352040
