  78
       -160.31548473
 N         -0.0713878729       -2.0546229432       -0.1261538396
 N         -2.0076325566        0.0770118151       -0.0756594432
 C          2.3270058990       -2.5337161984       -0.1743484395
 C          0.9857578762       -2.9048503579       -0.0855657872
 C          0.5231975615       -4.2605486069        0.0649828446
 H          1.1599355672       -5.1205705810        0.1413580548
 C         -0.8262845093       -4.2131416560        0.1097949627
 H         -1.5161193216       -5.0263066964        0.2243998247
 C         -1.2023119955       -2.8274763142       -0.0254249764
 C         -2.4944288573       -2.3566211967       -0.0641028902
 C         -2.8517981436       -0.9832635851       -0.1966628925
 C         -4.1635038226       -0.5414924714       -0.4852506495
 H         -5.0133063430       -1.1747829300       -0.6482669281
 C         -4.1167505659        0.8289153813       -0.5236425503
 H         -4.9204490300        1.5081685661       -0.7300877288
 C         -2.7746033450        1.2002008647       -0.2515705703
 C         -3.6135045304       -3.3163700276        0.0186306060
 C         -4.4475293890       -3.3269976538        1.1387234301
 C         -5.5158477738       -4.2030268342        1.2356793773
 C         -5.7692384136       -5.0839501411        0.1974982723
 H         -6.6027475666       -5.7658741346        0.2634092590
 C         -4.9613670900       -5.0963082757       -0.9267364044
 C         -3.8924955958       -4.2188649402       -1.0080738826
 N          0.0747749170        2.0472980172       -0.0839142956
 N          2.0121962374       -0.0816300704       -0.0562794706
 C         -2.3208123786        2.5290387175       -0.1704967633
 C         -0.9817088585        2.8976916947       -0.0405790729
 C         -0.5201376112        4.2499058619        0.1386612562
 H         -1.1556714872        5.1086639808        0.2335313734
 C          0.8297282487        4.2005281095        0.1853301788
 H          1.5210066087        5.0094627748        0.3180797449
 C          1.2048171706        2.8175680157        0.0313390446
 C          2.4984649806        2.3503797871       -0.0177109361
 C          2.8612880900        0.9793700428       -0.1429978385
 C          4.1816909825        0.5376514321       -0.3904345571
 H          5.0380643364        1.1700019936       -0.5170031412
 C          4.1342971833       -0.8321664797       -0.4421836188
 H          4.9423316484       -1.5129690744       -0.6259739916
 C          2.7821903596       -1.2035860292       -0.2207039614
 C          3.6078520341        3.3251934977        0.0254729435
 C          4.4450539454        3.4059994760        1.1386748453
 C          5.5068304206        4.2954315699        1.1785185736
 C          5.7490490662        5.1177031985        0.0903240306
 H          6.5807789160        5.8136239086        0.1141349854
 C          4.9338106783        5.0614379272       -1.0266937485
 C          3.8692228217        4.1751602771       -1.0495454088
 Fe         0.0001060571       -0.0073445608        0.2794900052
 C         -3.3318390692        3.6009615545       -0.2396113087
 C         -4.2949869681        3.7554213470        0.7618972422
 C         -3.3688445497        4.4932682659       -1.3132545914
 C         -5.2544342785        4.7524698171        0.6951047939
 C         -4.3235830776        5.4934835264       -1.3921483705
 H         -5.9811318635        4.8492615235        1.4919148040
 C         -5.2666310130        5.6164999238       -0.3856592595
 H         -4.3253456459        6.1623747904       -2.2372937084
 H         -6.0137383595        6.3948514849       -0.4432310332
 C          3.3422292304       -3.6041599744       -0.2282628280
 C          4.2563200256       -3.7859884192        0.8120361138
 C          3.4299665034       -4.4670277199       -1.3221997122
 C          5.2252787882       -4.7735137565        0.7574284289
 C          4.3934100360       -5.4582148608       -1.3895768539
 H          5.9175661087       -4.8866429026        1.5762365745
 C          5.2917481306       -5.6043283055       -0.3469864682
 H          4.4351717618       -6.1040214225       -2.2518018704
 H          6.0501733127       -6.3728437888       -0.3962573957
 H         -6.1343199052       -4.1947270240        2.1165112879
 H         -5.1566229629       -5.7756035898       -1.7410899733
 H          6.1343344560        4.3387051916        2.0536020762
 H          5.1184443093        5.6878423549       -1.8808329035
 Cl         4.1553930708       -2.7677702329        2.2036714696
 Cl         2.3270327243       -4.2671933141       -2.6396082741
 Cl        -4.2603741553        2.7005828108        2.1298400674
 Cl        -2.2162196968        4.3222554519       -2.5909980512
 Cl         4.1226050419        2.3805457156        2.4917505667
 Cl         2.8588891547        4.0925358372       -2.4489592503
 Cl        -4.1094763696       -2.2340806735        2.4331744030
 Cl        -2.9018246645       -4.2138466807       -2.4242862690
 Cl        -0.0108890250       -0.0298678101        2.4127185359
  78
       -160.31523918
 N         -0.0803839502       -2.0441283225       -0.0914108003
 N         -1.9990866591        0.0797311407       -0.0846132956
 C          2.3127808793       -2.5234614586       -0.2336746146
 C          0.9840562556       -2.8942644100       -0.0795768066
 C          0.5271369005       -4.2431048425        0.1379595928
 H          1.1631152437       -5.1035447397        0.2110359002
 C         -0.8193981144       -4.1888391841        0.2491460062
 H         -1.5051289825       -4.9918771754        0.4365523728
 C         -1.1983453938       -2.8095609944        0.0808760900
 C         -2.5011843908       -2.3429622284        0.0337602768
 C         -2.8591809478       -0.9823739877       -0.1309993977
 C         -4.1732610629       -0.5374702827       -0.4069837777
 H         -5.0390115691       -1.1638876870       -0.5052127881
 C         -4.1089416911        0.8294208436       -0.5225691281
 H         -4.9107122528        1.5087131543       -0.7378017700
 C         -2.7587429414        1.1959255293       -0.3018101046
 C         -3.5976382630       -3.3287630940        0.0854257732
 C         -4.4810874314       -3.3729955121        1.1652063271
 C         -5.5146547685       -4.2947944314        1.2163603218
 C         -5.6812865360       -5.1889694339        0.1735970719
 H         -6.4844640386       -5.9062013845        0.2009172392
 C         -4.8228240949       -5.1679060606       -0.9135335226
 C         -3.7938278219       -4.2433026387       -0.9515868068
 N          0.0971430311        2.0553381609       -0.1451478535
 N          2.0191500712       -0.0701149656       -0.0906861705
 C         -2.2974939225        2.5312823042       -0.2684196791
 C         -0.9682487599        2.9054433985       -0.1430826388
 C         -0.5100869676        4.2563828351        0.0541478111
 H         -1.1468780251        5.1172180903        0.1103835660
 C          0.8357659021        4.2041315014        0.1733455956
 H          1.5134414831        5.0143684771        0.3608601020
 C          1.2146678910        2.8226966453        0.0215425759
 C          2.5173420266        2.3546628837       -0.0096266000
 C          2.8752036353        0.9912362942       -0.1644814509
 C          4.1864456460        0.5413763804       -0.4549420227
 H          5.0421907095        1.1755856131       -0.5797040460
 C          4.1234269772       -0.8267326079       -0.5479494876
 H          4.9197760707       -1.5095280260       -0.7702195143
 C          2.7764951277       -1.1907564199       -0.3021918458
 C          3.6122304569        3.3396603455        0.0750036653
 C          4.4698900381        3.3611404365        1.1763640832
 C          5.4959724038        4.2870253133        1.2773873717
 C          5.6813762544        5.2123243365        0.2654692344
 H          6.4788336543        5.9337984589        0.3363080745
 C          4.8486190520        5.2166779651       -0.8406744832
 C          3.8263367400        4.2869432997       -0.9284880074
 Fe         0.0107018183        0.0101279510        0.2606524151
 C         -3.3166964588        3.5984149486       -0.3137529934
 C         -4.2032205507        3.7839372114        0.7496335552
 C         -3.4263418527        4.4571235640       -1.4077647588
 C         -5.1608035473        4.7837924120        0.7244006189
 C         -4.3806298777        5.4601402770       -1.4466115159
 H         -5.8257523266        4.9047357846        1.5643333035
 C         -5.2451102781        5.6185357706       -0.3767663510
 H         -4.4436550868        6.1052963037       -2.3075925274
 H         -5.9880898346        6.3998953816       -0.4031451304
 C          3.3093999875       -3.6119948665       -0.2842180956
 C          4.2080474680       -3.8192078592        0.7635488449
 C          3.3501194703       -4.5043411789       -1.3571651202
 C          5.1018664948       -4.8776372742        0.7483994705
 C          4.2393262728       -5.5665343270       -1.3865904673
 H          5.7735623943       -5.0190462397        1.5797807606
 C          5.1102513990       -5.7500404203       -0.3268270102
 H          4.2380067325       -6.2365737189       -2.2303443822
 H          5.7999834244       -6.5790753261       -0.3345381600
 H         -6.1746731345       -4.3064590008        2.0680063382
 H         -4.9503670190       -5.8587276847       -1.7307909784
 H          6.1341548441        4.2783447724        2.1455125487
 H          4.9861454993        5.9328747861       -1.6346324571
 Cl         4.1651989590       -2.7539503783        2.1218844399
 Cl         2.2687311179       -4.2664064755       -2.6830837324
 Cl        -4.0712632881        2.7596003626        2.1339846256
 Cl        -2.3589268311        4.2428455417       -2.7493562034
 Cl         4.2165385007        2.2206982903        2.4497043776
 Cl         2.8113531350        4.2773076005       -2.3278669417
 Cl        -4.2535578003       -2.2659372776        2.4713800423
 Cl        -2.7475939274       -4.1951670259       -2.3258892512
 Cl         0.0219480202        0.0426274594        2.3942711091
  78
       -160.31512351
 N         -0.0501308689       -2.0568952539       -0.0926065043
 N         -1.9941885258        0.0515741021       -0.1210503435
 C          2.3551765377       -2.5095710457       -0.1572886041
 C          1.0189701594       -2.8917345658       -0.0350316245
 C          0.5748318892       -4.2476136176        0.1601304161
 H          1.2258516495       -5.0930727579        0.2632949302
 C         -0.7753006122       -4.2144466951        0.2125377662
 H         -1.4511948525       -5.0333785895        0.3584341891
 C         -1.1694832354       -2.8400450688        0.0284840569
 C         -2.4664611875       -2.3843013778       -0.0487742251
 C         -2.8289071514       -1.0158325560       -0.2354063178
 C         -4.1413790252       -0.5864727211       -0.5504323650
 H         -4.9857867849       -1.2263789071       -0.7223812640
 C         -4.1046904514        0.7837029352       -0.6015371017
 H         -4.9092169236        1.4580964087       -0.8194766723
 C         -2.7687640113        1.1684647272       -0.3177861069
 C         -3.5898105705       -3.3347275779        0.0433904714
 C         -4.4920270081       -3.2525530224        1.1085534271
 C         -5.6035644739       -4.0744179540        1.1816395083
 C         -5.8302416928       -5.0054788895        0.1817700065
 H         -6.7055261957       -5.6285395692        0.2188271497
 C         -4.9414667615       -5.1293710216       -0.8734916006
 C         -3.8358082133       -4.2974152250       -0.9362530589
 N          0.0731677623        2.0487173344       -0.1276922755
 N          2.0243220466       -0.0627669460       -0.0647536225
 C         -2.3294306550        2.4992612002       -0.2265105143
 C         -0.9979850630        2.8832965716       -0.0794637258
 C         -0.5556230954        4.2376961538        0.1377582008
 H         -1.2054787036        5.0858811001        0.2454154144
 C          0.7931018554        4.2058280183        0.2094900393
 H          1.4713288784        5.0199299273        0.3816851912
 C          1.1906836056        2.8302860501        0.0200124589
 C          2.4901492409        2.3758520077       -0.0280385823
 C          2.8605379668        1.0048376701       -0.1681831785
 C          4.1822930976        0.5729065716       -0.4329150722
 H          5.0277982615        1.2146320940       -0.5789253675
 C          4.1493640828       -0.7985113457       -0.4691585187
 H          4.9678646981       -1.4668945255       -0.6514337354
 C          2.8051701005       -1.1813993660       -0.2276230990
 C          3.5953269153        3.3496928571        0.0414699205
 C          4.4870808574        3.3444295422        1.1164975121
 C          5.5549130912        4.2249232486        1.1763567006
 C          5.7514141260        5.1314994804        0.1481641797
 H          6.5867300341        5.8109344411        0.1853038375
 C          4.8756676617        5.1723458424       -0.9237807007
 C          3.8101596009        4.2881334476       -0.9702514623
 Fe         0.0098215842       -0.0011101111        0.2631029771
 C         -3.3472258131        3.5684000034       -0.2697810755
 C         -4.2697155729        3.7335544283        0.7658640671
 C         -3.4036773036        4.4657616102       -1.3376894440
 C         -5.1938720705        4.7649099061        0.7506398757
 C         -4.3275574918        5.4964938128       -1.3695841274
 H         -5.8840112358        4.8743404840        1.5711360978
 C         -5.2139809038        5.6469014982       -0.3164780350
 H         -4.3486722216        6.1728713552       -2.2086739659
 H         -5.9220882404        6.4566144254       -0.3291053616
 C          3.3547940572       -3.5950602322       -0.2337329500
 C          4.2665864842       -3.8284326780        0.7961898714
 C          3.3895452388       -4.4529778535       -1.3349674105
 C          5.1685860370       -4.8791604671        0.7393158509
 C          4.2811385350       -5.5106713800       -1.4038689014
 H          5.8543322980       -5.0380924314        1.5556096920
 C          5.1662731427       -5.7208107274       -0.3603173095
 H          4.2764226402       -6.1575925829       -2.2662533004
 H          5.8580345134       -6.5477215740       -0.4059330781
 H         -6.2868030607       -3.9778776733        2.0105314035
 H         -5.1074424695       -5.8546070838       -1.6529568143
 H          6.2161219687        4.1982022181        2.0269072827
 H          5.0105010620        5.8820272248       -1.7228970186
 Cl         4.2370287092       -2.7987717412        2.1844950829
 Cl         2.2988377447       -4.1752021283       -2.6458197150
 Cl        -4.2242764631        2.6467911520        2.1087890718
 Cl        -2.3029588216        4.2691931520       -2.6543027558
 Cl         4.2253545919        2.2276389036        2.4080357960
 Cl         2.7455871935        4.3243244153       -2.3300011318
 Cl        -4.1943220585       -2.1017996067        2.3620863587
 Cl        -2.7620262298       -4.4228867266       -2.2877248736
 Cl        -0.0287627128        0.0364868888        2.3971204191
  78
       -160.31492726
 N         -0.0781071233       -2.0583712183       -0.2833129690
 N         -2.0147240225        0.0776159103       -0.2077205074
 C          2.3220291105       -2.5319338480       -0.2979706174
 C          0.9831530783       -2.9052943031       -0.2125492596
 C          0.5219740633       -4.2540805660       -0.0102977117
 H          1.1594553872       -5.1102688995        0.0952511577
 C         -0.8267917734       -4.2048986202        0.0457808659
 H         -1.5128180734       -5.0142949294        0.2015767414
 C         -1.2042070586       -2.8248944582       -0.1380963036
 C         -2.4987053955       -2.3523252789       -0.1481514521
 C         -2.8611425883       -0.9824033956       -0.3047407307
 C         -4.1778719680       -0.5415211380       -0.5705647821
 H         -5.0308584111       -1.1770598249       -0.7112672000
 C         -4.1313165013        0.8308614050       -0.6156941142
 H         -4.9387537796        1.5113130715       -0.8046152279
 C         -2.7855555789        1.2012121703       -0.3695083877
 C         -3.5939808459       -3.3137652619        0.0793600491
 C         -4.3261544112       -3.2608446870        1.2691646718
 C         -5.3179539617       -4.1853784684        1.5476185754
 C         -5.6001137856       -5.1772160154        0.6243658803
 H         -6.3664728507       -5.9057320704        0.8382553203
 C         -4.9073053976       -5.2443512857       -0.5725186140
 C         -3.9134443868       -4.3165973375       -0.8357403085
 N          0.0710709926        2.0458676027       -0.2226095195
 N          2.0072755761       -0.0835587142       -0.2182396102
 C         -2.3287031940        2.5269144009       -0.2662150472
 C         -0.9893001508        2.8891046988       -0.1286588207
 C         -0.5306752334        4.2278888585        0.1390378764
 H         -1.1725559463        5.0745484401        0.2861133730
 C          0.8181002637        4.1764330624        0.2001764952
 H          1.5013394735        4.9782715022        0.4029509404
 C          1.1974783640        2.8078863614       -0.0493016137
 C          2.4927104245        2.3429951136       -0.1163614932
 C          2.8525030956        0.9781395131       -0.3138128346
 C          4.1684594583        0.5391087799       -0.5856040490
 H          5.0181896034        1.1770109946       -0.7345927911
 C          4.1248632264       -0.8324860957       -0.6255061864
 H          4.9338262994       -1.5133836819       -0.8084263367
 C          2.7789515469       -1.2044237026       -0.3820983697
 C          3.5872987910        3.3132665662        0.0747259051
 C          4.3898195512        3.2541804447        1.2161037412
 C          5.3836642947        4.1911677980        1.4490722512
 C          5.5938376714        5.2052210285        0.5302660599
 H          6.3609155430        5.9427270189        0.7126636624
 C          4.8258032024        5.2812065633       -0.6191241411
 C          3.8333204873        4.3399146368       -0.8393556565
 Fe        -0.0033383957       -0.0112993882        0.1244672148
 C         -3.3261023150        3.6142535526       -0.2767834095
 C         -4.2412389703        3.7761271365        0.7646023669
 C         -3.3590528504        4.5465198347       -1.3171207701
 C         -5.1468283126        4.8246710686        0.7729789455
 C         -4.2630076893        5.5962999696       -1.3231613974
 H         -5.8329929978        4.9284755094        1.5978686227
 C         -5.1529483270        5.7323377765       -0.2726271797
 H         -4.2610927262        6.2950518459       -2.1452567095
 H         -5.8562713265        6.5512396328       -0.2653732689
 C          3.3331662565       -3.6079189066       -0.2540473422
 C          4.1705590959       -3.7561358367        0.8545456906
 C          3.4633363315       -4.5316979562       -1.2910787184
 C          5.0868409634       -4.7931941753        0.9351520749
 C          4.3776543959       -5.5700014964       -1.2260229621
 H          5.7089845249       -4.8857201977        1.8111772082
 C          5.1836608495       -5.6980657273       -0.1067998725
 H          4.4516688214       -6.2686052875       -2.0438266309
 H          5.8884161414       -6.5153160419       -0.0495876443
 H         -5.8539348227       -4.1286776723        2.4810764484
 H         -5.1318466120       -6.0094532098       -1.2990862687
 H          5.9763614878        4.1279049774        2.3472158614
 H          4.9880748260        6.0649459701       -1.3415773263
 Cl         4.0240511511       -2.6432776663        2.1665090900
 Cl         2.4659364957       -4.3606048386       -2.6939383988
 Cl        -4.2115794366        2.6626625996        2.0879296951
 Cl        -2.2562833144        4.3703460101       -2.6351861864
 Cl         4.0962889125        2.0055994410        2.3760808767
 Cl         2.8885014368        4.4239782759       -2.2831835740
 Cl        -3.9408232948       -2.0374365142        2.4256045670
 Cl        -3.0591065831       -4.3845063689       -2.3374893644
 Cl         0.0008551907       -0.0511770254        2.2578566609
  78
       -160.31489960
 N         -0.0947884429       -2.0429117389       -0.0204687257
 N         -2.0225760661        0.0857407983       -0.0167026896
 C          2.2957593698       -2.5311099206       -0.1239479193
 C          0.9633626988       -2.8934865024        0.0516952699
 C          0.4983664433       -4.2348226640        0.2909550744
 H          1.1325827453       -5.0895577382        0.4248745573
 C         -0.8518043935       -4.1810939724        0.3290259863
 H         -1.5427880388       -4.9833926999        0.5011746007
 C         -1.2233228488       -2.8050533808        0.1096606301
 C         -2.5190967583       -2.3418942245       -0.0024215288
 C         -2.8721501214       -0.9718316335       -0.1479229327
 C         -4.1813032212       -0.5213960358       -0.4412187174
 H         -5.0290084764       -1.1561895541       -0.6123618946
 C         -4.1284744911        0.8493250650       -0.4695135779
 H         -4.9276334035        1.5371221866       -0.6672087152
 C         -2.7853140397        1.2121287133       -0.1965626444
 C         -3.5986617245       -3.3479597713       -0.0244314369
 C         -4.5318042505       -3.4492350115        1.0087335060
 C         -5.5049151735       -4.4376374383        1.0114952066
 C         -5.5634862340       -5.3413279039       -0.0352247885
 H         -6.3106441452       -6.1209417307       -0.0342675319
 C         -4.6646360071       -5.2553957298       -1.0854206097
 C         -3.6954976077       -4.2659511076       -1.0740624886
 N          0.0750316914        2.0586394477       -0.0903361522
 N          1.9927113050       -0.0746504244       -0.0714984630
 C         -2.3228486419        2.5391662194       -0.1259412162
 C         -0.9850485329        2.9069329368       -0.0173479491
 C         -0.5197821290        4.2554029851        0.1722474601
 H         -1.1546478653        5.1127906127        0.2878064581
 C          0.8309460944        4.2056439944        0.2021387811
 H          1.5163548706        5.0180540039        0.3451758382
 C          1.2035519452        2.8265483190        0.0096771527
 C          2.4964426138        2.3551808564       -0.0882183090
 C          2.8366161639        0.9796849658       -0.2469946997
 C          4.1293883899        0.5255821379       -0.5948951286
 H          4.9733356509        1.1505176540       -0.8137169330
 C          4.0748968041       -0.8466351167       -0.6055540464
 H          4.8653980805       -1.5346044885       -0.8335795231
 C          2.7475305591       -1.2045114461       -0.2627859546
 C          3.6046912243        3.3252165846       -0.0351874398
 C          4.5239887857        3.2973499009        1.0170765036
 C          5.5541254437        4.2187561314        1.1054219529
 C          5.6810970882        5.1912008087        0.1295473206
 H          6.4775217727        5.9168314682        0.1918055310
 C          4.7949274968        5.2400631461       -0.9334700517
 C          3.7706680394        4.3119458572       -1.0100049379
 Fe        -0.0093415954        0.0139231826        0.3192776259
 C         -3.3144675859        3.6297041038       -0.2171239602
 C         -4.2328106694        3.8750713999        0.8050331376
 C         -3.3411110762        4.4761886132       -1.3278181220
 C         -5.1251511415        4.9338566282        0.7345284589
 C         -4.2315259413        5.5332265518       -1.4134010783
 H         -5.8132009000        5.1028035874        1.5486125965
 C         -5.1175657195        5.7628052289       -0.3736480778
 H         -4.2249915408        6.1637958407       -2.2883587247
 H         -5.8117406286        6.5917831021       -0.4318808512
 C          3.2963733125       -3.6130665880       -0.1892107691
 C          4.2733241477       -3.7602476715        0.7976436216
 C          3.2911228017       -4.5398207010       -1.2347918929
 C          5.1996651911       -4.7905444146        0.7525016333
 C          4.2118128471       -5.5719298924       -1.2937930450
 H          5.9330918659       -4.8753633803        1.5383164156
 C          5.1628225027       -5.6936904560       -0.2952117522
 H          4.1778348320       -6.2693626431       -2.1126541554
 H          5.8725035652       -6.5036074691       -0.3304882849
 H         -6.2007012359       -4.4974813538        1.8330215246
 H         -4.7071961090       -5.9503807446       -1.9086528368
 H          6.2408011456        4.1737998859        1.9349816533
 H          4.8957615078        5.9906957160       -1.7005469962
 Cl         4.2965304196       -2.6523931686        2.1233738817
 Cl         2.1182179536       -4.3786003746       -2.4949932032
 Cl        -4.2229343436        2.8559104590        2.2011526813
 Cl        -2.2455765448        4.1783977523       -2.6331461625
 Cl         4.3391023565        2.1071428212        2.2559993035
 Cl         2.6939456464        4.3552976061       -2.3617790150
 Cl        -4.4337450375       -2.3398764854        2.3291022087
 Cl        -2.5881778810       -4.1530465669       -2.3986497307
 Cl         0.0223677117        0.0509965649        2.4522434231
  78
       -160.31483433
 N         -0.1009994987       -2.0665168898       -0.1389890567
 N         -1.9985836981        0.0826411824       -0.1291685263
 C          2.2853646850       -2.5635170288       -0.1353919302
 C          0.9627340805       -2.9221812765       -0.0012846901
 C          0.4729528360       -4.2520667063        0.2705554076
 H          1.0962366938       -5.1056563059        0.4490749262
 C         -0.8759119228       -4.1866133430        0.2628912092
 H         -1.5805919327       -4.9766094230        0.4366557582
 C         -1.2270653110       -2.8146315455       -0.0060588183
 C         -2.5259687231       -2.3331259151       -0.1527461251
 C         -2.8503748751       -0.9730592494       -0.3210651663
 C         -4.1310636810       -0.4940225868       -0.7022596007
 H         -4.9875097936       -1.1053962508       -0.9236052328
 C         -4.0486247405        0.8758361650       -0.7265112391
 H         -4.8217269943        1.5738074899       -0.9836419270
 C         -2.7307218465        1.2107857075       -0.3342491340
 C         -3.6538159314       -3.2828926456       -0.1332879856
 C         -4.6153388790       -3.2227094887        0.8794345793
 C         -5.7137681887       -4.0644904548        0.8869838832
 C         -5.8688624492       -4.9893917452       -0.1305248459
 H         -6.7324552803       -5.6305538898       -0.1440266297
 C         -4.9248507152       -5.0867785364       -1.1381581985
 C         -3.8267247900       -4.2419200484       -1.1312739868
 N          0.1060855918        2.0374518131       -0.0689278711
 N          2.0029296697       -0.1012357619       -0.1265104405
 C         -2.2785726728        2.5427624526       -0.0973860888
 C         -0.9578782372        2.8881699088        0.0872059197
 C         -0.4719821037        4.2062559450        0.4179858057
 H         -1.0982080906        5.0503897098        0.6321742980
 C          0.8779022788        4.1421834435        0.4109930857
 H          1.5834411017        4.9225837352        0.6208999393
 C          1.2310112877        2.7844011162        0.0803006942
 C          2.5274499173        2.3148906001       -0.1232580558
 C          2.8484705433        0.9588633423       -0.3301589715
 C          4.1210002902        0.4843869471       -0.7378451330
 H          4.9632425868        1.0967257672       -0.9899933347
 C          4.0485230539       -0.8859155208       -0.7481789050
 H          4.8194340700       -1.5840051577       -1.0083067076
 C          2.7358529550       -1.2242575585       -0.3436684128
 C          3.6368976130        3.2841301706       -0.1445347074
 C          4.6755599099        3.2121380599        0.7902663483
 C          5.7371183169        4.0993813212        0.7601087061
 C          5.7738694093        5.0885888067       -0.2068294962
 H          6.6005666905        5.7821653972       -0.2280031212
 C          4.7569657408        5.1953677875       -1.1392480184
 C          3.7052160935        4.2966134836       -1.1037105341
 Fe         0.0014684463       -0.0206081773        0.2592535587
 C         -3.3137377284        3.5913708499       -0.0709083394
 C         -4.3344723503        3.5703873154        0.8839315708
 C         -3.3386418208        4.6171473358       -1.0199215216
 C         -5.3475242489        4.5156880860        0.8832327905
 C         -4.3400509797        5.5730193605       -1.0251575801
 H         -6.1237389630        4.4648679394        1.6294440813
 C         -5.3463331081        5.5138902014       -0.0757718028
 H         -4.3315697756        6.3461888170       -1.7771871114
 H         -6.1345896825        6.2501010457       -0.0834422067
 C          3.3382874703       -3.5914100184       -0.0497237451
 C          4.2766908626       -3.5517111462        0.9843674238
 C          3.4605150401       -4.6102844589       -0.9974008359
 C          5.3008479882       -4.4800056919        1.0672718976
 C          4.4831524642       -5.5418146740       -0.9274706727
 H          6.0076548304       -4.4221438668        1.8785320595
 C          5.4006795746       -5.4711899924        0.1069449038
 H          4.5553850046       -6.3106051422       -1.6790776632
 H          6.2018208992       -6.1926912474        0.1628764614
 H         -6.4382418768       -3.9855713210        1.6806906647
 H         -5.0364335125       -5.8063920385       -1.9324643630
 H          6.5227889774        4.0137951350        1.4931916962
 H          4.7712792383        5.9703712028       -1.8898328433
 Cl         4.1328875991       -2.3279213361        2.1956577146
 Cl         2.3375267097       -4.6819612793       -2.3089822811
 Cl        -4.3125014229        2.3492306922        2.1046781394
 Cl        -2.1152437298        4.6745245518       -2.2418180850
 Cl         4.6023470428        2.0236237408        2.0402208901
 Cl         2.4563975204        4.4170692683       -2.2972830170
 Cl        -4.4042887890       -2.0860876856        2.1667527727
 Cl        -2.6733090009       -4.3381843541       -2.4135332839
 Cl        -0.0031187541       -0.0507409029        2.3938908106
  78
       -160.31471467
 N         -0.1096397504       -2.0487283405       -0.2577119951
 N         -2.0314758880        0.0926953644       -0.0771934785
 C          2.2787689873       -2.5498929220       -0.2140267582
 C          0.9511811020       -2.9174763157       -0.2020017775
 C          0.4643518076       -4.2702744198       -0.1109979888
 H          1.0832648213       -5.1442959350       -0.0453093275
 C         -0.8853619717       -4.2050101007       -0.1255840977
 H         -1.5933836241       -5.0084489291       -0.0681988377
 C         -1.2360539918       -2.8099533020       -0.2043814357
 C         -2.5397155091       -2.3265342941       -0.1940546584
 C         -2.8955175075       -0.9643851640       -0.1920495013
 C         -4.2239475498       -0.4926972632       -0.3317155221
 H         -5.0923878306       -1.1104945995       -0.4553763346
 C         -4.1607620140        0.8786350306       -0.3031065255
 H         -4.9708812185        1.5757394848       -0.3857787453
 C         -2.7977625184        1.2184998462       -0.1353497005
 C         -3.6411474601       -3.3109971593       -0.1360177032
 C         -4.3639311839       -3.4886065123        1.0449187418
 C         -5.3865047155       -4.4201155664        1.1331241869
 C         -5.7047248735       -5.1872370507        0.0264239886
 H         -6.4979946650       -5.9140381731        0.0878433946
 C         -5.0089452990       -5.0308333390       -1.1611857143
 C         -3.9846127663       -4.1015870632       -1.2324974625
 N          0.0787390230        2.0479431295       -0.0703661575
 N          1.9900254175       -0.0839287265       -0.1282243575
 C         -2.3157662653        2.5540169301       -0.0573827077
 C         -0.9841432559        2.9083103521        0.0024466467
 C         -0.5029294120        4.2591816928        0.1454348557
 H         -1.1336487333        5.1217683621        0.2418775993
 C          0.8470393354        4.1971645024        0.1473030504
 H          1.5481722018        5.0022123859        0.2499269622
 C          1.2029772470        2.8113627457       -0.0052156601
 C          2.5067505466        2.3354217207       -0.1035119385
 C          2.8488266275        0.9749095969       -0.2458820285
 C          4.1556670613        0.5086952141       -0.5390626119
 H          5.0147164570        1.1280801306       -0.7071124654
 C          4.0866565387       -0.8626042609       -0.5713509279
 H          4.8795733830       -1.5567918951       -0.7749886434
 C          2.7436063737       -1.2060968169       -0.3000217118
 C          3.6256218651        3.2977492444       -0.0841077495
 C          4.5482880034        3.2938471790        0.9657445755
 C          5.6342220681        4.1547058739        0.9772300478
 C          5.8151442643        5.0404799984       -0.0720313880
 H          6.6679585766        5.7039128001       -0.0768884281
 C          4.9132432957        5.0758817639       -1.1220473636
 C          3.8296364604        4.2107232497       -1.1187768611
 Fe        -0.0170159325       -0.0175354268        0.2305363851
 C         -3.3270921609        3.6320488306       -0.0966737961
 C         -4.1729702873        3.8747559968        0.9881509854
 C         -3.4760364189        4.4307619130       -1.2295202781
 C         -5.1330148027        4.8711829145        0.9401047995
 C         -4.4404031317        5.4253093236       -1.2945193221
 H         -5.7706055712        5.0440757743        1.7939240447
 C         -5.2649303203        5.6400028855       -0.2053805628
 H         -4.5371731302        6.0135552049       -2.1926714655
 H         -6.0185138227        6.4117197462       -0.2464797521
 C          3.3243266076       -3.5829248789       -0.0821531736
 C          4.1073589461       -3.6307938690        1.0751914241
 C          3.5922993231       -4.5175449465       -1.0825741663
 C          5.1106757713       -4.5720049461        1.2322200476
 C          4.5967747439       -5.4608417416       -0.9407612667
 H          5.6903322682       -4.5829963881        2.1410148091
 C          5.3523840806       -5.4850126039        0.2194209961
 H          4.7857826035       -6.1649330659       -1.7349653714
 H          6.1354118875       -6.2178460467        0.3351877066
 H         -5.9132554864       -4.5434814863        2.0665452507
 H         -5.2479726430       -5.6278304498       -2.0257017718
 H          6.3310499466        4.1235700772        1.7993681082
 H          5.0482383339        5.7577357521       -1.9454945791
 Cl         3.7858342868       -2.4967443681        2.3397442802
 Cl         2.6729216500       -4.4684996175       -2.5452487239
 Cl        -3.9855146966        2.9162188224        2.4138198847
 Cl        -2.4502421292        4.1519965108       -2.5923054338
 Cl         4.3129185265        2.2021091293        2.2845395590
 Cl         2.7269525708        4.2296375649       -2.4524840745
 Cl        -3.9411283709       -2.5428153708        2.4267838777
 Cl        -3.1131763552       -3.8925114053       -2.7112165263
 Cl         0.0048737598       -0.1430734215        2.3641328518
  78
       -160.31468791
 N         -0.0565690090       -2.0502912483       -0.0490929263
 N         -1.9813881729        0.0678099211       -0.1128401320
 C          2.3408107377       -2.5187094973       -0.1576428598
 C          1.0087961825       -2.8913735233        0.0005075471
 C          0.5602979408       -4.2369630921        0.2429158585
 H          1.2068670921       -5.0860584231        0.3447995974
 C         -0.7868388613       -4.1911720924        0.3463356382
 H         -1.4628785401       -4.9968329813        0.5544168987
 C         -1.1761096793       -2.8222262786        0.1166854808
 C         -2.4706531549       -2.3636368782       -0.0074961316
 C         -2.8094906208       -1.0009898618       -0.2669613682
 C         -4.0861491327       -0.5740751269       -0.6910854054
 H         -4.9132879301       -1.2166904254       -0.9259843912
 C         -4.0417921501        0.7962459183       -0.7605782978
 H         -4.8254412718        1.4667059038       -1.0483379084
 C         -2.7343249394        1.1800860293       -0.3751708491
 C         -3.6006376232       -3.3022028548        0.1027606526
 C         -4.5613546696       -3.1297978964        1.1051026119
 C         -5.6611274390       -3.9659056850        1.2078515616
 C         -5.8170880266       -4.9999075397        0.3034688441
 H         -6.6733378537       -5.6526992462        0.3783366451
 C         -4.8785520755       -5.2058918532       -0.6946353992
 C         -3.7888664607       -4.3572824561       -0.7929751857
 N          0.0908563847        2.0527749224       -0.1248449915
 N          2.0299231680       -0.0699707503       -0.0446115362
 C         -2.3041435268        2.5169660575       -0.2507884169
 C         -0.9756736775        2.8968390003       -0.0804437838
 C         -0.5226983642        4.2454771262        0.1437023544
 H         -1.1655949770        5.0980264591        0.2524532682
 C          0.8263928707        4.2016592162        0.2121488401
 H          1.5066526809        5.0114349252        0.3785444601
 C          1.2123053990        2.8247688620        0.0277971222
 C          2.5105242456        2.3619288133       -0.0038805576
 C          2.8771409193        0.9913576496       -0.1381156784
 C          4.1952734289        0.5486250863       -0.3976207522
 H          5.0525235808        1.1787456437       -0.5311400227
 C          4.1480965528       -0.8219524957       -0.4499253116
 H          4.9578842080       -1.5009282983       -0.6323131528
 C          2.7994292098       -1.1916788900       -0.2195453718
 C          3.6192212159        3.3333716171        0.0668535957
 C          4.4882775437        3.3477037849        1.1612648326
 C          5.5558790411        4.2272735914        1.2250926863
 C          5.7733725241        5.1092123343        0.1807998385
 H          6.6076713511        5.7873589509        0.2215375089
 C          4.9277022706        5.1247527647       -0.9147877105
 C          3.8599464728        4.2445870791       -0.9624357989
 Fe         0.0172012632        0.0087149544        0.2913546660
 C         -3.3445505240        3.5603920198       -0.2948336581
 C         -4.3430946425        3.6163629768        0.6815623965
 C         -3.3879555108        4.5127310203       -1.3152870436
 C         -5.3374685002        4.5786377950        0.6426439038
 C         -4.3744284184        5.4844297858       -1.3611243613
 H         -6.0953966617        4.5941987962        1.4079095182
 C         -5.3492265524        5.5110703546       -0.3813404623
 H         -4.3765102458        6.2006501920       -2.1671348446
 H         -6.1230716135        6.2621431848       -0.4133723212
 C          3.3382635707       -3.6017097601       -0.2908905182
 C          4.2341326976       -3.9057495717        0.7332240475
 C          3.4018310595       -4.3602002637       -1.4597875367
 C          5.1500124705       -4.9370579279        0.6048881771
 C          4.3214340496       -5.3876266297       -1.6080968575
 H          5.8217526394       -5.1592882123        1.4178916280
 C          5.1909937236       -5.6713858413       -0.5700057586
 H          4.3499969058       -5.9545315417       -2.5260462260
 H          5.9036884103       -6.4780101206       -0.6709993997
 H         -6.3844131697       -3.7962038703        1.9894891515
 H         -4.9938251574       -6.0067026609       -1.4061727662
 H          6.2062406026        4.2138265162        2.0847169922
 H          5.0915898883        5.8056921375       -1.7328994362
 Cl         4.1655395185       -2.9897045556        2.1949302885
 Cl         2.3125987051       -3.9987965636       -2.7493511254
 Cl        -4.3135046168        2.4817211439        1.9831034557
 Cl        -2.2039861613        4.4565113672       -2.5717803228
 Cl         4.1954465768        2.2550694961        2.4647981296
 Cl         2.8253960023        4.2454901751       -2.3479165282
 Cl        -4.3529836359       -1.8604693437        2.2567999499
 Cl        -2.6617327644       -4.5876329508       -2.0884238284
 Cl        -0.0137134794        0.0660256617        2.4248587004
  78
       -160.31462862
 N         -0.0792958782       -2.0641942753       -0.0788291385
 N         -1.9968810519        0.0773955432       -0.0937442172
 C          2.3109264592       -2.5482306384       -0.1308327409
 C          0.9793777953       -2.9151508199        0.0205628490
 C          0.5065294405       -4.2558228425        0.2537885622
 H          1.1378975605       -5.1106291614        0.4007811452
 C         -0.8446691629       -4.2018691529        0.2620171222
 H         -1.5439735840       -5.0028960832        0.4063950539
 C         -1.2103482399       -2.8269035196        0.0379198592
 C         -2.5000342719       -2.3502792817       -0.0810971211
 C         -2.8355279164       -0.9821487752       -0.2701192771
 C         -4.1172417978       -0.5318047964       -0.6644533826
 H         -4.9578868466       -1.1580232524       -0.8880621176
 C         -4.0582263027        0.8387604834       -0.7037501978
 H         -4.8392835804        1.5213797883       -0.9797704643
 C         -2.7434484529        1.2008983460       -0.3214252042
 C         -3.6398948341       -3.2861003967       -0.0450573617
 C         -4.5699717160       -3.2244593019        0.9955261044
 C         -5.6950389387       -4.0314272421        1.0100867933
 C         -5.9111259062       -4.9145098086       -0.0355248911
 H         -6.7990494451       -5.5295879547       -0.0416970950
 C         -5.0017653108       -5.0101870369       -1.0742389075
 C         -3.8726871497       -4.2054496554       -1.0691597261
 N          0.0845314399        2.0411087840       -0.0477710922
 N          2.0046617590       -0.0916776657       -0.0778877158
 C         -2.3033862369        2.5328988123       -0.1427656737
 C         -0.9743746146        2.8914564606        0.0499201596
 C         -0.5052621897        4.2232554690        0.3295357422
 H         -1.1343113239        5.0771891370        0.4892702168
 C          0.8452703773        4.1663648906        0.3633104806
 H          1.5422123824        4.9604648109        0.5532943400
 C          1.2139651699        2.7990900067        0.0983063360
 C          2.5063152158        2.3336198952       -0.0557887027
 C          2.8423889780        0.9682359116       -0.2611353567
 C          4.1234493772        0.5158313818       -0.6616972599
 H          4.9563770344        1.1494121769       -0.9019118800
 C          4.0674925269       -0.8540566217       -0.6855046998
 H          4.8487359995       -1.5381859311       -0.9537394132
 C          2.7517355097       -1.2152570458       -0.3001160310
 C          3.6250560841        3.2927238699       -0.0504152569
 C          4.6333810707        3.2149705683        0.9155528085
 C          5.7171562859        4.0776066016        0.9034139608
 C          5.8084320202        5.0448840616       -0.0827165542
 H          6.6531407949        5.7162760544       -0.1023347828
 C          4.8241817988        5.1537267866       -1.0496914086
 C          3.7475682679        4.2820307586       -1.0291627851
 Fe         0.0018903512       -0.0139773389        0.3062514555
 C         -3.3381748045        3.5813739671       -0.1748986591
 C         -4.3783612688        3.5908774572        0.7605609442
 C         -3.3503737206        4.5762409161       -1.1549395832
 C         -5.3940211896        4.5311406290        0.7061487704
 C         -4.3529957771        5.5291965988       -1.2129503986
 H         -6.1859380493        4.4986251203        1.4360662970
 C         -5.3792441284        5.4975753999       -0.2830640944
 H         -4.3316368682        6.2780301827       -1.9878272979
 H         -6.1711240301        6.2263220073       -0.3368491912
 C          3.3548416335       -3.5893689915       -0.1280031769
 C          4.3483354772       -3.6006654066        0.8553179510
 C          3.4213413607       -4.5709965914       -1.1210008779
 C          5.3734342245       -4.5327423118        0.8420986758
 C          4.4327875856       -5.5148100212       -1.1384331139
 H          6.1257528465       -4.5051412256        1.6140868101
 C          5.4124667124       -5.4865006033       -0.1586665350
 H          4.4582271390       -6.2580863989       -1.9193916696
 H          6.2097708257       -6.2170057667       -0.1755733663
 H         -6.3928837593       -3.9587903244        1.8280303982
 H         -5.1695766442       -5.6927470627       -1.8932962328
 H          6.4817466256        3.9874800989        1.6576007685
 H          4.8839602106        5.9000125911       -1.8247638689
 Cl         4.2799918787       -2.4353233669        2.1294142779
 Cl         2.2353370027       -4.5801172104       -2.3809844840
 Cl        -4.3826840090        2.4197497250        2.0311795996
 Cl        -2.1072724708        4.5940451507       -2.3600690503
 Cl         4.5100422761        2.0294522179        2.1639516440
 Cl         2.5536138890        4.3919679044       -2.2756915767
 Cl        -4.2858225367       -2.1216086892        2.2977229186
 Cl        -2.7546324346       -4.3038910468       -2.3821240036
 Cl        -0.0062620531       -0.0330071732        2.4400796914
  78
       -160.31458291
 N         -0.0800369531       -2.0641732845       -0.1708382378
 N         -2.0094269747        0.0824595627       -0.1012445855
 C          2.3146981879       -2.5425446005       -0.1915622186
 C          0.9779958078       -2.9147288271       -0.0994538981
 C          0.5108112109       -4.2619572615        0.0892451049
 H          1.1447636477       -5.1213919463        0.1918451324
 C         -0.8394198311       -4.2088741145        0.1325731363
 H         -1.5306929440       -5.0152456988        0.2798559876
 C         -1.2098510810       -2.8270963060       -0.0515069358
 C         -2.5002015859       -2.3485133227       -0.1318579721
 C         -2.8440969431       -0.9759826961       -0.2975946647
 C         -4.1317673733       -0.5273565390       -0.6683256308
 H         -4.9667119137       -1.1584020028       -0.9048719497
 C         -4.0836041295        0.8452294283       -0.6768079927
 H         -4.8718663529        1.5293316621       -0.9228848128
 C         -2.7658136153        1.2098019698       -0.2995844496
 C         -3.6102738001       -3.3122643393       -0.0152146420
 C         -4.4484879734       -3.2872785554        1.1019649503
 C         -5.4561707222       -4.2239106269        1.2666794224
 C         -5.6469658311       -5.1973190519        0.2997285692
 H         -6.4254609466       -5.9338530308        0.4325857178
 C         -4.8483926340       -5.2344539570       -0.8298251595
 C         -3.8399298712       -4.2950807595       -0.9802115994
 N          0.0658591401        2.0361917845        0.0293423561
 N          1.9994881355       -0.0931947884       -0.0477159907
 C         -2.3208510953        2.5351824952       -0.1220393907
 C         -0.9906331594        2.8855759506        0.1110156890
 C         -0.5266037576        4.2152288426        0.4103193504
 H         -1.1605194653        5.0655803326        0.5716859724
 C          0.8237527240        4.1581672677        0.4618756594
 H          1.5173773548        4.9507502773        0.6695278377
 C          1.1942142766        2.7928210598        0.1925630466
 C          2.4870378891        2.3338592815        0.0402875647
 C          2.8421862073        0.9727354937       -0.1613040940
 C          4.1479292160        0.5363962581       -0.4859084272
 H          4.9947543937        1.1719857549       -0.6539477280
 C          4.1032910601       -0.8344543661       -0.5374211248
 H          4.9044823704       -1.5115462669       -0.7617038054
 C          2.7661580159       -1.2091964914       -0.2568319226
 C          3.5785253777        3.3266200998        0.0049958297
 C          4.5660179955        3.3665847483        0.9904825143
 C          5.6010249961        4.2873718804        0.9400769784
 C          5.6618321766        5.1895982810       -0.1081193436
 H          6.4681874403        5.9060590313       -0.1541859995
 C          4.6967784167        5.1770703643       -1.1003612600
 C          3.6669229920        4.2520104298       -1.0374333874
 Fe        -0.0115238259       -0.0315708274        0.3006758655
 C         -3.3040612370        3.6293431703       -0.2243034803
 C         -4.3607688240        3.7611644677        0.6803655578
 C         -3.1946646456        4.5977201791       -1.2286258692
 C         -5.2610996623        4.8108759111        0.5930757929
 C         -4.0851937105        5.6538996771       -1.3235495974
 H         -6.0623442411        4.8868316036        1.3110690983
 C         -5.1169929748        5.7582593709       -0.4073300942
 H         -3.9650554932        6.3820794317       -2.1107781424
 H         -5.8132158336        6.5811093038       -0.4707285650
 C          3.3358751943       -3.6095027609       -0.2120713239
 C          4.2003476608       -3.7900868824        0.8697806627
 C          3.4678898507       -4.4709524804       -1.3009401524
 C          5.1584868170       -4.7902610371        0.8653961175
 C          4.4290320739       -5.4680251949       -1.3224276249
 H          5.8054312442       -4.9133783938        1.7192528513
 C          5.2716334340       -5.6224727156       -0.2350183360
 H          4.5122463343       -6.1112197681       -2.1838696318
 H          6.0215474648       -6.3986029222       -0.2474029075
 H         -6.0765086611       -4.1940768689        2.1485899363
 H         -4.9992079627       -5.9836493233       -1.5909008112
 H          6.3456696139        4.2901842338        1.7216147454
 H          4.7323417647        5.8732929430       -1.9245160321
 Cl         4.0352126368       -2.7621756561        2.2445581681
 Cl         2.4204277317       -4.2672802736       -2.6601815153
 Cl        -4.5210134829        2.6118684658        1.9637989416
 Cl        -1.9328992183        4.4602412208       -2.4031761428
 Cl         4.4713635062        2.2537313084        2.3084780268
 Cl         2.4830812393        4.2207197933       -2.2978897070
 Cl        -4.1789149442       -2.0883280548        2.3149041955
 Cl        -2.8537307991       -4.3241841570       -2.3973656145
 Cl        -0.0533363968       -0.1642481356        2.4302518563
  78
       -160.31439438
 N         -0.0485959506       -2.0661181823       -0.0259511770
 N         -1.9916315922        0.0619646714       -0.0914084257
 C          2.3439484836       -2.5329845735       -0.0640486166
 C          1.0083420040       -2.9078106234        0.0905869365
 C          0.5416268230       -4.2517398929        0.3241381005
 H          1.1727994789       -5.1040585139        0.4814050397
 C         -0.8094176509       -4.2069382690        0.3132952144
 H         -1.5073132347       -5.0101951739        0.4539338951
 C         -1.1825061742       -2.8353027966        0.0742786267
 C         -2.4637381166       -2.3718696418       -0.0917978824
 C         -2.8105505348       -1.0050229897       -0.3017241812
 C         -4.0968858376       -0.5710629598       -0.6990377517
 H         -4.9202471520       -1.2103281123       -0.9529372264
 C         -4.0655716453        0.8012829121       -0.6972606626
 H         -4.8591793156        1.4726450138       -0.9595571970
 C         -2.7565598585        1.1791529234       -0.3013903542
 C         -3.6107062606       -3.3022893464       -0.0438222298
 C         -4.4665456514       -3.2879601115        1.0577308019
 C         -5.6081349578       -4.0724349549        1.0962154364
 C         -5.9095303032       -4.8823513950        0.0146960367
 H         -6.8062143786       -5.4820445821        0.0272607809
 C         -5.0712764013       -4.9297569462       -1.0865515149
 C         -3.9294458955       -4.1452769601       -1.1072020151
 N          0.0670422286        2.0406582271       -0.0449048313
 N          2.0104587367       -0.0817846599       -0.0320466256
 C         -2.3264347220        2.5080364718       -0.1332093510
 C         -0.9949850772        2.8801523635        0.0444699781
 C         -0.5403556979        4.2255139751        0.2865988606
 H         -1.1870368339        5.0694826863        0.4277740772
 C          0.8104401883        4.1848231908        0.3110425764
 H          1.5001536059        4.9896361315        0.4743905109
 C          1.1946549920        2.8143181363        0.0762729818
 C          2.4837063553        2.3545244539       -0.0591763991
 C          2.8345538863        0.9835479844       -0.2388829548
 C          4.1245565266        0.5429725203       -0.6173376098
 H          4.9480638763        1.1838701031       -0.8637268093
 C          4.0911913458       -0.8287103235       -0.6063344295
 H          4.8806857474       -1.5100890535       -0.8530956632
 C          2.7756694855       -1.2022790206       -0.2246069698
 C          3.6023774258        3.3163719380       -0.0308753134
 C          4.5405428286        3.2816504217        1.0028475009
 C          5.6240978284        4.1437192782        1.0273309068
 C          5.7861473392        5.0613834108        0.0042225824
 H          6.6357627390        5.7262993446        0.0117251303
 C          4.8686778219        5.1299292777       -1.0298316661
 C          3.7851628201        4.2666264804       -1.0370930270
 Fe         0.0036737464       -0.0105045698        0.3305048539
 C         -3.3504923449        3.5671962035       -0.2022417437
 C         -4.3557633253        3.6698964922        0.7616026762
 C         -3.3656260285        4.4853804105       -1.2552663393
 C         -5.3266939455        4.6554811050        0.6886302314
 C         -4.3375652210        5.4670294020       -1.3469039729
 H         -6.0840134392        4.7161530099        1.4529996527
 C         -5.3153434045        5.5478742965       -0.3696534269
 H         -4.3288302104        6.1508247172       -2.1797492824
 H         -6.0755063393        6.3090360294       -0.4385864923
 C          3.3674702699       -3.5924643649       -0.1371146342
 C          4.3943476631       -3.6914724378        0.8054324605
 C          3.3581749991       -4.5255139044       -1.1785819907
 C          5.3673524820       -4.6743277117        0.7164509946
 C          4.3239096468       -5.5113375330       -1.2786343932
 H          6.1456447185       -4.7223780574        1.4613039636
 C          5.3280455198       -5.5819926744       -0.3270707242
 H          4.2897283092       -6.2109720106       -2.0982911109
 H          6.0835979924       -6.3458619983       -0.4068246241
 H         -6.2460662408       -4.0327061042        1.9618750954
 H         -5.3058354972       -5.5546899771       -1.9343965487
 H          6.3285569049        4.0895646678        1.8407932104
 H          4.9864338981        5.8424330029       -1.8303304937
 Cl         4.4353050673       -2.5754830525        2.1224854017
 Cl         2.1398497276       -4.4146239362       -2.3991140738
 Cl        -4.3661614454        2.5587120006        2.0840349147
 Cl        -2.1626941856        4.3657522148       -2.4904569537
 Cl         4.3178485940        2.1466125031        2.2841952971
 Cl         2.6584948825        4.3387762740       -2.3465561227
 Cl        -4.0732227994       -2.2642071237        2.3894494845
 Cl        -2.8883700318       -4.1774536019       -2.4849693194
 Cl        -0.0245100539       -0.0069102674        2.4633650443
  78
       -160.31437730
 N         -0.0735892137       -2.0279137408        0.0151632662
 N         -2.0106567590        0.0817267354        0.0725060372
 C          2.3488389567       -2.4877020718        0.0322991757
 C          0.9914126803       -2.8552121726       -0.1613562673
 C          0.5500439710       -4.1433268211       -0.5565617573
 H          1.1886962152       -4.9727476768       -0.7917036173
 C         -0.8194525173       -4.0970316051       -0.5893278076
 H         -1.5005750823       -4.8816616225       -0.8538424941
 C         -1.1908574817       -2.7784512723       -0.2116288011
 C         -2.5142415966       -2.3167108570       -0.0741620115
 C         -2.8630293963       -0.9832682559        0.1342853171
 C         -4.2037141206       -0.5210282699        0.3629803393
 H         -5.0574061354       -1.1546336673        0.5020274859
 C         -4.1574940892        0.8320636732        0.3864807161
 H         -4.9680578340        1.5181067668        0.5385018424
 C         -2.7878023607        1.2079685211        0.1664643329
 C         -3.5995245997       -3.3051294249       -0.2186082175
 C         -3.7561902692       -4.3600136340        0.6849218546
 C         -4.7668904738       -5.2957397261        0.5352369051
 C         -5.6443269511       -5.1865180199       -0.5303255556
 H         -6.4349275343       -5.9110854192       -0.6502374521
 C         -5.5158738066       -4.1546811609       -1.4433249344
 C         -4.4991173104       -3.2271286388       -1.2857747630
 N          0.0760100650        2.0526465108       -0.0026001259
 N          2.0109410699       -0.0633226319        0.1036787718
 C         -2.3470136659        2.5104363917        0.0050542457
 C         -0.9887541049        2.8841436649       -0.1633585055
 C         -0.5420088437        4.1879530489       -0.5028619304
 H         -1.1765907075        5.0282646037       -0.7058783505
 C          0.8274842767        4.1432458960       -0.5191236424
 H          1.5109773669        4.9401928521       -0.7376406914
 C          1.1956361604        2.8087828332       -0.1930119127
 C          2.5145601090        2.3376546668       -0.0720284445
 C          2.8627246626        1.0042293353        0.1377382053
 C          4.2066498985        0.5450780416        0.3482510634
 H          5.0622354551        1.1851040711        0.4519829797
 C          4.1627835214       -0.8075583806        0.3992295912
 H          4.9765970991       -1.4907306113        0.5513613940
 C          2.7902122473       -1.1870025560        0.2023320640
 C          3.6185225083        3.3066577889       -0.2324182596
 C          3.8574498995        4.3158323467        0.7018319108
 C          4.9147391320        5.1982808514        0.5537209010
 C          5.7521077617        5.0869427792       -0.5440357021
 H          6.5790456390        5.7698860433       -0.6564796073
 C          5.5349114444        4.1029449015       -1.4923363374
 C          4.4761579959        3.2260553917       -1.3320745220
 Fe        -0.0019850819        0.0142263020        0.4349621811
 C         -3.3554524907        3.5861325954       -0.0466024750
 C         -3.4091519680        4.5733304684        0.9389460713
 C         -4.2807672172        3.6617844059       -1.0905886092
 C         -4.3473763335        5.5917780778        0.8915529718
 C         -5.2239843931        4.6735246519       -1.1495317615
 H         -4.3649294755        6.3375841196        1.6702057986
 C         -5.2523415149        5.6359964510       -0.1549680661
 H         -5.9216047107        4.7044354343       -1.9703287296
 H         -5.9846374545        6.4271909282       -0.1943049756
 C          3.3410492331       -3.5776423515       -0.0062509627
 C          3.3414853866       -4.5847689225        0.9625415532
 C          4.2863983184       -3.6677873931       -1.0301036492
 C          4.2429793838       -5.6345406759        0.9163313562
 C          5.1977364971       -4.7078839772       -1.0854193181
 H          4.2134860736       -6.3973132415        1.6764821268
 C          5.1707811336       -5.6902285825       -0.1098119699
 H          5.9127529348       -4.7470185660       -1.8886974878
 H          5.8755685785       -6.5061539230       -0.1505104620
 H         -4.8623570018       -6.0947955081        1.2528156982
 H         -6.1915690342       -4.0661177695       -2.2787251176
 H          5.0761761975        5.9625140559        1.2985237818
 H          6.1783076307        4.0102671236       -2.3532163564
 Cl         2.1965063797       -4.5022546594        2.2536217080
 Cl         4.2954577044       -2.4735660703       -2.2813288992
 Cl        -2.2956796252        4.4923459200        2.2551827495
 Cl        -4.2281470119        2.4832474300       -2.3534942547
 Cl         2.8257645257        4.4340138207        2.0847731871
 Cl         4.1954406408        2.0133515276       -2.5322973334
 Cl        -2.6860021885       -4.4764935426        2.0350983140
 Cl        -4.3126175911       -1.9749288542       -2.4595690168
 Cl        -0.0322427196        0.0247841334        2.5688804520
  78
       -160.31437429
 N         -0.0847242860       -2.0358452994       -0.0888891263
 N         -2.0257599573        0.0865224880       -0.0788419829
 C          2.3098407107       -2.5142211032       -0.1700532300
 C          0.9743818826       -2.8806702998        0.0034389154
 C          0.5123879296       -4.2174161720        0.2764478931
 H          1.1477351922       -5.0668799707        0.4384936518
 C         -0.8383188258       -4.1671466573        0.3172514323
 H         -1.5258203223       -4.9677117577        0.5110523894
 C         -1.2121342912       -2.7972576305        0.0626315644
 C         -2.5079696634       -2.3400465402       -0.0580344411
 C         -2.8696659835       -0.9760004210       -0.2193227268
 C         -4.1783192883       -0.5295935154       -0.5209336511
 H         -5.0216742031       -1.1678401794       -0.6954795344
 C         -4.1308059365        0.8421034239       -0.5436282001
 H         -4.9345198243        1.5233581445       -0.7385786744
 C         -2.7909741049        1.2098894076       -0.2561996658
 C         -3.5805817903       -3.3557782988       -0.0350736782
 C         -4.4626070590       -3.4521930187        1.0413481900
 C         -5.4229331754       -4.4501661418        1.1000182748
 C         -5.5187453842       -5.3641047379        0.0653986007
 H         -6.2595006175       -6.1474350721        0.1065894058
 C         -4.6659397972       -5.2877910888       -1.0225709323
 C         -3.7063015836       -4.2898696703       -1.0654614647
 N          0.0575926024        2.0674760972       -0.0505134792
 N          1.9888425835       -0.0616036155       -0.0580188862
 C         -2.3379207898        2.5393287749       -0.1600603273
 C         -1.0044035775        2.9118804460       -0.0042632808
 C         -0.5478804394        4.2609640769        0.2074111314
 H         -1.1871859539        5.1160494655        0.3103709355
 C          0.8019779166        4.2131240540        0.2744961205
 H          1.4825291475        5.0254251367        0.4384583810
 C          1.1821453489        2.8359147768        0.0855304605
 C          2.4772725311        2.3713755548       -0.0049942088
 C          2.8300842342        1.0051746459       -0.1878927972
 C          4.1276855512        0.5677019651       -0.5418291412
 H          4.9691036442        1.2079234979       -0.7240680700
 C          4.0784968784       -0.8029392782       -0.6051290280
 H          4.8758986986       -1.4717540670       -0.8609389443
 C          2.7503234036       -1.1806589526       -0.2822239392
 C          3.5860452613        3.3448232344        0.0302963880
 C          4.5000922956        3.3524952366        1.0866642035
 C          5.5571537450        4.2468081585        1.1239574091
 C          5.7155832454        5.1544236267        0.0904524699
 H          6.5355809979        5.8545992724        0.1094131376
 C          4.8291621588        5.1694747980       -0.9729513567
 C          3.7752443762        4.2715691015       -0.9967458359
 Fe        -0.0195980105        0.0123229711        0.2984956348
 C         -3.3241867283        3.6367806746       -0.2401807303
 C         -4.2269024887        3.8863446466        0.7934731441
 C         -3.3426764646        4.4989912181       -1.3385050523
 C         -5.0971770101        4.9649077703        0.7473567436
 C         -4.2132989877        5.5737415818       -1.4033178050
 H         -5.7699324067        5.1405610700        1.5711679339
 C         -5.0830927515        5.8063622380       -0.3508201149
 H         -4.2025345163        6.2188084987       -2.2649089485
 H         -5.7541544841        6.6505906154       -0.3896547585
 C          3.3007292890       -3.6029466547       -0.2230079626
 C          4.3039339041       -3.7336748066        0.7426112739
 C          3.2381629549       -4.5857392445       -1.2170045602
 C          5.1892530409       -4.7992607346        0.7271535577
 C          4.1129365740       -5.6579201476       -1.2390860096
 H          5.9420285569       -4.8717920108        1.4953625713
 C          5.0856526973       -5.7644434556       -0.2592674321
 H          4.0268748276       -6.4030074225       -2.0144499002
 H          5.7629984447       -6.6041430247       -0.2685624650
 H         -6.0787893014       -4.5089899681        1.9531343150
 H         -4.7365368336       -5.9943199281       -1.8338733816
 H          6.2426007083        4.2282220897        1.9552835809
 H          4.9550064116        5.8682756813       -1.7846635350
 Cl         4.4103236894       -2.5704538645        2.0142633804
 Cl         2.0539354258       -4.4464782127       -2.4682822860
 Cl        -4.2226015555        2.8471055603        2.1728559596
 Cl        -2.2574720121        4.2037188624       -2.6503068699
 Cl         4.2756574319        2.2299690109        2.3798196052
 Cl         2.6896578282        4.2727953483       -2.3401800133
 Cl        -4.3105349729       -2.3251835385        2.3398382764
 Cl        -2.6436373683       -4.1903025251       -2.4245559338
 Cl        -0.0120340584       -0.0233831387        2.4340981718
  78
       -160.31436420
 N         -0.0682662260       -2.0635774764       -0.1652859362
 N         -2.0139261901        0.0533486909       -0.1095281450
 C          2.3313060023       -2.5092282792       -0.2333824034
 C          1.0035046781       -2.8946369780       -0.0702351616
 C          0.5595490114       -4.2396164902        0.1915307177
 H          1.2165651274       -5.0755094147        0.3301381330
 C         -0.7902165180       -4.2047494227        0.2450638855
 H         -1.4711387245       -5.0084599899        0.4433775671
 C         -1.1871429102       -2.8392575139       -0.0079749205
 C         -2.4825018786       -2.3840770559       -0.1129485249
 C         -2.8306109396       -1.0109992100       -0.3284603616
 C         -4.1106061749       -0.5744148618       -0.7409388124
 H         -4.9315980848       -1.2098151599       -1.0121353235
 C         -4.0809600926        0.7991846947       -0.7313786476
 H         -4.8726223518        1.4768242385       -0.9853139694
 C         -2.7765385819        1.1763854003       -0.3235165477
 C         -3.6126099244       -3.3138954315        0.0442471010
 C         -4.5236591293       -3.1279832812        1.0910500951
 C         -5.6151994188       -3.9603382391        1.2599813685
 C         -5.8151554113       -5.0099952961        0.3788079368
 H         -6.6629498315       -5.6624848413        0.5089380546
 C         -4.9321300193       -5.2236112457       -0.6652900883
 C         -3.8433424820       -4.3817865953       -0.8263287320
 N          0.0466881701        2.0402432027       -0.0368396610
 N          1.9904488175       -0.0661721904       -0.1329684676
 C         -2.3471062589        2.5006240906       -0.1413055058
 C         -1.0222030685        2.8714578648        0.0808881364
 C         -0.5764333940        4.2079529328        0.3746133257
 H         -1.2262422464        5.0427616660        0.5517419011
 C          0.7751962150        4.1719716201        0.4090260287
 H          1.4552028162        4.9762617994        0.6120841351
 C          1.1663390755        2.8139664351        0.1196607629
 C          2.4586782040        2.3661029119       -0.0379974308
 C          2.8108571537        1.0056029568       -0.2915563582
 C          4.0995598780        0.5851477313       -0.6969847684
 H          4.9229117516        1.2349976607       -0.9224504698
 C          4.0703202308       -0.7866730811       -0.7406145182
 H          4.8652223314       -1.4475171190       -1.0200361633
 C          2.7579793893       -1.1782565735       -0.3751618133
 C          3.5827110739        3.3135089888        0.0623891697
 C          4.5115324426        3.1950512903        1.0996959032
 C          5.5989846984        4.0454563806        1.1993268746
 C          5.7790003531        5.0322749751        0.2449231334
 H          6.6287438070        5.6931173420        0.3099889706
 C          4.8784411869        5.1750788702       -0.7967396857
 C          3.7893284830        4.3231860248       -0.8789157089
 Fe        -0.0098597069       -0.0232160218        0.2685136939
 C         -3.3479529031        3.5835694621       -0.2458780792
 C         -4.3125209137        3.7945470337        0.7399903309
 C         -3.3368998276        4.4464448503       -1.3431905678
 C         -5.2155405181        4.8412157614        0.6489072928
 C         -4.2407637427        5.4892089836       -1.4544343297
 H         -5.9404382160        4.9972215024        1.4290321054
 C         -5.1733838196        5.6842211313       -0.4499688526
 H         -4.2098989216        6.1365003157       -2.3155270016
 H         -5.8756585792        6.4993373904       -0.5203245545
 C          3.3710086586       -3.5583554930       -0.2649126326
 C          4.2758581624       -3.7041715585        0.7877876414
 C          3.4807715149       -4.4337835855       -1.3445146653
 C          5.2358689328       -4.7024318288        0.7758368563
 C          4.4445588532       -5.4282208102       -1.3757862739
 H          5.9124302680       -4.8022211320        1.6089745089
 C          5.3134576273       -5.5623419350       -0.3070943888
 H          4.5092154241       -6.0824718464       -2.2290400054
 H          6.0569949944       -6.3421455873       -0.3164583688
 H         -6.2957597836       -3.7844947789        2.0771798154
 H         -5.0855069308       -6.0329640965       -1.3598038015
 H          6.2920839697        3.9277113232        2.0159816840
 H          5.0205451752        5.9348189114       -1.5477181450
 Cl         4.1643845671       -2.6310946639        2.1385846350
 Cl         2.3985911647       -4.2464104078       -2.6770359803
 Cl        -4.3480286920        2.7389294010        2.1060027916
 Cl        -2.1747836872        4.1838757886       -2.5941579199
 Cl         4.2666282790        1.9678123145        2.2924083160
 Cl         2.6836703742        4.4861653898       -2.1961488498
 Cl        -4.2505776503       -1.8479889017        2.2195093168
 Cl        -2.7795143346       -4.6373821649       -2.1644289212
 Cl         0.0230964125       -0.1097110800        2.3992172405
  78
       -160.31430028
 N         -0.0779530211       -2.0588378160       -0.2880048851
 N         -2.0123875451        0.0654715367       -0.2480566879
 C          2.3208403449       -2.5268768408       -0.3500618551
 C          0.9828202643       -2.9075148273       -0.2783239131
 C          0.5229313113       -4.2651824103       -0.1297595125
 H          1.1596280039       -5.1275487586       -0.0891421239
 C         -0.8239962761       -4.2168310508       -0.0280888193
 H         -1.5140518781       -5.0284606334        0.0979048666
 C         -1.2021941189       -2.8302076602       -0.1344803315
 C         -2.4938731550       -2.3577909077       -0.1012814427
 C         -2.8637529837       -0.9945608194       -0.2794293809
 C         -4.1859525836       -0.5601970087       -0.5256975847
 H         -5.0446439033       -1.1968918529       -0.6117701463
 C         -4.1338020126        0.8072126350       -0.6445493205
 H         -4.9437459676        1.4809019949       -0.8454280286
 C         -2.7804968434        1.1820047573       -0.4470536335
 C         -3.5967945296       -3.2953395330        0.2043827111
 C         -4.1013201650       -3.3294753033        1.5049452347
 C         -5.1362016374       -4.1811925137        1.8523265043
 C         -5.6868788252       -5.0073971759        0.8873540550
 H         -6.4966810768       -5.6697164704        1.1509220578
 C         -5.2099032216       -4.9910042198       -0.4120476419
 C         -4.1678311772       -4.1390750999       -0.7428428523
 N          0.0747161592        2.0395212127       -0.1988209230
 N          2.0050085121       -0.0806143461       -0.1397885843
 C         -2.3198181393        2.5101239770       -0.3966431058
 C         -0.9912758772        2.8831181883       -0.2168534039
 C         -0.5537433280        4.2316515874        0.0310887347
 H         -1.2013989836        5.0855107956        0.0816353102
 C          0.7845999218        4.1833125147        0.2161739178
 H          1.4485480871        4.9907758827        0.4556189386
 C          1.1837625600        2.8092865211        0.0375720372
 C          2.4835698688        2.3462672182        0.0514464480
 C          2.8525502567        0.9846461066       -0.1598495563
 C          4.1712330359        0.5577300541       -0.4344296669
 H          5.0271468604        1.1968580999       -0.5296660368
 C          4.1244070892       -0.8093439498       -0.5614414279
 H          4.9351439421       -1.4760253595       -0.7814716825
 C          2.7751016702       -1.1921502847       -0.3586635509
 C          3.5812952702        3.3042948367        0.2706495765
 C          4.4014807962        3.1976538494        1.3977911911
 C          5.4318611465        4.0916018826        1.6324782465
 C          5.6599473580        5.1201786964        0.7348636264
 H          6.4578377558        5.8237818769        0.9162227575
 C          4.8733655456        5.2481323445       -0.3966352129
 C          3.8507137785        4.3422806685       -0.6241109416
 Fe        -0.0131005576       -0.0175339741        0.1465405589
 C         -3.3325591139        3.5844655663       -0.4719993153
 C         -4.2013527924        3.8261524400        0.5930514411
 C         -3.4462771895        4.3928149946       -1.6020300741
 C         -5.1485422262        4.8349697956        0.5341372175
 C         -4.3943664644        5.4002155118       -1.6777054790
 H         -5.8004806760        5.0036796483        1.3757182024
 C         -5.2418861203        5.6161776445       -0.6050694357
 H         -4.4630343147        6.0033122714       -2.5686097514
 H         -5.9800454400        6.4010887899       -0.6561544836
 C          3.3475337480       -3.5861534713       -0.3652130558
 C          4.2266184653       -3.7496637573        0.7090107418
 C          3.4797395734       -4.4611050323       -1.4449270426
 C          5.1950427058       -4.7405080678        0.7063391097
 C          4.4439342030       -5.4557906103       -1.4608102459
 H          5.8543711665       -4.8410188824        1.5533617948
 C          5.3002040271       -5.5908019470       -0.3811974577
 H          4.5199704685       -6.1109887811       -2.3135896359
 H          6.0543168733       -6.3631251590       -0.3879263533
 H         -5.5006387183       -4.1920832083        2.8665113630
 H         -5.6395457914       -5.6290509132       -1.1673531865
 H          6.0434424112        3.9802821096        2.5131883964
 H          5.0490063202        6.0402994194       -1.1072434912
 Cl         4.0758076372       -2.7119898867        2.0818555119
 Cl         2.4309459242       -4.2730625113       -2.8059673262
 Cl        -4.0608356392        2.8579339975        2.0158095064
 Cl        -2.3861753976        4.1103992112       -2.9350657221
 Cl         4.0938739980        1.9342751040        2.5379915964
 Cl         2.9160179254        4.4778200252       -2.0721584373
 Cl        -3.3893834546       -2.2869631973        2.6870779924
 Cl        -3.5634997611       -4.0987045603       -2.3615391105
 Cl        -0.0844026945       -0.0691985742        2.2783521940
  78
       -160.31423710
 N         -0.1023395685       -2.0432630744        0.0268904326
 N         -2.0274770189        0.0818883860        0.0161540151
 C          2.2891596249       -2.5316795926       -0.0788303888
 C          0.9580234636       -2.8925928056        0.1083658084
 C          0.4925904141       -4.2340766153        0.3419327112
 H          1.1296810770       -5.0847025483        0.4902349294
 C         -0.8584036877       -4.1839661910        0.3523583133
 H         -1.5537227725       -4.9866907962        0.5035688701
 C         -1.2294673147       -2.8079966217        0.1357250365
 C         -2.5271968197       -2.3460450237        0.0189564691
 C         -2.8817977915       -0.9735807150       -0.0936738270
 C         -4.1988222777       -0.5187020093       -0.3456323428
 H         -5.0585808631       -1.1416527092       -0.4936475570
 C         -4.1447564593        0.8519362607       -0.3702174028
 H         -4.9489436399        1.5403857149       -0.5399872428
 C         -2.7927804690        1.2100207117       -0.1448026281
 C         -3.6021522459       -3.3534252948       -0.0565961030
 C         -4.5708525313       -3.4862053856        0.9392890285
 C         -5.5438694348       -4.4719254367        0.8748402041
 C         -5.5643635698       -5.3449583928       -0.1994648709
 H         -6.3110896856       -6.1205468749       -0.2475586015
 C         -4.6312993545       -5.2250952466       -1.2153638164
 C         -3.6647458220       -4.2367672458       -1.1387063988
 N          0.0716104032        2.0562964095       -0.0834370696
 N          1.9869336642       -0.0766108968       -0.0569876160
 C         -2.3263380407        2.5357724630       -0.1079816702
 C         -0.9885446244        2.9057656728       -0.0212143291
 C         -0.5240659290        4.2563897377        0.1495174557
 H         -1.1584191624        5.1157127776        0.2455447242
 C          0.8262155353        4.2055344154        0.1921320329
 H          1.5146115311        5.0147303346        0.3377888316
 C          1.1999279600        2.8240626850        0.0128867348
 C          2.4929978236        2.3518432029       -0.0951282696
 C          2.8278828234        0.9758672498       -0.2541088826
 C          4.1140469432        0.5175016089       -0.6250819175
 H          4.9531324119        1.1395332108       -0.8664612335
 C          4.0601880584       -0.8537803071       -0.6191148512
 H          4.8443913463       -1.5453625292       -0.8580062738
 C          2.7392320870       -1.2087672724       -0.2477999984
 C          3.6029095746        3.3190352707       -0.0509070768
 C          4.5545659517        3.2713281277        0.9729827297
 C          5.5834366499        4.1952302019        1.0510181460
 C          5.6744879271        5.1948818012        0.1000879246
 H          6.4648217785        5.9259277203        0.1612654521
 C          4.7582709440        5.2614690389       -0.9363120810
 C          3.7416919817        4.3257813048       -1.0102022279
 Fe        -0.0128451926        0.0157996905        0.3451966537
 C         -3.3153919962        3.6294001026       -0.2079603904
 C         -4.1706480885        3.9455737396        0.8476358723
 C         -3.3914512324        4.4084771110       -1.3631880483
 C         -5.0538165606        5.0095645760        0.7640279464
 C         -4.2743699473        5.4696809252       -1.4631577018
 H         -5.6928437936        5.2406741671        1.6028264718
 C         -5.0999438565        5.7684262268       -0.3923974116
 H         -4.3111460119        6.0495782941       -2.3712265638
 H         -5.7888627949        6.6009848733       -0.4618059848
 C          3.2915157298       -3.6126331139       -0.1544997189
 C          4.2985255366       -3.7423208078        0.8047656923
 C          3.2660178435       -4.5452510128       -1.1935709331
 C          5.2377439647       -4.7590290123        0.7354344224
 C          4.1952692483       -5.5679647593       -1.2730162401
 H          5.9989185092       -4.8303098815        1.4950487053
 C          5.1793639028       -5.6705491203       -0.3046793119
 H          4.1413774333       -6.2713375641       -2.0827143003
 H          5.9064257165       -6.4653037689       -0.3685573814
 H         -6.2676025483       -4.5550619944        1.6689472603
 H         -4.6440395914       -5.8913086317       -2.0612603706
 H          6.2967057234        4.1308980614        1.8567097906
 H          4.8292153864        6.0322172919       -1.6850172441
 Cl         4.3500226412       -2.6254950213        2.1219274569
 Cl         2.0593325444       -4.4012803032       -2.4239106773
 Cl        -4.0888785947        3.0043776684        2.2925746530
 Cl        -2.3609123756        4.0261443222       -2.6965087747
 Cl         4.4170217757        2.0532625149        2.1853363612
 Cl         2.6440572406        4.3845802178       -2.3460207729
 Cl        -4.5203039446       -2.4208747432        2.2990209811
 Cl        -2.5183793616       -4.0824850395       -2.4250866241
 Cl         0.0468320057        0.0778565902        2.4760431031
  78
       -160.31421318
 N         -0.1019458832       -2.0726540391       -0.1535601988
 N         -1.9921848097        0.0918445561       -0.1418593475
 C          2.2759077701       -2.5830828012       -0.0711013475
 C          0.9499720913       -2.9330671019        0.0447611598
 C          0.4384816959       -4.2514510839        0.3344083384
 H          1.0436474567       -5.1062346773        0.5662857791
 C         -0.9085198848       -4.1783953073        0.2561923092
 H         -1.6271368927       -4.9601554124        0.4097454326
 C         -1.2381407452       -2.8100148222       -0.0546735871
 C         -2.5265288912       -2.3177512405       -0.2460113385
 C         -2.8345734588       -0.9532263261       -0.4134517560
 C         -4.0962608236       -0.4562048810       -0.8296461537
 H         -4.9322744417       -1.0543656423       -1.1354616159
 C         -4.0195797891        0.9127097910       -0.7740121587
 H         -4.7821687076        1.6240811453       -1.0251575412
 C         -2.7181733888        1.2279914740       -0.3180694123
 C         -3.6666156523       -3.2520341565       -0.2698544551
 C         -4.6736805482       -3.1704984133        0.6970255461
 C         -5.7839415161       -3.9965682805        0.6558782176
 C         -5.9069459301       -4.9240724682       -0.3649067859
 H         -6.7754098002       -5.5606610720       -0.4098568488
 C         -4.9208475615       -5.0399008900       -1.3287045399
 C         -3.8105968744       -4.2108898501       -1.2740574314
 N          0.1106622509        2.0285315942       -0.0752334043
 N          2.0001780891       -0.1204267979       -0.1538986658
 C         -2.2664415492        2.5501300777       -0.0197770694
 C         -0.9406992232        2.8829584124        0.1476921113
 C         -0.4292478793        4.1842309589        0.5023457942
 H         -1.0337244602        5.0273137556        0.7749392518
 C          0.9184465139        4.1109064563        0.4299303571
 H          1.6367782813        4.8815519373        0.6321213702
 C          1.2456642042        2.7609954729        0.0455180776
 C          2.5328905280        2.2882802083       -0.2183799837
 C          2.8381651680        0.9301071726       -0.4277114712
 C          4.0910066020        0.4362906505       -0.8750601485
 H          4.9188101275        1.0380678951       -1.1960573974
 C          4.0183238299       -0.9333476219       -0.8226887140
 H          4.7776679266       -1.6439254450       -1.0848958471
 C          2.7236581218       -1.2525825807       -0.3515175706
 C          3.6377134225        3.2585020041       -0.2825312849
 C          4.7328677087        3.1739544195        0.5841672936
 C          5.7824844031        4.0756169419        0.5150225911
 C          5.7490364793        5.0946890063       -0.4201839664
 H          6.5646266034        5.7988142156       -0.4742527984
 C          4.6751256339        5.2136919805       -1.2858306324
 C          3.6389175732        4.2993482207       -1.2162225537
 Fe         0.0043674393       -0.0286334594        0.2542255805
 C         -3.3086661143        3.5854832756        0.0791164871
 C         -4.3324604939        3.4769143209        1.0269893696
 C         -3.3533197833        4.6777957805       -0.7914139497
 C         -5.3588332551        4.4034768107        1.0957424939
 C         -4.3706948591        5.6151909050       -0.7265982615
 H         -6.1354858179        4.2823051000        1.8337109253
 C         -5.3749945929        5.4708156864        0.2146224031
 H         -4.3762160441        6.4417062465       -1.4187701951
 H         -6.1761170371        6.1920606670        0.2601589419
 C          3.3393269418       -3.5871580581        0.1021277574
 C          4.2824453267       -3.4315416887        1.1242171035
 C          3.4886225237       -4.6850082177       -0.7481309165
 C          5.3288886007       -4.3216825265        1.2879483440
 C          4.5306933791       -5.5848808105       -0.5917649709
 H          6.0384145758       -4.1671433950        2.0846545086
 C          5.4505454868       -5.3969694382        0.4244390236
 H          4.6203351532       -6.4175543274       -1.2707470476
 H          6.2686566078       -6.0898485140        0.5421818619
 H         -6.5418885576       -3.9074340054        1.4171907472
 H         -5.0086260418       -5.7591509531       -2.1262495894
 H          6.6126758147        3.9750867062        1.1953605610
 H          4.6399340463        6.0052828621       -2.0171133757
 Cl         4.1145776387       -2.1095113521        2.2239067875
 Cl         2.3856945264       -4.8998447743       -2.0621018632
 Cl        -4.2955150339        2.1704807579        2.1552230344
 Cl        -2.1453835075        4.8426510934       -2.0184833678
 Cl         4.7625587655        1.9471254457        1.7990184006
 Cl         2.3352784738        4.4283326426       -2.3457877138
 Cl        -4.5140013167       -2.0300406475        1.9836788063
 Cl        -2.6020606618       -4.3330508317       -2.5000754696
 Cl         0.0107643856       -0.0812444341        2.3869825786
  78
       -160.31420890
 N         -0.0892124197       -2.0494990459       -0.0443095540
 N         -2.0021768368        0.0820715887       -0.0594844791
 C          2.3004166162       -2.5358685636       -0.1506901538
 C          0.9709429678       -2.9050385385       -0.0189476300
 C          0.5029955895       -4.2573310327        0.1561778936
 H          1.1417686853       -5.1154427726        0.2246047820
 C         -0.8457201274       -4.2001186663        0.2247256664
 H         -1.5464620420       -4.9998269584        0.3601912253
 C         -1.2147294924       -2.8152027290        0.0813312834
 C         -2.5099286254       -2.3414063599       -0.0008243919
 C         -2.8510062595       -0.9805657595       -0.1903524707
 C         -4.1392854646       -0.5352565794       -0.5663019444
 H         -4.9857028222       -1.1654675299       -0.7572352749
 C         -4.0713537431        0.8335760795       -0.6553033201
 H         -4.8527191548        1.5106009336       -0.9421485916
 C         -2.7474674200        1.1988909413       -0.3089364122
 C         -3.6378264519       -3.2948205493        0.0428409081
 C         -4.4744571489       -3.3543252849        1.1578869195
 C         -5.5668355237       -4.2055362164        1.1941594077
 C         -5.8417857643       -5.0056456483        0.0986462192
 H         -6.6980364260       -5.6599851744        0.1160142301
 C         -5.0293946500       -4.9689216958       -1.0223990042
 C         -3.9347858563       -4.1210766727       -1.0400285790
 N          0.0892248739        2.0539355625       -0.0541275072
 N          2.0072413509       -0.0778681031       -0.0286471557
 C         -2.2991091339        2.5380990430       -0.1854572112
 C         -0.9724079267        2.9068062614       -0.0165019534
 C         -0.5072550441        4.2540920873        0.2024544037
 H         -1.1479454002        5.1081556648        0.2992385063
 C          0.8422061908        4.1998677788        0.2643980364
 H          1.5398516102        4.9993265855        0.4208675566
 C          1.2137417314        2.8200961818        0.0900417973
 C          2.5103446145        2.3472237112        0.0134336815
 C          2.8605521427        0.9848278686       -0.1437714534
 C          4.1624028398        0.5319156194       -0.4578691446
 H          5.0235281540        1.1435750573       -0.6283070263
 C          4.0967987305       -0.8388728933       -0.5253473245
 H          4.8912326323       -1.5200584625       -0.7589130742
 C          2.7584832524       -1.1984197839       -0.2357415758
 C          3.6404675659        3.2992347539        0.0275866782
 C          4.5159796475        3.3521263811        1.1124058156
 C          5.6293699263        4.1774246671        1.0988358137
 C          5.8774285480        4.9689768734       -0.0098408807
 H          6.7506069716        5.6013965951       -0.0300892647
 C          5.0204886415        4.9459077311       -1.0966348737
 C          3.9132717753        4.1138828181       -1.0710034897
 Fe        -0.0000383817        0.0030666701        0.3310416033
 C         -3.3405319349        3.5785954138       -0.2533465121
 C         -4.3685828687        3.6291655910        0.6932615326
 C         -3.3755938314        4.5125839559       -1.2925221854
 C         -5.3955241036        4.5542336714        0.6021016977
 C         -4.3940891793        5.4453583384       -1.3918137126
 H         -6.1761815968        4.5555331312        1.3457513486
 C         -5.4046068126        5.4588607636       -0.4446395168
 H         -4.3977759841        6.1451457948       -2.2113100473
 H         -6.2014934456        6.1794425022       -0.5272171773
 C          3.3368249330       -3.5830413752       -0.2211638226
 C          4.3008163597       -3.7060648808        0.7831102462
 C          3.4260662087       -4.4451515377       -1.3151039051
 C          5.3210525235       -4.6376898364        0.6934654951
 C          4.4407467703       -5.3821714009       -1.4161271491
 H          6.0541429952       -4.7051296786        1.4805702701
 C          5.3897937785       -5.4686338992       -0.4120492871
 H          4.4886711181       -6.0253224016       -2.2791644417
 H          6.1894400285       -6.1881958461       -0.4905409590
 H         -6.1928225859       -4.2344190324        2.0715753765
 H         -5.2418811431       -5.5846569460       -1.8813536720
 H          6.2960316354        4.1865378892        1.9486125386
 H          5.2152692946        5.5491758112       -1.9687107728
 Cl         4.1969432993       -2.6809956813        2.1684629300
 Cl         2.2669001354       -4.3053551256       -2.5896929683
 Cl        -4.3433737159        2.5249423745        2.0212773131
 Cl        -2.1513192773        4.4700795871       -2.5099926893
 Cl         4.1885108233        2.3616856791        2.4874661226
 Cl         2.8585333103        4.0471999768       -2.4391725091
 Cl        -4.1189918049       -2.3443972526        2.5113447187
 Cl        -2.9263348618       -4.0490318345       -2.4419923344
 Cl        -0.0139626472        0.0177150419        2.4649802295
  78
       -160.31417228
 N         -0.1108711358       -2.0585428015       -0.2046610138
 N         -2.0080002654        0.1070717819       -0.2189545246
 C          2.2519460828       -2.5749391488        0.0742218949
 C          0.9210068387       -2.9252458126        0.0597819555
 C          0.3892198209       -4.2520014175        0.2557042855
 H          0.9738860856       -5.1149520344        0.5066195098
 C         -0.9441927764       -4.1762501694        0.0538951690
 H         -1.6709931259       -4.9640508860        0.1067086310
 C         -1.2503309805       -2.7945289540       -0.2169053128
 C         -2.5370512250       -2.2956233968       -0.4132139497
 C         -2.8673658286       -0.9308860387       -0.4653166051
 C         -4.1688343288       -0.4231349728       -0.7162775054
 H         -5.0315543558       -1.0127359593       -0.9540931727
 C         -4.0909877713        0.9420994546       -0.5926360403
 H         -4.8792850024        1.6600833588       -0.7148808984
 C         -2.7487331951        1.2427513931       -0.2647609278
 C         -3.6529970628       -3.2582445118       -0.5215084046
 C         -4.5840963069       -3.3977974492        0.5089032429
 C         -5.6492177093       -4.2775303350        0.4011846564
 C         -5.7984360271       -5.0276399637       -0.7537711230
 H         -6.6325984112       -5.7070042782       -0.8456002778
 C         -4.8884750322       -4.9151048254       -1.7914288183
 C         -3.8233651843       -4.0383748111       -1.6659818677
 N          0.1039958293        2.0389890304       -0.2784792291
 N          1.9972331729       -0.1248244909       -0.2176473833
 C         -2.2603809238        2.5597286946        0.0142906643
 C         -0.9261630021        2.9022174175        0.0113277875
 C         -0.3884329457        4.2172750729        0.2607812220
 H         -0.9607141748        5.0688928354        0.5670702185
 C          0.9455823978        4.1434423903        0.0562013609
 H          1.6744639578        4.9248561934        0.1482939389
 C          1.2460757288        2.7711185501       -0.2679279125
 C          2.5337095724        2.2707895021       -0.4713225590
 C          2.8553937005        0.9028108551       -0.5166146727
 C          4.1486573785        0.3799333824       -0.7774240942
 H          5.0042793892        0.9569482788       -1.0696593134
 C          4.0737600824       -0.9774194476       -0.5855198326
 H          4.8590792226       -1.7000215724       -0.6929894772
 C          2.7354702469       -1.2615815801       -0.2256946494
 C          3.6476257728        3.2335840868       -0.5607718662
 C          4.6439254392        3.2828580613        0.4184418701
 C          5.6912319476        4.1882725431        0.3370703838
 C          5.7633562925        5.0614533314       -0.7359232060
 H          6.5803236137        5.7633624996       -0.8055443169
 C          4.7904441241        5.0394492665       -1.7204561175
 C          3.7436639019        4.1344032704       -1.6239309586
 Fe        -0.0050831248       -0.0034853590        0.1397554567
 C         -3.2828518022        3.5695867109        0.3372526003
 C         -4.0991085297        3.3928488896        1.4609634195
 C         -3.5004738894        4.7068438211       -0.4435426552
 C         -5.0814516639        4.3109399156        1.7964345561
 C         -4.4673090651        5.6399790046       -0.1069164060
 H         -5.6939548158        4.1369880809        2.6678523900
 C         -5.2571916012        5.4372573341        1.0132422813
 H         -4.6029425146        6.5092224751       -0.7317520399
 H         -6.0128898302        6.1611595513        1.2759126827
 C          3.2872681189       -3.5702681090        0.4064617799
 C          4.0596501630       -3.3927895677        1.5594847593
 C          3.5757908732       -4.6698301256       -0.4020115055
 C          5.0729831508       -4.2746480316        1.8953751813
 C          4.5863634979       -5.5602215375       -0.0755206876
 H          5.6536172410       -4.1044369580        2.7822317564
 C          5.3323786311       -5.3556869231        1.0713288846
 H          4.7951931086       -6.3939824614       -0.7339260822
 H          6.1250348505       -6.0443959151        1.3187310631
 H         -6.3498530338       -4.3674202360        1.2154454092
 H         -5.0021734418       -5.4952134736       -2.6941112959
 H          6.4379799556        4.2022753436        1.1146018293
 H          4.8385028033        5.7144694772       -2.5615001786
 Cl         3.7175133756       -2.0475900488        2.5842650389
 Cl         2.6906706854       -4.8938892822       -1.8733854930
 Cl        -3.8464763388        2.0139741084        2.4714249075
 Cl        -2.5721083888        4.9348777999       -1.8852931885
 Cl         4.5486669472        2.2161693171        1.7759208968
 Cl         2.5380333792        4.0980673872       -2.8611579520
 Cl        -4.3812663697       -2.4615574689        1.9467150886
 Cl        -2.6843143984       -3.8806227889       -2.9556722236
 Cl        -0.0082434086        0.0420947279        2.2723337920
  78
       -160.31413383
 N         -0.0543237749       -2.0542678507       -0.0586819592
 N         -1.9810837753        0.0508101986       -0.1078831570
 C          2.3429758611       -2.5006010121       -0.2595253719
 C          1.0167486189       -2.8867857547       -0.0729725792
 C          0.5887708794       -4.2386178432        0.1788694339
 H          1.2447790916       -5.0859733417        0.2358546429
 C         -0.7504631193       -4.2012038992        0.3652516687
 H         -1.4104737188       -5.0113962807        0.6099834220
 C         -1.1618424198       -2.8330480876        0.1622684065
 C         -2.4597861024       -2.3766774686        0.1021260904
 C         -2.8090939714       -1.0216012119       -0.1991131551
 C         -4.0872317423       -0.6203118799       -0.6501703254
 H         -4.9207776262       -1.2698300399       -0.8293988971
 C         -4.0379530816        0.7427404181       -0.8113668875
 H         -4.8209114168        1.3890441655       -1.1586147279
 C         -2.7310496899        1.1506349239       -0.4438045992
 C         -3.5893691945       -3.2981512829        0.3041962171
 C         -4.4912495198       -3.0709819759        1.3511866097
 C         -5.5996157151       -3.8817964056        1.5471948413
 C         -5.8185790820       -4.9550635076        0.6998897992
 H         -6.6787973217       -5.5854320826        0.8456749751
 C         -4.9397646679       -5.2131445342       -0.3400860788
 C         -3.8447065490       -4.3822033270       -0.5384122674
 N          0.0819966321        2.0443359891       -0.0699592002
 N          2.0247556843       -0.0630985356       -0.0063014405
 C         -2.3036117500        2.4890816408       -0.3521930720
 C         -0.9899453031        2.8772344338       -0.0918479237
 C         -0.5667659861        4.2263680260        0.1878830238
 H         -1.2253646132        5.0703423093        0.2601825399
 C          0.7734439351        4.1901276982        0.3613873468
 H          1.4340253756        5.0001003196        0.6033123809
 C          1.1862629435        2.8210250272        0.1682587850
 C          2.4877329310        2.3680713998        0.1626744125
 C          2.8643356729        1.0050145577       -0.0348355493
 C          4.1842912352        0.5843674924       -0.3226837256
 H          5.0369946301        1.2281301058       -0.4106705223
 C          4.1415949053       -0.7791353008       -0.4661841296
 H          4.9532203103       -1.4405386621       -0.6958093251
 C          2.7953055140       -1.1710436348       -0.2527960543
 C          3.5937026604        3.3352262998        0.2900304770
 C          4.4748230087        3.2738829114        1.3734164535
 C          5.5553274779        4.1322239320        1.4769530925
 C          5.7706706682        5.0787819272        0.4897665074
 H          6.6148064880        5.7461562983        0.5602717433
 C          4.9115712163        5.1723009868       -0.5910849824
 C          3.8355500105        4.3056215444       -0.6849093205
 Fe         0.0122081386       -0.0036440857        0.3207994815
 C         -3.3271621988        3.5371815360       -0.5230335253
 C         -4.4016481251        3.6566069024        0.3614752034
 C         -3.2699726036        4.4368295266       -1.5917524433
 C         -5.3859464898        4.6158236475        0.1813888081
 C         -4.2439657704        5.4028415431       -1.7781831640
 H         -6.2012376155        4.6772571695        0.8841922364
 C         -5.3048669505        5.4846518601       -0.8918685378
 H         -4.1723567938        6.0769297047       -2.6165003631
 H         -6.0693988582        6.2309785309       -1.0393427928
 C          3.3331787845       -3.5711714682       -0.4971207191
 C          4.3161203697       -3.9018206841        0.4357166197
 C          3.3073574413       -4.2902115241       -1.6942185279
 C          5.2408423767       -4.9029507630        0.1844541459
 C          4.2298358064       -5.2871606875       -1.9625784233
 H          5.9873016635       -5.1398341817        0.9260130096
 C          5.1962481241       -5.5884000728       -1.0178062590
 H          4.1869601765       -5.8123229606       -2.9040407102
 H          5.9185171427       -6.3635978088       -1.2230949467
 H         -6.2776424650       -3.6687899618        2.3575932818
 H         -5.1056464616       -6.0414195154       -1.0096700432
 H          6.2180586113        4.0548852654        2.3236189354
 H          5.0736662422        5.9022192916       -1.3682268683
 Cl         4.3528793595       -3.0594107384        1.9446420425
 Cl         2.1062921531       -3.9007026911       -2.8755743807
 Cl        -4.4887588949        2.6052126995        1.7297417422
 Cl        -1.9698917366        4.3184523185       -2.7215310969
 Cl         4.1876407021        2.1053508645        2.6124151129
 Cl         2.8012071747        4.3989360991       -2.0659201838
 Cl        -4.1923969145       -1.7574914645        2.4364686680
 Cl        -2.8088741212       -4.6743265254       -1.8939251558
 Cl        -0.0402986842        0.0086708316        2.4537277425
  78
       -160.31412875
 N         -0.0999255194       -2.0452891130       -0.2023305089
 N         -2.0051016713        0.1162002579       -0.1332812155
 C          2.2637694676       -2.5717077373        0.0833277940
 C          0.9325912850       -2.9215670938        0.0131228009
 C          0.4093846277       -4.2615705494        0.1145951431
 H          0.9948104151       -5.1390673195        0.3094332233
 C         -0.9250152645       -4.1795716132       -0.0893840800
 H         -1.6473616927       -4.9730992482       -0.0954894515
 C         -1.2381727464       -2.7859110505       -0.2639086918
 C         -2.5281900434       -2.2820289070       -0.4068070928
 C         -2.8708197971       -0.9199465741       -0.3761375223
 C         -4.1854570848       -0.4160357317       -0.5454889723
 H         -5.0548133647       -1.0035553460       -0.7675162075
 C         -4.1109084888        0.9451505250       -0.3762060917
 H         -4.9084203512        1.6594830440       -0.4385505895
 C         -2.7538956060        1.2478942448       -0.1187188345
 C         -3.6366552590       -3.2482601109       -0.5713345914
 C         -4.5243150691       -3.5205088972        0.4684031312
 C         -5.5734237684       -4.4103064753        0.3035811039
 C         -5.7491649036       -5.0368902621       -0.9183376695
 H         -6.5688094702       -5.7251362517       -1.0537360717
 C         -4.8828104871       -4.7879205381       -1.9687972951
 C         -3.8340642058       -3.9017066343       -1.7873454759
 N          0.1028488986        2.0462553722       -0.1991578604
 N          2.0072302642       -0.1153100890       -0.1439848504
 C         -2.2603184684        2.5738937609        0.0799725722
 C         -0.9301242485        2.9247729073        0.0007245897
 C         -0.4103225498        4.2682247384        0.0710595252
 H         -1.0026331219        5.1456075064        0.2420999491
 C          0.9240739575        4.1843925415       -0.1325826920
 H          1.6439715599        4.9796098754       -0.1597849987
 C          1.2399237140        2.7879531450       -0.2772254933
 C          2.5283545233        2.2826291925       -0.4213668116
 C          2.8712423160        0.9207221976       -0.3925618390
 C          4.1855351725        0.4175940828       -0.5643065636
 H          5.0529517008        1.0073686490       -0.7880590174
 C          4.1123783048       -0.9434261960       -0.3935164878
 H          4.9095195353       -1.6580692271       -0.4576702960
 C          2.7571598833       -1.2464869595       -0.1280939760
 C          3.6382490491        3.2516227451       -0.5716236848
 C          4.4560204737        3.5807616871        0.5077408360
 C          5.4990666754        4.4828481912        0.3709628845
 C          5.7384895690        5.0625095860       -0.8631222602
 H          6.5520600489        5.7616274505       -0.9763422180
 C          4.9438391081        4.7537505364       -1.9536809920
 C          3.9000815119        3.8562185014       -1.7990292508
 Fe         0.0019149707        0.0000849036        0.2030174006
 C         -3.2837368133        3.5924310463        0.3819125166
 C         -3.9598033209        3.5319776422        1.6038707217
 C         -3.6471229999        4.5992701731       -0.5119304167
 C         -4.9556883295        4.4389693925        1.9237534292
 C         -4.6453466178        5.5103481116       -0.2059913286
 H         -5.4579491924        4.3675313927        2.8747624037
 C         -5.2959946271        5.4248151125        1.0124658288
 H         -4.9118578538        6.2708007408       -0.9221926308
 H         -6.0791789677        6.1300691216        1.2512585104
 C          3.2837937400       -3.5926431927        0.3858944674
 C          3.9966047025       -3.5109622917        1.5861899461
 C          3.6043981865       -4.6312695029       -0.4881677254
 C          4.9808221784       -4.4305205917        1.9060639015
 C          4.5874315255       -5.5575397650       -0.1798926656
 H          5.5096373506       -4.3411461233        2.8410907352
 C          5.2719515622       -5.4522793794        1.0187657223
 H          4.8162173681       -6.3454338903       -0.8792980884
 H          6.0403266991       -6.1696771462        1.2609444762
 H         -6.2422263498       -4.6054874838        1.1258942601
 H         -5.0160189490       -5.2699727039       -2.9238566851
 H          6.1120215057        4.7238494999        1.2241782340
 H          5.1278419656        5.1998623071       -2.9180453463
 Cl         3.6104694526       -2.2438612159        2.6946131377
 Cl         2.7882017457       -4.7356403007       -2.0087008409
 Cl        -3.5186924081        2.3044457433        2.7331997459
 Cl        -2.8599793993        4.6821523704       -2.0484828375
 Cl         4.1374020987        2.8472852237        2.0390399179
 Cl         2.8993588761        3.4546568225       -3.1471439831
 Cl        -4.2866457700       -2.7353793791        1.9884448430
 Cl        -2.7510646293       -3.5700678441       -3.0880684107
 Cl         0.0054427057       -0.0149482976        2.3364632907
  78
       -160.31410920
 N         -0.0734129943       -2.0740317856       -0.1193925975
 N         -1.9950003119        0.0723068640       -0.0367549545
 C          2.3214434234       -2.5595804778       -0.1100445069
 C          0.9820754668       -2.9289256904       -0.0523525011
 C          0.5071934797       -4.2823776629        0.0855868085
 H          1.1342927609       -5.1478064941        0.1742325219
 C         -0.8432656382       -4.2263932801        0.0977311957
 H         -1.5390646739       -5.0367354453        0.2066157216
 C         -1.2064095120       -2.8395422830       -0.0500653842
 C         -2.4958223803       -2.3559250731       -0.1397629471
 C         -2.8331502687       -0.9792259664       -0.2607664625
 C         -4.1196822893       -0.5154761417       -0.6204509664
 H         -4.9564109464       -1.1369126806       -0.8736012432
 C         -4.0665102060        0.8552774391       -0.5934088231
 H         -4.8520461905        1.5470727743       -0.8252731533
 C         -2.7481740460        1.2053946955       -0.2071517012
 C         -3.6207356471       -3.3097284689       -0.1087738221
 C         -4.5290814605       -3.2965303488        0.9538792693
 C         -5.5942037816       -4.1793375305        1.0025367433
 C         -5.7689546958       -5.0949418156       -0.0221086508
 H         -6.5973785732       -5.7833398554        0.0142371771
 C         -4.8905344292       -5.1295770422       -1.0906228500
 C         -3.8278280473       -4.2418651566       -1.1269647039
 N          0.0876334446        2.0249464524        0.0742672462
 N          2.0176002404       -0.1027396989       -0.0025787769
 C         -2.3003544672        2.5278982016       -0.0144076345
 C         -0.9675288219        2.8741431408        0.1976138717
 C         -0.4939760679        4.2008174655        0.4885819135
 H         -1.1220796667        5.0483488852        0.6849301197
 C          0.8576949997        4.1462325478        0.4826220553
 H          1.5546892778        4.9397362565        0.6704972802
 C          1.2195584515        2.7823805148        0.1978705080
 C          2.5108557918        2.3245099262        0.0056224419
 C          2.8643607813        0.9590071210       -0.1443566977
 C          4.1746677641        0.5054416522       -0.4336712080
 H          5.0255672169        1.1318640500       -0.6163507439
 C          4.1257085979       -0.8650561689       -0.4368078992
 H          4.9312750086       -1.5495892028       -0.6177903687
 C          2.7816715020       -1.2269939460       -0.1676687938
 C          3.5747672716        3.3404117369       -0.1186163867
 C          4.6095462511        3.4589560915        0.8112736139
 C          5.5936473825        4.4258065728        0.6791472990
 C          5.5552638119        5.2980676446       -0.3950191332
 H          6.3169963479        6.0546104152       -0.5013277530
 C          4.5417742362        5.2080771341       -1.3341752442
 C          3.5666960285        4.2361265945       -1.1918569642
 Fe         0.0066809559       -0.0410771708        0.3491424904
 C         -3.2830584459        3.6212900225       -0.1158818044
 C         -4.3605849630        3.7428903800        0.7669797819
 C         -3.1622950200        4.5928005812       -1.1165376969
 C         -5.2679369819        4.7838803047        0.6645003653
 C         -4.0569044796        5.6431969211       -1.2246793518
 H         -6.0859811978        4.8473840825        1.3645772918
 C         -5.1074545962        5.7376602177       -0.3279661816
 H         -3.9265832821        6.3728887228       -2.0083475501
 H         -5.8096514337        6.5525727879       -0.4065701171
 C          3.3401564955       -3.6285339988       -0.1211259000
 C          4.1991941599       -3.8081788106        0.9656061725
 C          3.4815410822       -4.4922828840       -1.2078719203
 C          5.1604324385       -4.8054020857        0.9688459148
 C          4.4411534391       -5.4910063315       -1.2200816418
 H          5.8040280535       -4.9219015787        1.8256287207
 C          5.2784694026       -5.6418068248       -0.1283589543
 H          4.5284056415       -6.1377500343       -2.0777656287
 H          6.0277382421       -6.4177452717       -0.1322744001
 H         -6.2743554766       -4.1501888539        1.8371130524
 H         -5.0253936716       -5.8342550334       -1.8947739041
 H          6.3759278417        4.4928258220        1.4178365602
 H          4.4985712898        5.8819205568       -2.1739565724
 Cl         4.0283964107       -2.7770880975        2.3417883258
 Cl         2.4496397629       -4.2866033285       -2.5789526106
 Cl        -4.5560297091        2.5779906841        2.0336512451
 Cl        -1.8887843409        4.4597607889       -2.2813852900
 Cl         4.6346479298        2.3958787238        2.1718044991
 Cl         2.3242911507        4.1143448808       -2.3882499564
 Cl        -4.2901942446       -2.1683888722        2.2398387101
 Cl        -2.7557308691       -4.2616188628       -2.4816241474
 Cl        -0.0201409014       -0.1732040496        2.4738490815
  78
       -160.31408788
 N         -0.0989668930       -2.0435070984        0.0546350776
 N         -2.0173432023        0.0863639052        0.0591558198
 C          2.2888326772       -2.5392258680       -0.0540042115
 C          0.9645071859       -2.8977760377        0.1245512838
 C          0.4918839230       -4.2394851536        0.3501469240
 H          1.1223624300       -5.0984340494        0.4810492858
 C         -0.8587837467       -4.1817522775        0.3705192523
 H         -1.5574199742       -4.9808565323        0.5265892824
 C         -1.2221478341       -2.8033206232        0.1613379478
 C         -2.5242297625       -2.3375309615        0.0288110580
 C         -2.8753804415       -0.9712057782       -0.0755697046
 C         -4.1847107223       -0.5064748793       -0.3510867752
 H         -5.0453634539       -1.1231804848       -0.5203941960
 C         -4.1224399878        0.8649206849       -0.3656172827
 H         -4.9219146719        1.5575441010       -0.5427849656
 C         -2.7757273573        1.2128550690       -0.1086585941
 C         -3.5963394673       -3.3423500881       -0.0979841618
 C         -4.6164278667       -3.4675222300        0.8466539421
 C         -5.6191748522       -4.4125676497        0.7108664694
 C         -5.6145158751       -5.2593938563       -0.3837324601
 H         -6.3924731139       -5.9979945811       -0.4949049193
 C         -4.6155944786       -5.1656559530       -1.3365803720
 C         -3.6211951793       -4.2146873793       -1.1905893134
 N          0.0866398603        2.0582019905        0.0080545525
 N          1.9960252087       -0.0776881337        0.0031752832
 C         -2.3057932865        2.5457603791       -0.0447686713
 C         -0.9781272211        2.9127928066        0.0651577975
 C         -0.5062405315        4.2644343004        0.2181834421
 H         -1.1394614968        5.1257147800        0.3098395402
 C          0.8445018214        4.2087962947        0.2417749533
 H          1.5398248714        5.0162872219        0.3628229304
 C          1.2094340714        2.8239842097        0.0794925261
 C          2.5076678419        2.3480720776       -0.0469937287
 C          2.8431505523        0.9792725679       -0.1833234273
 C          4.1312386866        0.5157623791       -0.5431422154
 H          4.9765431611        1.1346803878       -0.7727447348
 C          4.0684199031       -0.8563424090       -0.5541827724
 H          4.8542689632       -1.5464765925       -0.7913274321
 C          2.7454504069       -1.2050436543       -0.1971631239
 C          3.6067632299        3.3295024788       -0.0805484662
 C          4.5775450615        3.3617498574        0.9237641090
 C          5.5974343918        4.2989860956        0.9149993648
 C          5.6639015283        5.2268254278       -0.1094255684
 H          6.4525253901        5.9626925949       -0.1175738716
 C          4.7249866125        5.2148249606       -1.1263861234
 C          3.7122180551        4.2712987743       -1.1073650089
 Fe        -0.0050000548        0.0113514078        0.4018550822
 C         -3.3062735327        3.6291645186       -0.1690609152
 C         -4.1493918747        3.9741579647        0.8850788330
 C         -3.4207848588        4.3473884832       -1.3588567793
 C         -5.0725777777        4.9994567923        0.7617661681
 C         -4.3450483711        5.3678273463       -1.5000171633
 H         -5.7065313042        5.2507256351        1.5974200545
 C         -5.1663266585        5.6896639608       -0.4342617304
 H         -4.4141078961        5.8992714953       -2.4354654621
 H         -5.8851421701        6.4871510278       -0.5369194768
 C          3.2873605848       -3.6207725999       -0.1518278807
 C          4.2863149996       -3.7842063565        0.8097671124
 C          3.2595256441       -4.5270560637       -1.2148488862
 C          5.2151720365       -4.8082688750        0.7205208836
 C          4.1825300259       -5.5538970677       -1.3164360628
 H          5.9694884340       -4.9096423992        1.4837864651
 C          5.1579814669       -5.6909839459       -0.3438017819
 H          4.1332188756       -6.2331809700       -2.1524801924
 H          5.8778004148       -6.4907717938       -0.4175165491
 H         -6.3909796130       -4.4817434916        1.4601760715
 H         -4.6025688467       -5.8191825024       -2.1935396306
 H          6.3251787984        4.2999994361        1.7099182928
 H          4.7735537654        5.9281424911       -1.9329737416
 Cl         4.3363801605       -2.6998481716        2.1526826403
 Cl         2.0633395059       -4.3449498614       -2.4497730734
 Cl        -4.0073359540        3.1079572546        2.3722206062
 Cl        -2.3923474210        3.9347059044       -2.6834907353
 Cl         4.4765458258        2.2270306486        2.2219281145
 Cl         2.5698002249        4.2364966727       -2.4052356915
 Cl        -4.5997818060       -2.4373996829        2.2351274044
 Cl        -2.4020263971       -4.0866302649       -2.4083881536
 Cl         0.0216629635        0.0354004251        2.5356131092
  78
       -160.31406319
 N         -0.1055223047       -2.0610303070       -0.2599974240
 N         -2.0287225339        0.0863708317       -0.0919783654
 C          2.2785485004       -2.5690171053       -0.1556074544
 C          0.9500835072       -2.9325041732       -0.1793351864
 C          0.4563648286       -4.2851954295       -0.1169564333
 H          1.0742336702       -5.1585539704       -0.0421093000
 C         -0.8926563340       -4.2143805193       -0.1784396562
 H         -1.6012094391       -5.0196413805       -0.1623192578
 C         -1.2360809403       -2.8186148787       -0.2428718651
 C         -2.5376311686       -2.3304142591       -0.2368145895
 C         -2.8946899912       -0.9705518612       -0.1991137067
 C         -4.2286670738       -0.4971358563       -0.2741152369
 H         -5.1035407597       -1.1105549263       -0.3664969222
 C         -4.1657567774        0.8736310173       -0.2162538429
 H         -4.9815184939        1.5673661668       -0.2574133654
 C         -2.7971516297        1.2110155405       -0.0988025172
 C         -3.6467872751       -3.3126751781       -0.2382867725
 C         -4.2729909521       -3.6755160506        0.9527343776
 C         -5.3174933257       -4.5860847619        0.9683944316
 C         -5.7509070041       -5.1416587645       -0.2226921646
 H         -6.5668357143       -5.8467573883       -0.2198845995
 C         -5.1492410322       -4.7982148047       -1.4221255602
 C         -4.1018335761       -3.8913552146       -1.4201182209
 N          0.0818919942        2.0372399102       -0.1158781307
 N          1.9935387528       -0.1010855971       -0.1620313514
 C         -2.3106210880        2.5458634569       -0.0300717229
 C         -0.9779221269        2.8999917890       -0.0197031907
 C         -0.4907174147        4.2506723174        0.0921826541
 H         -1.1126250284        5.1186326184        0.1934512493
 C          0.8593672839        4.1863130147        0.0556617433
 H          1.5641965765        4.9908846747        0.1298894654
 C          1.2085154438        2.7984278413       -0.0904892948
 C          2.5103480330        2.3176708556       -0.2056012289
 C          2.8542928673        0.9548701990       -0.3093925176
 C          4.1639868725        0.4778267415       -0.5636427147
 H          5.0282232054        1.0837681541       -0.7507244520
 C          4.0961318443       -0.8943357682       -0.5358316858
 H          4.8931291022       -1.5951455714       -0.6900174635
 C          2.7486768790       -1.2274812998       -0.2758675571
 C          3.6232366494        3.2864607767       -0.2153644030
 C          4.5575100782        3.3102208715        0.8242274307
 C          5.6277570913        4.1930446919        0.8155866167
 C          5.7794631562        5.0750950214       -0.2429327116
 H          6.6187660410        5.7535319038       -0.2609303451
 C          4.8614717027        5.0846498667       -1.2803508560
 C          3.7962708357        4.1943884102       -1.2602197217
 Fe        -0.0124703148       -0.0247007381        0.2009507686
 C         -3.3184026709        3.6275728199        0.0022220172
 C         -4.0788316879        3.8732957100        1.1457525580
 C         -3.5404807812        4.4347057340       -1.1133857303
 C         -5.0237923789        4.8856901350        1.1779290986
 C         -4.4875924748        5.4458747557       -1.0983300232
 H         -5.5913031120        5.0570870731        2.0781540448
 C         -5.2257562613        5.6661072025        0.0512565933
 H         -4.6361887742        6.0479948035       -1.9796166967
 H         -5.9634660339        6.4528512621        0.0704771808
 C          3.3228083977       -3.5892792180        0.0625415520
 C          4.0156711083       -3.5956933700        1.2769265855
 C          3.6859825381       -4.5342501006       -0.8958458203
 C          5.0264143542       -4.5080097565        1.5292786985
 C          4.6998156448       -5.4495948513       -0.6585227768
 H          5.5386092353       -4.4875383492        2.4780545995
 C          5.3669068186       -5.4312125182        0.5546160638
 H          4.9657291979       -6.1607987608       -1.4248366896
 H          6.1604450799       -6.1393285875        0.7392446553
 H         -5.7810504226       -4.8499439051        1.9054197717
 H         -5.4858491949       -5.2257054208       -2.3525421523
 H          6.3330207294        4.1824932370        1.6305009993
 H          4.9701134562        5.7681254356       -2.1045076849
 Cl         3.5728360907       -2.4435834312        2.4877697962
 Cl         2.8748138921       -4.5333188000       -2.4237539498
 Cl        -3.8025364993        2.9004428651        2.5466283809
 Cl        -2.6225907231        4.1462675535       -2.5490530808
 Cl         4.3524835040        2.2324878066        2.1592960241
 Cl         2.6766156848        4.1825346719       -2.5802390774
 Cl        -3.7119615380       -2.9683482793        2.4257026367
 Cl        -3.3411405277       -3.4453864500       -2.9057619454
 Cl         0.0204027878       -0.1444228947        2.3315257580
  78
       -160.31397545
 N         -0.0966144490       -2.0877846323       -0.1460753576
 N         -2.0209774652        0.0486199089       -0.0645268429
 C          2.2976787443       -2.5448836915       -0.2423072437
 C          0.9720210227       -2.9286085473       -0.0814654043
 C          0.5204703268       -4.2757093934        0.1501549859
 H          1.1680383754       -5.1239281212        0.2597947907
 C         -0.8287061601       -4.2324351804        0.2213893560
 H         -1.5094747655       -5.0416890531        0.4005062035
 C         -1.2179040274       -2.8581899746        0.0118694994
 C         -2.5123461419       -2.3861039479       -0.0473110188
 C         -2.8565283534       -1.0106420518       -0.2300550200
 C         -4.1475778423       -0.5661812253       -0.5995348058
 H         -4.9881933869       -1.1973180729       -0.8108402884
 C         -4.0969452255        0.8050652678       -0.6383876489
 H         -4.8894165436        1.4812815701       -0.8901993264
 C         -2.7761168778        1.1756021793       -0.2815415324
 C         -3.6438873972       -3.3213036247        0.0730412650
 C         -4.5505085435       -3.1953432291        1.1314002917
 C         -5.6500805981       -4.0281730347        1.2483195180
 C         -5.8615921919       -5.0144584022        0.3005407589
 H         -6.7186878134       -5.6651366763        0.3822174458
 C         -4.9807252001       -5.1704426474       -0.7555078364
 C         -3.8865480574       -4.3281955391       -0.8640238042
 N          0.0646886836        2.0140925296       -0.0077749882
 N          1.9828590379       -0.0955844846       -0.1302827978
 C         -2.3268255383        2.4988565442       -0.1264509063
 C         -0.9980837880        2.8490762738        0.1174114556
 C         -0.5453310633        4.1661739047        0.4822833335
 H         -1.1893280084        5.0000302554        0.6851114080
 C          0.8046510230        4.1146540992        0.5437602796
 H          1.4861453991        4.8990030697        0.8106937698
 C          1.1889096491        2.7706919862        0.1894931828
 C          2.4799386111        2.3273975768       -0.0160591734
 C          2.8137538273        0.9703802681       -0.2991250884
 C          4.0889892574        0.5341889952       -0.7288164699
 H          4.9164221792        1.1718589920       -0.9710264866
 C          4.0442319609       -0.8369095142       -0.7699472354
 H          4.8282337043       -1.5129498417       -1.0491435396
 C          2.7328206800       -1.2122109840       -0.3832336470
 C          3.5826982312        3.3004970721        0.0331135605
 C          4.6264336725        3.1679289808        0.9537435674
 C          5.6748906889        4.0708063531        1.0010397095
 C          5.6912252758        5.1425969469        0.1252765342
 H          6.4999822202        5.8554930556        0.1623211549
 C          4.6736667382        5.3055206824       -0.7990709480
 C          3.6383069631        4.3875104377       -0.8463667064
 Fe        -0.0135638144       -0.0484958808        0.2882856891
 C         -3.2977464428        3.5984993671       -0.2728000370
 C         -4.3802658364        3.7607999661        0.5955672472
 C         -3.1526028911        4.5334704514       -1.3024985996
 C         -5.2819299810        4.8012474907        0.4398458336
 C         -4.0460824242        5.5782197847       -1.4666627826
 H         -6.1046389724        4.8989045012        1.1293119565
 C         -5.1115455487        5.7064150868       -0.5931387687
 H         -3.9022609980        6.2776319347       -2.2744699622
 H         -5.8108310247        6.5182983965       -0.7184918025
 C          3.3572730083       -3.5749052659       -0.2505408679
 C          4.2535531470       -3.6685775620        0.8159942571
 C          3.5338683599       -4.4416934738       -1.3279631994
 C          5.2920692410       -4.5844689876        0.8068062633
 C          4.5759825045       -5.3545948215       -1.3554670197
 H          5.9655338829       -4.6347646767        1.6468174294
 C          5.4532351494       -5.4182507806       -0.2866813532
 H          4.6993308550       -5.9992629644       -2.2108656939
 H          6.2698570393       -6.1230807539       -0.3083255435
 H         -6.3296548240       -3.8997737430        2.0750193199
 H         -5.1406864358       -5.9328346545       -1.5011222402
 H          6.4645384035        3.9312041205        1.7213898102
 H          4.6782980382        6.1335739833       -1.4893376896
 Cl         4.0389044659       -2.6215074054        2.1738757527
 Cl         2.4459954050       -4.3417548818       -2.6650567362
 Cl        -4.5707282881        2.6655257499        1.9156575455
 Cl        -1.8467676781        4.3678933809       -2.4217223394
 Cl         4.5832768437        1.8650656223        2.0929952014
 Cl         2.4161047582        4.5743582952       -2.0541515764
 Cl        -4.2697952932       -1.9865779584        2.3324582173
 Cl        -2.8285735093       -4.4966574345       -2.2226158633
 Cl         0.0197141334       -0.1395357661        2.4197405692
  78
       -160.31397187
 N         -0.0752663481       -2.0637438532       -0.1293866096
 N         -1.9768077938        0.0565596170       -0.2341185936
 C          2.3230711023       -2.5407421507       -0.2139104864
 C          0.9885442382       -2.9110733311       -0.0862253192
 C          0.5346299338       -4.2557909313        0.1505178135
 H          1.1787927350       -5.1094173865        0.2425851165
 C         -0.8113951417       -4.2004882290        0.2718491023
 H         -1.4893973582       -5.0028103352        0.4880851990
 C         -1.1980672213       -2.8286473902        0.0504737056
 C         -2.4944080070       -2.3593394724       -0.0287373591
 C         -2.8306236112       -0.9990472964       -0.3072130428
 C         -4.1215618421       -0.5634286350       -0.6824200325
 H         -4.9749005943       -1.1953492035       -0.8350760786
 C         -4.0554296785        0.8041752192       -0.8059195391
 H         -4.8436318994        1.4746695408       -1.0910701157
 C         -2.7225141343        1.1746262124       -0.5041553380
 C         -3.6247573818       -3.2793530062        0.1830466560
 C         -4.5034468021       -3.0685230783        1.2527296137
 C         -5.5766417654       -3.9109184424        1.4864572636
 C         -5.7874274463       -4.9961100199        0.6509947051
 H         -6.6170687942       -5.6589160442        0.8352082016
 C         -4.9428183773       -5.2286846604       -0.4225151371
 C         -3.8798174816       -4.3717171594       -0.6522660034
 N          0.1184788148        2.0347865771       -0.2407218244
 N          2.0367649987       -0.0895325241       -0.0660812704
 C         -2.2725552858        2.5084924432       -0.4115253223
 C         -0.9444460125        2.8873038436       -0.2608523406
 C         -0.4897425911        4.2399591673       -0.0727931205
 H         -1.1290052390        5.1004561408       -0.0372853816
 C          0.8548333947        4.1878891964        0.0595694595
 H          1.5370850325        4.9984419531        0.2278994485
 C          1.2343607517        2.8017687536       -0.0549550172
 C          2.5332329352        2.3327261827        0.0165215284
 C          2.8988808848        0.9612908203       -0.0867048709
 C          4.2258469975        0.5075037204       -0.2775351688
 H          5.0939283534        1.1342723717       -0.3391785239
 C          4.1631218022       -0.8600047520       -0.3756159163
 H          4.9700994057       -1.5435066571       -0.5416992112
 C          2.7987275690       -1.2172302256       -0.2308424068
 C          3.6211595798        3.3178866146        0.1642290152
 C          4.3620589572        3.3911254021        1.3448555771
 C          5.3562755896        4.3406556117        1.5156061101
 C          5.6314990957        5.2303659720        0.4914058909
 H          6.4007886913        5.9764439277        0.6198406868
 C          4.9303997470        5.1692118423       -0.7005515551
 C          3.9334875530        4.2197940095       -0.8546236891
 Fe         0.0149570616       -0.0042597635        0.1974888867
 C         -3.3117856028        3.5557566613       -0.3825373174
 C         -4.1801055692        3.6466745284        0.7082211495
 C         -3.4713219004        4.4774580572       -1.4177019967
 C         -5.1635530905        4.6225788423        0.7708605936
 C         -4.4550772876        5.4526490318       -1.3715759038
 H         -5.8115955370        4.6732494973        1.6315468487
 C         -5.2966727461        5.5234378024       -0.2713229409
 H         -4.5577918280        6.1434691507       -2.1929319727
 H         -6.0587545764        6.2908939820       -0.2293927943
 C          3.3325023719       -3.6160839274       -0.3463862942
 C          4.1568252374       -3.9854321673        0.7152487283
 C          3.5039994442       -4.2736727018       -1.5637769469
 C          5.1279823601       -4.9617774370        0.5688206138
 C          4.4776382755       -5.2459783872       -1.7306449985
 H          5.7513331097       -5.2305937679        1.4072512714
 C          5.2889738269       -5.5810487444       -0.6607482318
 H          4.5951002460       -5.7243581595       -2.6903323658
 H          6.0553700483       -6.3289327350       -0.7853630988
 H         -6.2334862767       -3.7153144132        2.3198950754
 H         -5.1089212422       -6.0645974177       -1.0844404306
 H          5.8974477954        4.3793869308        2.4462808498
 H          5.1421965336        5.8492068684       -1.5092606052
 Cl         3.9387944355       -3.2037379684        2.2426593838
 Cl         2.4896267497       -3.8365841200       -2.8915864138
 Cl        -3.9976924466        2.5339578121        2.0187634391
 Cl        -2.4313105660        4.3715165810       -2.7958871091
 Cl         3.9913596404        2.2926622183        2.6251560470
 Cl         3.0678267386        4.1303764917       -2.3473275428
 Cl        -4.2179085557       -1.7411697492        2.3244393143
 Cl        -2.8758034246       -4.6347101906       -2.0384216234
 Cl        -0.0722047304        0.0728855317        2.3290985727
  78
       -160.31387678
 N         -0.1044121067       -2.0587719373       -0.1800153296
 N         -2.0307689461        0.0691077936       -0.0248739418
 C          2.2893976770       -2.5301555380       -0.2670851449
 C          0.9593068457       -2.9129383673       -0.2077690875
 C          0.4953733992       -4.2744039801       -0.1415857261
 H          1.1309846777       -5.1387511395       -0.1489602861
 C         -0.8543499645       -4.2259801323       -0.0629767820
 H         -1.5465791301       -5.0437172863        0.0050428293
 C         -1.2254624564       -2.8342381183       -0.0900472890
 C         -2.5241748874       -2.3591431074       -0.0501063362
 C         -2.8843778900       -0.9914538364       -0.1253294241
 C         -4.2019801065       -0.5404661312       -0.3700704384
 H         -5.0604267749       -1.1692812618       -0.5023095248
 C         -4.1432422624        0.8305873737       -0.4284193945
 H         -4.9489993338        1.5120848953       -0.6172173437
 C         -2.7958321726        1.1921120074       -0.1910481913
 C         -3.6284821814       -3.3373861963        0.0496493874
 C         -4.2994128623       -3.5116871867        1.2607496523
 C         -5.3292070147       -4.4301883958        1.3880308554
 C         -5.7080217642       -5.1818776545        0.2887895239
 H         -6.5107450598       -5.8965228688        0.3806615124
 C         -5.0665399212       -5.0241946969       -0.9285717264
 C         -4.0325878114       -4.1094601825       -1.0381118421
 N          0.0656998697        2.0355885827        0.0313237790
 N          1.9864085579       -0.0780171516       -0.0629121397
 C         -2.3295878938        2.5228432341       -0.1125230406
 C         -0.9991151889        2.8834376151        0.0647234348
 C         -0.5435925771        4.2279675582        0.2959718045
 H         -1.1815009188        5.0834788728        0.3955421348
 C          0.8057464797        4.1771155190        0.3840516789
 H          1.4900846735        4.9823992260        0.5708021248
 C          1.1849630676        2.8052088002        0.1806430865
 C          2.4872712267        2.3448171605        0.0599922988
 C          2.8384382784        0.9862871948       -0.1408303472
 C          4.1422047256        0.5421568208       -0.4698963694
 H          4.9997924871        1.1676044235       -0.6131532651
 C          4.0865254971       -0.8244519304       -0.5545688983
 H          4.8847705333       -1.5008433945       -0.7899076929
 C          2.7443032657       -1.1916910083       -0.2934382882
 C          3.5887482691        3.3256584511        0.0562300422
 C          4.5829550235        3.3054921629        1.0396679840
 C          5.6494637254        4.1854547440        1.0096372222
 C          5.7330373070        5.1207017305       -0.0112219272
 H          6.5639088731        5.8062713782       -0.0427970085
 C          4.7609479005        5.1728142613       -0.9957374569
 C          3.7038210876        4.2791864841       -0.9579720444
 Fe        -0.0196095323       -0.0307640710        0.3111311586
 C         -3.3079438176        3.6157250438       -0.2857469453
 C         -4.2916871627        3.9002326822        0.6615476327
 C         -3.2608477755        4.4205010231       -1.4268693338
 C         -5.1842740057        4.9449817589        0.4852534420
 C         -4.1485437229        5.4636707329       -1.6188174536
 H         -5.9292531317        5.1442339960        1.2384109235
 C         -5.1075190877        5.7242829813       -0.6553252189
 H         -4.0841027530        6.0616459603       -2.5132153645
 H         -5.8018483518        6.5384719981       -0.7942277182
 C          3.3316096990       -3.5786084705       -0.2487366509
 C          4.0968600349       -3.7784360726        0.9030180501
 C          3.5955487921       -4.3842329945       -1.3545585762
 C          5.0839535623       -4.7489971266        0.9516492337
 C          4.5806409861       -5.3584663721       -1.3202378707
 H          5.6581492765       -4.8814465754        1.8545512577
 C          5.3205544765       -5.5349527933       -0.1638452601
 H          4.7647560402       -5.9614468013       -2.1948919130
 H          6.0920664236       -6.2898426951       -0.1354645963
 H         -5.8217045998       -4.5508697443        2.3397444407
 H         -5.3625634212       -5.6037130488       -1.7885809019
 H          6.4046657040        4.1350081484        1.7780441359
 H          4.8217205638        5.8928340043       -1.8019132563
 Cl         3.7788569313       -2.7961958979        2.2874889799
 Cl         2.6944876641       -4.1217045658       -2.8118741499
 Cl        -4.3741647934        2.9432728056        2.0988928540
 Cl        -2.0738941157        4.0836797111       -2.6391878208
 Cl         4.4693954374        2.1571521570        2.3238780757
 Cl         2.5303037453        4.3169676819       -2.2270796092
 Cl        -3.8039279942       -2.5691693562        2.6202081943
 Cl        -3.2286441574       -3.8951875679       -2.5531687910
 Cl        -0.0107391596       -0.1701382037        2.4404840675
  78
       -160.31385481
 N         -0.0830734978       -2.0569692934       -0.4210818189
 N         -2.0180710182        0.0683239211       -0.2805643452
 C          2.3197786430       -2.5245713955       -0.4227819734
 C          0.9817997659       -2.9060110859       -0.4085587062
 C          0.5235404578       -4.2665479641       -0.2914537898
 H          1.1607210458       -5.1295223852       -0.2696533138
 C         -0.8231064087       -4.2219314228       -0.1951084266
 H         -1.5040951755       -5.0426544698       -0.0834315161
 C         -1.2049168960       -2.8329120047       -0.2785434548
 C         -2.4964822205       -2.3622822699       -0.1968809111
 C         -2.8659120287       -0.9914190678       -0.3370695788
 C         -4.1909177577       -0.5544919255       -0.5629231230
 H         -5.0471015470       -1.1925330376       -0.6647696545
 C         -4.1455749586        0.8164847148       -0.6307191904
 H         -4.9605612028        1.4943212453       -0.8058570764
 C         -2.7922985753        1.1899357024       -0.4307212268
 C         -3.5851027776       -3.2984678694        0.1479609232
 C         -4.1650645906       -3.2163921705        1.4157856821
 C         -5.1524388660       -4.1000244618        1.8184979564
 C         -5.5876679537       -5.0769720742        0.9386862626
 H         -6.3542538258       -5.7716715065        1.2484402100
 C         -5.0542645455       -5.1651552536       -0.3365035837
 C         -4.0592451231       -4.2805118884       -0.7203744512
 N          0.0687865293        2.0423216213       -0.2667076736
 N          2.0057902992       -0.0763393909       -0.2746912892
 C         -2.3337491597        2.5158666578       -0.3385775895
 C         -0.9963892094        2.8850890270       -0.2021543567
 C         -0.5460186341        4.2256895226        0.0626944902
 H         -1.1902584584        5.0749566845        0.1798028377
 C          0.8006332254        4.1763482247        0.1632230997
 H          1.4752366587        4.9814660953        0.3790107167
 C          1.1890235207        2.8070298111       -0.0643604214
 C          2.4885856020        2.3450738825       -0.0876722547
 C          2.8585109937        0.9840374522       -0.2893487200
 C          4.1847928172        0.5465331491       -0.5072896114
 H          5.0445654647        1.1822458597       -0.5859518739
 C          4.1376797183       -0.8231584956       -0.5940922999
 H          4.9524627326       -1.5009515649       -0.7582491399
 C          2.7795375114       -1.1950291514       -0.4371930700
 C          3.5865133816        3.3020548123        0.1488197650
 C          4.3762645971        3.1928033360        1.2971290146
 C          5.4047308583        4.0800857392        1.5553104719
 C          5.6561877656        5.1086038016        0.6626025545
 H          6.4486490607        5.8105708538        0.8606303138
 C          4.8959092837        5.2423860905       -0.4853324013
 C          3.8777241877        4.3399783695       -0.7379523969
 Fe        -0.0069447880       -0.0215785252        0.0456844787
 C         -3.3414257771        3.5949589940       -0.3222875814
 C         -4.2412274486        3.7288187069        0.7375142263
 C         -3.4082588772        4.5378473314       -1.3502141015
 C         -5.1631589067        4.7617602721        0.7757061590
 C         -4.3221985996        5.5781757602       -1.3225286399
 H         -5.8387666416        4.8397278034        1.6117547896
 C         -5.1966180789        5.6863346365       -0.2544759486
 H         -4.3459364265        6.2928358663       -2.1299336770
 H         -5.9082568616        6.4966330062       -0.2268130102
 C          3.3408928004       -3.5862508426       -0.2967529098
 C          4.0482253544       -3.7294168113        0.8994946802
 C          3.6143779770       -4.4871213969       -1.3247058958
 C          4.9737989549       -4.7453999777        1.0719411230
 C          4.5428285944       -5.5036774103       -1.1682867458
 H          5.4925063159       -4.8367300992        2.0123597574
 C          5.2142742335       -5.6310260911        0.0357153819
 H          4.7316321582       -6.1859189859       -1.9814047302
 H          5.9292825703       -6.4297792488        0.1682007243
 H         -5.5687332680       -4.0242496333        2.8094454942
 H         -5.4020959692       -5.9154215591       -1.0281857075
 H          5.9921069028        3.9628596463        2.4492242695
 H          5.0901610852        6.0378492404       -1.1863815940
 Cl         3.7237315270       -2.6377446287        2.1983603836
 Cl         2.7789538472       -4.3116341593       -2.8279906528
 Cl        -4.1705463923        2.6042747737        2.0482670011
 Cl        -2.3321933719        4.3874624193       -2.6934831441
 Cl         4.0253780250        1.9364695905        2.4341822802
 Cl         2.9603262679        4.4875733652       -2.1942260824
 Cl        -3.5994280160       -1.9999924369        2.5103627933
 Cl        -3.4066294420       -4.3680743224       -2.3212571239
 Cl        -0.0056293195       -0.1093282518        2.1783227118
  78
       -160.31385269
 N         -0.0973227061       -2.0761823156       -0.1938892457
 N         -1.9785008255        0.0962483952       -0.1557780569
 C          2.2726909275       -2.5943245142       -0.0229493348
 C          0.9424655608       -2.9434704164        0.0327246004
 C          0.4155115721       -4.2642969922        0.2814637689
 H          1.0071563026       -5.1262423632        0.5204877250
 C         -0.9271861171       -4.1841297786        0.1496179227
 H         -1.6537028445       -4.9658944499        0.2595300523
 C         -1.2401846792       -2.8090094800       -0.1442113572
 C         -2.5219773027       -2.3038944043       -0.3517329832
 C         -2.8229969279       -0.9338607418       -0.4745448963
 C         -4.0805625362       -0.4149764961       -0.8781025571
 H         -4.9163567680       -0.9975448142       -1.2128127771
 C         -3.9987789021        0.9500722359       -0.7641565463
 H         -4.7565895861        1.6750016225       -0.9892445651
 C         -2.6985490568        1.2409939888       -0.2883410243
 C         -3.6635032044       -3.2349663911       -0.4210983689
 C         -4.6797860194       -3.1900812466        0.5382146501
 C         -5.7873261503       -4.0171542821        0.4565929626
 C         -5.8971806270       -4.9090429001       -0.5961814106
 H         -6.7657139057       -5.5444785466       -0.6709760977
 C         -4.9011932619       -4.9891822729       -1.5536553671
 C         -3.7959504653       -4.1593805950       -1.4581794966
 N          0.1290313816        2.0194054437       -0.0508226577
 N          2.0127854689       -0.1297795784       -0.1426598077
 C         -2.2415944367        2.5504363274        0.0596085302
 C         -0.9113952243        2.8735616705        0.2147165526
 C         -0.3842086766        4.1683822349        0.5713924274
 H         -0.9756138035        5.0080280524        0.8807917290
 C          0.9595870574        4.0948342379        0.4406135228
 H          1.6862402739        4.8634587407        0.6212547430
 C          1.2698575467        2.7480478658        0.0356439092
 C          2.5473795966        2.2721214601       -0.2716914236
 C          2.8523153227        0.9113917636       -0.4499981960
 C          4.1020281501        0.4009249239       -0.8903759408
 H          4.9301636227        0.9894264745       -1.2338803589
 C          4.0260236867       -0.9666849746       -0.7952688917
 H          4.7813084970       -1.6886102873       -1.0390117872
 C          2.7308570253       -1.2683003903       -0.3143879236
 C          3.6261388669        3.2622570633       -0.4292714643
 C          4.7623393276        3.2596214745        0.3852554958
 C          5.7664835710        4.2020025931        0.2307885241
 C          5.6477806945        5.1758852066       -0.7449817382
 H          6.4245739174        5.9149580044       -0.8648176644
 C          4.5350106447        5.2081028605       -1.5681310844
 C          3.5421252118        4.2569936448       -1.4094779421
 Fe         0.0144631410       -0.0406537080        0.2528901107
 C         -3.2806579078        3.5783201342        0.2293563758
 C         -4.2814691434        3.4171111794        1.1945577599
 C         -3.3432496938        4.7191172801       -0.5762927083
 C         -5.2985174078        4.3437602969        1.3478179220
 C         -4.3488022646        5.6587840007       -0.4238122872
 H         -6.0574765581        4.1832616033        2.0975424641
 C         -5.3272056247        5.4649739986        0.5370076521
 H         -4.3670518189        6.5272088377       -1.0624973794
 H         -6.1177452320        6.1900585556        0.6525310649
 C          3.3240838646       -3.5896365703        0.2429736513
 C          4.1822289558       -3.4054178627        1.3332605723
 C          3.5343953828       -4.7130590763       -0.5587794932
 C          5.1922439995       -4.3071294287        1.6212692917
 C          4.5397605268       -5.6236260416       -0.2795522424
 H          5.8322641629       -4.1360829956        2.4716760360
 C          5.3646337498       -5.4174023886        0.8128467222
 H          4.6762075503       -6.4800442099       -0.9202135077
 H          6.1494071375       -6.1243099628        1.0321941687
 H         -6.5521643430       -3.9550441457        1.2136898233
 H         -4.9774777491       -5.6815489708       -2.3761764948
 H          6.6281354534        4.1689616765        0.8781968899
 H          4.4321526894        5.9604462912       -2.3336586753
 Cl         3.9470577068       -2.0361602664        2.3600332094
 Cl         2.5511039941       -4.9465604686       -1.9624697078
 Cl        -4.2268554802        2.0420810520        2.2405149624
 Cl        -2.1762441470        4.9421300685       -1.8330174152
 Cl         4.8996086272        2.0861073749        1.6456186828
 Cl         2.1810833933        4.2814832964       -2.4768130985
 Cl        -4.5341711350       -2.0958248000        1.8672440265
 Cl        -2.5697471732       -4.2384133584       -2.6733256810
 Cl        -0.0034589852       -0.1330464172        2.3842483726
  78
       -160.31381583
 N         -0.0951771484       -2.0265497526       -0.2738845444
 N         -2.0128203254        0.0998909369       -0.0698409940
 C          2.3007271118       -2.5189485006       -0.3322495918
 C          0.9683557302       -2.8860304421       -0.3024922360
 C          0.4935524709       -4.2452302921       -0.2256664590
 H          1.1222702828       -5.1137672997       -0.2224456320
 C         -0.8547245433       -4.1876748292       -0.1472272971
 H         -1.5492672780       -5.0025347082       -0.0589861349
 C         -1.2163255902       -2.7962610928       -0.1704505009
 C         -2.5178357999       -2.3223424178       -0.0774782666
 C         -2.8811742044       -0.9596775020       -0.0851676026
 C         -4.2141355122       -0.4947081506       -0.1804070250
 H         -5.0921852886       -1.1104594809       -0.2174282552
 C         -4.1508035213        0.8764222640       -0.2365030881
 H         -4.9674714579        1.5677372184       -0.3067840751
 C         -2.7807990377        1.2224358365       -0.1676934021
 C         -3.6153576953       -3.3061145121        0.0314547656
 C         -4.2963448789       -3.4730703027        1.2373921381
 C         -5.3221312076       -4.3963402512        1.3642992981
 C         -5.6894004814       -5.1611460182        0.2705557632
 H         -6.4890828109       -5.8813926699        0.3646672378
 C         -5.0389720699       -5.0101307428       -0.9426967100
 C         -4.0097892274       -4.0901385920       -1.0526405225
 N          0.0908973741        2.0642095928       -0.0083055137
 N          2.0089900064       -0.0688875974       -0.0869852770
 C         -2.3004650698        2.5594250471       -0.1578591547
 C         -0.9742230624        2.9226493208       -0.0366659622
 C         -0.5015712153        4.2802273778        0.0470454593
 H         -1.1322138848        5.1482408998        0.0402981652
 C          0.8435490292        4.2228463136        0.1448534237
 H          1.5344410689        5.0350554192        0.2447478497
 C          1.2098947482        2.8325026912        0.0816968938
 C          2.5147250182        2.3516413733        0.0613116653
 C          2.8681350208        0.9956022429       -0.0960564886
 C          4.1891669612        0.5523335293       -0.3532551624
 H          5.0520597245        1.1844672155       -0.4329246221
 C          4.1252228948       -0.8124064300       -0.4933721270
 H          4.9308264601       -1.4865842851       -0.7101733440
 C          2.7719460472       -1.1778903923       -0.3086155104
 C          3.6218770285        3.3222215320        0.1855306096
 C          4.4061221686        3.3498207510        1.3410180607
 C          5.4326889639        4.2683728582        1.4928345454
 C          5.6989537955        5.1690799532        0.4765424758
 H          6.5026959545        5.8876922552        0.5909967295
 C          4.9527913602        5.1515825199       -0.6897673588
 C          3.9250704159        4.2332865496       -0.8255230241
 Fe        -0.0015271177       -0.0060963070        0.2523900313
 C         -3.3197324335        3.6210062966       -0.3169090917
 C         -3.7596087445        4.3972037118        0.7543671395
 C         -3.8961562867        3.8515633712       -1.5654934064
 C         -4.7555005278        5.3444213950        0.5950543561
 C         -4.8897472763        4.7980037050       -1.7418496702
 H         -5.0871320433        5.9187874421        1.4450364843
 C         -5.3199105970        5.5350089437       -0.6523082932
 H         -5.3171411967        4.9465810295       -2.7191040798
 H         -6.1056982293        6.2608389568       -0.7771051681
 C          3.3220774824       -3.5835753703       -0.3256964201
 C          4.1634356522       -3.7490199803        0.7793382424
 C          3.4805059452       -4.4684487796       -1.3931216617
 C          5.1190317916       -4.7495873899        0.8181587352
 C          4.4313934906       -5.4754639870       -1.3659678098
 H          5.7474151038       -4.8519958661        1.6884010610
 C          5.2497116947       -5.6116877919       -0.2574796732
 H          4.5251424834       -6.1418425724       -2.2072423444
 H          5.9913092754       -6.3948443098       -0.2307858719
 H         -5.8233862192       -4.5084896134        2.3121428885
 H         -5.3247301339       -5.5969366061       -1.8008121176
 H          6.0146004458        4.2719959256        2.4008602289
 H          5.1637359960        5.8382617205       -1.4933870896
 Cl         3.9721684066       -2.7021842642        2.1402026466
 Cl         2.4842084546       -4.2867469651       -2.7964434729
 Cl        -3.0692323862        4.1269182016        2.3149946454
 Cl        -3.3458324549        2.9211431870       -2.9137552120
 Cl         4.0611152153        2.2284395032        2.6079062228
 Cl         3.0119524162        4.1880578393       -2.2926554751
 Cl        -3.8181315612       -2.5248660945        2.5996792624
 Cl        -3.2035612029       -3.8815093800       -2.5671282842
 Cl        -0.0053386828       -0.2152828109        2.3751548004
  78
       -160.31380409
 N         -0.0878046360       -2.0330053010       -0.0186819337
 N         -1.9967004618        0.0921777841       -0.0098111409
 C          2.3014923904       -2.5272065284       -0.1914328064
 C          0.9771268141       -2.8896248591       -0.0226703597
 C          0.5106512541       -4.2364579760        0.1791421495
 H          1.1353133078       -5.1048709044        0.2455228205
 C         -0.8374786771       -4.1746115946        0.2886039330
 H         -1.5269993424       -4.9773790144        0.4655340106
 C         -1.2045233414       -2.7932992072        0.1384265451
 C         -2.5139738806       -2.3242805540        0.0832001053
 C         -2.8672805603       -0.9670481754       -0.0452431077
 C         -4.1822266025       -0.5083716678       -0.3019000956
 H         -5.0478076289       -1.1351349673       -0.3845584518
 C         -4.1090173930        0.8560749833       -0.4243254742
 H         -4.9024019335        1.5443041030       -0.6382522547
 C         -2.7522476169        1.2091999314       -0.2285280725
 C         -3.5870471182       -3.3383856025        0.0417403142
 C         -4.4959692366       -3.5084900513        1.0868088367
 C         -5.4643025266       -4.4987722371        1.0463657613
 C         -5.5427779947       -5.3375070740       -0.0533069168
 H         -6.2916801968       -6.1128685130       -0.0789058332
 C         -4.6687406263       -5.1837293020       -1.1145035515
 C         -3.7052951538       -4.1899558143       -1.0591284348
 N          0.1140445603        2.0634042306       -0.1010498123
 N          2.0246349569       -0.0684726919       -0.0389576143
 C         -2.2803866962        2.5473388871       -0.2211393618
 C         -0.9534462234        2.9178080778       -0.1198366372
 C         -0.4887738205        4.2724156409        0.0237459146
 H         -1.1262634930        5.1350096385        0.0463630859
 C          0.8589895034        4.2176733195        0.1336027756
 H          1.5445620820        5.0291921186        0.2823093547
 C          1.2306732333        2.8308325753        0.0308520834
 C          2.5393343796        2.3534246356        0.0084571652
 C          2.8899338206        0.9920999424       -0.1112208834
 C          4.2005890093        0.5292856600       -0.3884147823
 H          5.0670551235        1.1487917360       -0.5123032848
 C          4.1246857333       -0.8383601524       -0.4857372637
 H          4.9193151482       -1.5256575157       -0.7033827341
 C          2.7748781406       -1.1918349361       -0.2494872525
 C          3.6231201958        3.3572847497        0.0328425453
 C          4.4921958300        3.4665673410        1.1208816424
 C          5.4639966008        4.4538516999        1.1734713303
 C          5.5870516228        5.3491778832        0.1248371323
 H          6.3351507400        6.1258396439        0.1684172445
 C          4.7582072248        5.2531265213       -0.9803832426
 C          3.7906397694        4.2637795395       -1.0182567937
 Fe         0.0171564966        0.0224747719        0.3205117566
 C         -3.2982177439        3.6173247702       -0.2862243829
 C         -4.1413456544        3.8705497868        0.7969567040
 C         -3.4458858903        4.4144895055       -1.4215530257
 C         -5.0972873816        4.8722374477        0.7497627749
 C         -4.3983285905        5.4189002460       -1.4847923153
 H         -5.7308085919        5.0438835854        1.6043437611
 C         -5.2211836686        5.6418305915       -0.3942884776
 H         -4.4887713133        6.0107730252       -2.3808936621
 H         -5.9642708297        6.4225875120       -0.4319423013
 C          3.2728161847       -3.6394175941       -0.2707131017
 C          4.1456634725       -3.9110433238        0.7832952210
 C          3.2787013614       -4.5127693632       -1.3599487919
 C          4.9802641100       -5.0173073744        0.7639266813
 C          4.1096378948       -5.6202287772       -1.3919200075
 H          5.6274403025       -5.2066123827        1.6051045033
 C          4.9539549234       -5.8731916406       -0.3229146272
 H          4.0871847668       -6.2839694681       -2.2402990545
 H          5.5873300101       -6.7456516823       -0.3410577741
 H         -6.1467791857       -4.6116385369        1.8720144118
 H         -4.7222071327       -5.8172845322       -1.9829808113
 H          6.1090022473        4.5223829256        2.0337579443
 H          4.8562045508        5.9400829534       -1.8058695475
 Cl         4.1370488969       -2.8632724982        2.1577769290
 Cl         2.2206264763       -4.2021165088       -2.6916559576
 Cl        -3.9570442437        2.9224978511        2.2275246254
 Cl        -2.4233678779        4.1242206712       -2.7837543586
 Cl         4.3200187058        2.3690792348        2.4403234624
 Cl         2.7778400375        4.1280677533       -2.4120231110
 Cl        -4.3805415886       -2.4781678347        2.4670992360
 Cl        -2.6306527077       -3.9839642604       -2.3973795301
 Cl         0.0394698355        0.0714778490        2.4535403630
  78
       -160.31380214
 N         -0.0784765800       -2.0586557521       -0.0287004570
 N         -2.0236109027        0.0666918038       -0.0214443437
 C          2.3380637531       -2.5183923269        0.0967977919
 C          0.9836276602       -2.8963525595       -0.1280618026
 C          0.5468978607       -4.2016338813       -0.4701207458
 H          1.1831214751       -5.0489981920       -0.6319681350
 C         -0.8214892688       -4.1507404043       -0.5490316015
 H         -1.4992792365       -4.9468980851       -0.7882987701
 C         -1.1960227184       -2.8111040763       -0.2625466767
 C         -2.5147751461       -2.3345109332       -0.1847195866
 C         -2.8716811965       -1.0014263608       -0.0039113893
 C         -4.2198593132       -0.5491441191        0.2115792921
 H         -5.0736228566       -1.1950992850        0.2857411321
 C         -4.1747549743        0.7979507686        0.3205108258
 H         -4.9844071782        1.4744781754        0.5129706633
 C         -2.8019786854        1.1895926237        0.1194917151
 C         -3.6076590047       -3.3235672091       -0.3201570429
 C         -3.9496689758       -4.1740400427        0.7300498725
 C         -4.9804949764       -5.0917658427        0.6062854955
 C         -5.6792086077       -5.1735771274       -0.5863473997
 H         -6.4819309498       -5.8872589526       -0.6870164069
 C         -5.3584372582       -4.3469324339       -1.6488465440
 C         -4.3312499540       -3.4280165499       -1.5067141767
 N          0.0617814073        2.0140901547       -0.1001289684
 N          1.9951479145       -0.0910736674        0.0698022186
 C         -2.3571421771        2.4883501479       -0.0244808666
 C         -0.9974919794        2.8363584194       -0.2889694523
 C         -0.5608691923        4.0999730036       -0.7582277307
 H         -1.1973536286        4.9241926864       -1.0157479021
 C          0.8088081549        4.0432688160       -0.8208555724
 H          1.4847339680        4.8109833864       -1.1442335711
 C          1.1835985977        2.7458509817       -0.3792585625
 C          2.5013792684        2.2958282988       -0.1770357099
 C          2.8422422511        0.9759278999        0.1179983035
 C          4.1716800870        0.5286279338        0.4376540220
 H          5.0170057982        1.1724851498        0.5856732564
 C          4.1247843461       -0.8204183299        0.5231677322
 H          4.9236689185       -1.4981959134        0.7545029054
 C          2.7656987091       -1.2139473102        0.2506892259
 C          3.5804555195        3.2910817080       -0.3129392075
 C          3.6597190447        4.3993630182        0.5351776298
 C          4.6445705835        5.3609908786        0.3801705379
 C          5.5784642044        5.2243076314       -0.6321171316
 H          6.3439352903        5.9738005543       -0.7603098140
 C          5.5358949130        4.1324610340       -1.4819244257
 C          4.5435076487        3.1806838093       -1.3197910647
 Fe        -0.0220163116       -0.0137691177        0.3732362915
 C         -3.3059036788        3.6100870114        0.0803452534
 C         -3.1472348532        4.5664726756        1.0897463427
 C         -4.3638585944        3.7896152976       -0.8134485920
 C         -4.0090142218        5.6430271479        1.2116118565
 C         -5.2365718382        4.8587309207       -0.6988186660
 H         -3.8577126787        6.3599829601        2.0031847227
 C         -5.0556695022        5.7825874019        0.3166811913
 H         -6.0426775769        4.9654627220       -1.4068736648
 H         -5.7316791211        6.6184107945        0.4070503253
 C          3.3474110104       -3.5940282774        0.0911658210
 C          3.3524669014       -4.5938704170        1.0674820917
 C          4.3192649029       -3.6640734512       -0.9104715730
 C          4.2833456525       -5.6191431609        1.0477897917
 C          5.2555743305       -4.6842087537       -0.9415304028
 H          4.2635972364       -6.3741766289        1.8171741644
 C          5.2318587035       -5.6599291168        0.0400726142
 H          5.9872925472       -4.7102030031       -1.7326720020
 H          5.9574171128       -6.4585379537        0.0205912669
 H         -5.2294338171       -5.7294379196        1.4388706240
 H         -5.8946127853       -4.4071825449       -2.5822257075
 H          4.6728559068        6.2050962016        1.0501951575
 H          6.2591752355        4.0174612023       -2.2731188417
 Cl         2.1859514766       -4.5201115631        2.3388017113
 Cl         4.3348686190       -2.4744742079       -2.1646964961
 Cl        -1.8622059312        4.3745053283        2.2293650188
 Cl        -4.5609760146        2.6821792684       -2.1318068778
 Cl         2.5228449010        4.5545655028        1.8252360321
 Cl         4.4731905299        1.8447713366       -2.4167014257
 Cl        -3.0712590616       -4.0488779190        2.2136040558
 Cl        -3.9187931887       -2.3899028634       -2.8235607131
 Cl        -0.0736887301        0.0219830971        2.5058732230
  78
       -160.31372243
 N         -0.0836631875       -2.0220504101       -0.0820259450
 N         -2.0173101846        0.1014978477        0.0160147620
 C          2.3163113623       -2.5136086820       -0.0815754796
 C          0.9845318232       -2.8681299575       -0.2323420116
 C          0.5073929007       -4.1836456425       -0.5536374274
 H          1.1337274706       -5.0299836226       -0.7545942517
 C         -0.8483074789       -4.1218663746       -0.5583480160
 H         -1.5499275796       -4.9075003132       -0.7628786650
 C         -1.2032795946       -2.7705677227       -0.2360905668
 C         -2.5193685913       -2.3092539343       -0.0757011032
 C         -2.8771695093       -0.9665344539        0.0867219516
 C         -4.2104572899       -0.4943941125        0.2660581846
 H         -5.0773981143       -1.1130363710        0.3897992276
 C         -4.1537835529        0.8716962404        0.2489235667
 H         -4.9652051078        1.5662676273        0.3524172348
 C         -2.7874197451        1.2224521336        0.0788047794
 C         -3.5983984594       -3.3150647904       -0.0712845177
 C         -3.6867108174       -4.2597180541        0.9550158620
 C         -4.7070216492       -5.1957306105        0.9941889234
 C         -5.6668479446       -5.2035447204       -0.0040414011
 H         -6.4670687682       -5.9273522968        0.0261216171
 C         -5.6021558074       -4.2890618506       -1.0422325505
 C         -4.5753560396       -3.3596956854       -1.0686901497
 N          0.0790908595        2.0687403022        0.0110610188
 N          2.0076660147       -0.0682555135        0.0642652166
 C         -2.3205227932        2.5532460114       -0.0574639899
 C         -0.9869003176        2.9210609111       -0.1153002243
 C         -0.5066255954        4.2578948095       -0.3352293944
 H         -1.1353976300        5.1143237299       -0.4817010607
 C          0.8489965545        4.1942650230       -0.3351551663
 H          1.5518527908        4.9910823072       -0.4789065024
 C          1.2003922948        2.8224112654       -0.1005511417
 C          2.5130596774        2.3451954570        0.0095539271
 C          2.8648081137        0.9977555017        0.1550626133
 C          4.1954488308        0.5268159184        0.3416408178
 H          5.0635956335        1.1422842321        0.4687239999
 C          4.1392065162       -0.8395974095        0.3266168908
 H          4.9496361082       -1.5316715055        0.4455132097
 C          2.7778876805       -1.1900665739        0.1237466495
 C          3.6245720714        3.3159042298       -0.0689015443
 C          3.8679619281        4.2354554513        0.9530737803
 C          4.9425563410        5.1079070941        0.8990380534
 C          5.7936361200        5.0759873068       -0.1930735331
 H          6.6373225412        5.7467992422       -0.2351675610
 C          5.5681189112        4.1874944142       -1.2311237356
 C          4.4908475700        3.3189990886       -1.1641048297
 Fe        -0.0086146086        0.0142010663        0.3672975728
 C         -3.3532153994        3.6024690926       -0.1961480954
 C         -3.6163111786        4.5171858056        0.8237679645
 C         -4.1113033711        3.6951245376       -1.3643776560
 C         -4.6074223534        5.4770177532        0.6935750333
 C         -5.0935357742        4.6577578819       -1.5156340706
 H         -4.7935401773        6.1635876213        1.5044412082
 C         -5.3432760482        5.5407137268       -0.4768922361
 H         -5.6552172626        4.7134710109       -2.4341889618
 H         -6.1134823826        6.2894099756       -0.5849323020
 C          3.3345447812       -3.5792194431       -0.1678393201
 C          3.4106453999       -4.5912609147        0.7904071342
 C          4.2526626021       -3.6186809329       -1.2210346120
 C          4.3516157778       -5.6029881008        0.7050027279
 C          5.2038051773       -4.6207019364       -1.3174723022
 H          4.3761126737       -6.3740914074        1.4576921581
 C          5.2459238724       -5.6110210709       -0.3504113811
 H          5.8934821934       -4.6243992170       -2.1479066451
 H          5.9778744878       -6.3976142104       -0.4274538897
 H         -4.7450988617       -5.9039248343        1.8057425811
 H         -6.3420761495       -4.2938473384       -1.8275310218
 H          5.1168342157        5.7996705480        1.7086838738
 H          6.2188497134        4.1595593974       -2.0902244681
 Cl         2.3009691334       -4.5842314151        2.1056815934
 Cl         4.1718423885       -2.4114119190       -2.4560198850
 Cl        -2.6849886027        4.4301534344        2.2795267815
 Cl        -3.7765985092        2.5965217064       -2.6590897006
 Cl         2.8179022361        4.2509069592        2.3240575292
 Cl         4.1965411483        2.2244973613       -2.4697503948
 Cl        -2.5043455371       -4.2382350737        2.2194546577
 Cl        -4.4817622635       -2.2461055258       -2.3862929467
 Cl        -0.0426722806       -0.0440186202        2.5012522929
  78
       -160.31370877
 N         -0.0755065965       -2.0319410743       -0.0793425122
 N         -2.0131247084        0.0846245221        0.0392625791
 C          2.3314498720       -2.5090368199       -0.0301176971
 C          0.9875899571       -2.8681027556       -0.2082051841
 C          0.5316966432       -4.1846215265       -0.5354081268
 H          1.1668820189       -5.0283895203       -0.7213176145
 C         -0.8258118112       -4.1347202896       -0.5703025656
 H         -1.5082252813       -4.9308029671       -0.7920717663
 C         -1.2015878142       -2.7886813525       -0.2556246697
 C         -2.5055859135       -2.3290325228       -0.1114997840
 C         -2.8623771473       -0.9779149065        0.1119399282
 C         -4.1866695304       -0.5262828379        0.3662887697
 H         -5.0444382356       -1.1568118735        0.5082066914
 C         -4.1394215293        0.8392054995        0.4028790535
 H         -4.9513101330        1.5194988507        0.5748352580
 C         -2.7848179333        1.2110681267        0.1685726381
 C         -3.6102863105       -3.3008322944       -0.2135556690
 C         -3.7669350911       -4.3380851567        0.7095643867
 C         -4.8207316439       -5.2362841066        0.6143853944
 C         -5.7497963437       -5.0959222381       -0.3967098413
 H         -6.5760878192       -5.7877570600       -0.4670949638
 C         -5.6202283309       -4.0823232290       -1.3303758490
 C         -4.5558767801       -3.2032945610       -1.2381193340
 N          0.0724980926        2.0549625264       -0.0655134363
 N          2.0119447978       -0.0672502436        0.0029239733
 C         -2.3333445484        2.5266027078        0.0015898794
 C         -0.9921816814        2.8923608105       -0.1746069267
 C         -0.5393632362        4.2146608599       -0.4853714271
 H         -1.1767781994        5.0614368766       -0.6477315599
 C          0.8176402641        4.1655599405       -0.5359141019
 H          1.4984227083        4.9652952285       -0.7532252000
 C          1.1963049543        2.8132714985       -0.2463902718
 C          2.5018092583        2.3503452363       -0.1324628491
 C          2.8597005320        0.9961536316        0.0755570115
 C          4.1850782207        0.5453175282        0.3229029417
 H          5.0410097892        1.1743891038        0.4634606939
 C          4.1387507453       -0.8201431746        0.3582095053
 H          4.9500610705       -1.4996126205        0.5273059393
 C          2.7840732348       -1.1931691906        0.1274892765
 C          3.6142487515        3.3128122028       -0.2382454912
 C          3.8071381675        4.3229228301        0.7070575921
 C          4.8944113699        5.1792329373        0.6359001084
 C          5.8122833139        5.0387988213       -0.3919358957
 H          6.6662969961        5.6954657705       -0.4455933739
 C          5.6410720135        4.0593023322       -1.3542591501
 C          4.5496290732        3.2104899647       -1.2728591850
 Fe         0.0020825637        0.0097493698        0.3416567597
 C         -3.3571694140        3.5906156203       -0.0301964097
 C         -3.4468274402        4.5467910892        0.9826024021
 C         -4.2860831926        3.6630741657       -1.0712669783
 C         -4.4363929431        5.5163267567        0.9754595200
 C         -5.2773648025        4.6286119177       -1.0930094188
 H         -4.4875934341        6.2299545939        1.7808665485
 C         -5.3531738382        5.5476589041       -0.0611249213
 H         -5.9795497858        4.6520706477       -1.9103249991
 H         -6.1310094581        6.2888601204       -0.0630753774
 C          3.3381230639       -3.5872250327       -0.0219890310
 C          3.3430617345       -4.5593216266        0.9804869380
 C          4.3252623003       -3.6723052822       -1.0077995230
 C          4.3005578489       -5.5613857489        1.0110649014
 C          5.2891554225       -4.6664293439       -0.9840754901
 H          4.2769120633       -6.2918357107        1.8019737886
 C          5.2752303080       -5.6071501337        0.0309180748
 H          6.0386396738       -4.6996435800       -1.7586974350
 H          6.0269513246       -6.3804580243        0.0582262531
 H         -4.9130149195       -6.0249294221        1.3435680491
 H         -6.3346053726       -3.9736935062       -2.1345742025
 H          5.0210638431        5.9396609230        1.3907959185
 H          6.3465788216        3.9421649760       -2.1614929945
 Cl         2.1556695978       -4.4835692897        2.2318021584
 Cl         4.3264250788       -2.5294145874       -2.3006743063
 Cl        -2.3161109162        4.4868137610        2.2896094795
 Cl        -4.1805393027        2.5276554234       -2.3703195600
 Cl         2.6935620963        4.4762657642        2.0215489577
 Cl         4.3342033401        1.9980699899       -2.4820921024
 Cl        -2.6297415812       -4.5018020422        2.0063591419
 Cl        -4.3714089249       -1.9773474751       -2.4405459083
 Cl         0.0315824680        0.0047673953        2.4758582872
  78
       -160.31365541
 N         -0.1020528627       -2.0654564846       -0.2275290626
 N         -1.9798612427        0.1055505680       -0.1700814481
 C          2.2606637478       -2.5888861934        0.0180203614
 C          0.9288061318       -2.9351826926        0.0303039490
 C          0.3925820367       -4.2549096323        0.2570962798
 H          0.9729505737       -5.1195456858        0.5105350711
 C         -0.9445625334       -4.1711297586        0.0809695907
 H         -1.6736572705       -4.9533393137        0.1674031839
 C         -1.2469321148       -2.7944278878       -0.2137240822
 C         -2.5275622918       -2.2875514956       -0.4322884080
 C         -2.8299774137       -0.9135071144       -0.5125131909
 C         -4.0970328033       -0.3789460831       -0.8630131824
 H         -4.9399614231       -0.9457235510       -1.2055074474
 C         -4.0158291072        0.9798971837       -0.6854670314
 H         -4.7814210784        1.7109616507       -0.8573123080
 C         -2.7023854100        1.2540228161       -0.2387638523
 C         -3.6542226764       -3.2300946786       -0.5496280221
 C         -4.7091501722       -3.2153517810        0.3685190239
 C         -5.7920012036       -4.0694914796        0.2416873553
 C         -5.8354191976       -4.9673240334       -0.8096525353
 H         -6.6802386312       -5.6293853059       -0.9171606769
 C         -4.7985123917       -5.0206343663       -1.7249778743
 C         -3.7221950892       -4.1591237685       -1.5900704526
 N          0.1345648278        2.0269861876       -0.0785079868
 N          2.0123781680       -0.1263153570       -0.1562450827
 C         -2.2305284666        2.5549545801        0.1218369960
 C         -0.8960891929        2.8815267703        0.2228822751
 C         -0.3566589909        4.1782433676        0.5495095284
 H         -0.9333445752        5.0208262424        0.8778657599
 C          0.9809268549        4.1061723869        0.3632600990
 H          1.7122347399        4.8780813267        0.5051178580
 C          1.2773095405        2.7543872269       -0.0359167742
 C          2.5509995911        2.2706702093       -0.3476973679
 C          2.8571070291        0.9048323765       -0.4848143282
 C          4.1134101880        0.3806868483       -0.8860969674
 H          4.9476414541        0.9568809278       -1.2342278353
 C          4.0362107136       -0.9831156509       -0.7416648078
 H          4.7954683733       -1.7121600044       -0.9480116689
 C          2.7318104781       -1.2691053950       -0.2800695261
 C          3.6290511961        3.2535909016       -0.5479584878
 C          4.7713054722        3.2800871955        0.2573765750
 C          5.7844246831        4.2000386787        0.0459763766
 C          5.6695741766        5.1230956247       -0.9791712483
 H          6.4582007599        5.8402334782       -1.1451392115
 C          4.5476317257        5.1316816769       -1.7881497518
 C          3.5436944202        4.2041638465       -1.5703016754
 Fe         0.0134692665       -0.0322379045        0.2304905416
 C         -3.2638587869        3.5739095336        0.3678321749
 C         -4.2044686525        3.3844516062        1.3840499417
 C         -3.3819829926        4.7277940943       -0.4096556366
 C         -5.2189032873        4.2977134633        1.6140201404
 C         -4.3886492863        5.6525414478       -0.1827318054
 H         -5.9277512343        4.1189393428        2.4096054765
 C         -5.3072393598        5.4310030485        0.8256142963
 H         -4.4556333546        6.5289280231       -0.8108040110
 H         -6.0974535791        6.1451045997        0.9969074987
 C          3.2978700436       -3.5771700352        0.3577877300
 C          4.0882310399       -3.3639676897        1.4928427202
 C          3.5551610498       -4.7188422770       -0.4014130889
 C          5.0762431784       -4.2572073445        1.8651130508
 C          4.5420402846       -5.6219727542       -0.0388988862
 H          5.6620292033       -4.0670309006        2.7481669095
 C          5.2968292175       -5.3886109664        1.0971245035
 H          4.7176778472       -6.4959555374       -0.6510932228
 H          6.0677013771       -6.0864951075        1.3808890777
 H         -6.5898694255       -4.0245535877        0.9640960811
 H         -4.8247828124       -5.7180230187       -2.5453404443
 H          6.6488137282        4.1928727733        0.6886124322
 H          4.4441715853        5.8482179986       -2.5811716501
 Cl         3.7936422585       -1.9619089750        2.4617608332
 Cl         2.6582343294       -4.9871345384       -1.8569649718
 Cl        -4.0728034580        1.9902437423        2.3916937229
 Cl        -2.2926320681        4.9842684930       -1.7343012013
 Cl         4.9043412665        2.1698289103        1.5754052834
 Cl         2.1628404605        4.2024996419       -2.6104592250
 Cl        -4.6464910194       -2.1317042828        1.7114999793
 Cl        -2.4542762032       -4.2083884275       -2.7587627861
 Cl        -0.0210558862       -0.1190112938        2.3638840947
  78
       -160.31361873
 N         -0.0823775439       -2.0186021924       -0.1329166306
 N         -1.9967835233        0.0884324324        0.0286059625
 C          2.3332491864       -2.4907243003       -0.1358717996
 C          0.9785507470       -2.8544505697       -0.3100082092
 C          0.5248752017       -4.1510242742       -0.6604243184
 H          1.1564441522       -4.9907392942       -0.8765764354
 C         -0.8443179454       -4.0970039046       -0.6736745888
 H         -1.5326558933       -4.8840792407       -0.9112795743
 C         -1.2042194293       -2.7689710891       -0.3123539128
 C         -2.5220789700       -2.3057203461       -0.1225607755
 C         -2.8555748465       -0.9665308382        0.0992379173
 C         -4.1888503975       -0.4945835040        0.3510087314
 H         -5.0451104695       -1.1211850809        0.5063052810
 C         -4.1331596719        0.8589501486        0.3622500107
 H         -4.9366558672        1.5533799002        0.5121152296
 C         -2.7628690402        1.2240660493        0.1408699002
 C         -3.6101688284       -3.2974878259       -0.1633283344
 C         -3.6746807253       -4.3403356773        0.7684362729
 C         -4.6949909971       -5.2752493465        0.7371348646
 C         -5.6855842624       -5.1781536464       -0.2275627392
 H         -6.4843644615       -5.9019143576       -0.2510831060
 C         -5.6516644473       -4.1591721697       -1.1623783357
 C         -4.6173967855       -3.2377951651       -1.1294131436
 N          0.1000190062        2.0636687893       -0.0455663696
 N          2.0249175430       -0.0562522448       -0.0671579369
 C         -2.3153621854        2.5251296212       -0.0084070685
 C         -0.9657829529        2.9062633047       -0.1625931747
 C         -0.5174126576        4.2224117819       -0.4433088620
 H         -1.1519828922        5.0738794749       -0.5939678325
 C          0.8513781587        4.1713041188       -0.4818271522
 H          1.5352147917        4.9729375049       -0.6812173395
 C          1.2179977632        2.8224983450       -0.2141979914
 C          2.5412355684        2.3454591365       -0.1206833725
 C          2.8851943059        0.9966229852        0.0054627760
 C          4.2285717479        0.5183625686        0.1848349733
 H          5.0940893315        1.1396265554        0.3082291049
 C          4.1713571153       -0.8351573776        0.1835225436
 H          4.9789977748       -1.5330756545        0.2903937309
 C          2.7934215428       -1.1953794364        0.0041509614
 C          3.6371955626        3.3292765450       -0.1686583530
 C          3.7978319864        4.2931084686        0.8301524549
 C          4.8405598817        5.2038969036        0.7988104379
 C          5.7525298142        5.1627267790       -0.2417287977
 H          6.5704702060        5.8656702492       -0.2667062808
 C          5.6204820235        4.2248952842       -1.2511316035
 C          4.5691975151        3.3247617276       -1.2110836141
 Fe         0.0218911554        0.0128994137        0.3250597508
 C         -3.3486596312        3.5849082422       -0.0616240418
 C         -3.6104407014        4.4087349565        1.0306952861
 C         -4.1195907325        3.7572347600       -1.2106549129
 C         -4.6194919819        5.3578058835        0.9894924474
 C         -5.1253911841        4.7063522678       -1.2696935742
 H         -4.8116671460        5.9714396466        1.8550062510
 C         -5.3747637109        5.4982876693       -0.1618486913
 H         -5.7058390545        4.8146242884       -2.1718456912
 H         -6.1674250489        6.2305150266       -0.1965255337
 C          3.3123301256       -3.5984558544       -0.0761721386
 C          3.3889267952       -4.3952668940        1.0663974011
 C          4.1701788433       -3.8860817935       -1.1349948120
 C          4.2990857996       -5.4359217774        1.1561617040
 C          5.0777443873       -4.9302431225       -1.0631183289
 H          4.3451150933       -6.0285450617        2.0553922223
 C          5.1388498225       -5.6979207906        0.0874467688
 H          5.7249902183       -5.1355325791       -1.9005545321
 H          5.8475990820       -6.5086874272        0.1512469583
 H         -4.7133776205       -6.0666039373        1.4688723598
 H         -6.4148781594       -4.0766822980       -1.9194170225
 H          4.9350677555        5.9296680965        1.5901184508
 H          6.3225596974        4.1870548009       -2.0688793399
 Cl         2.3353131928       -4.0474053947        2.3888136551
 Cl         4.0760033941       -2.9216821134       -2.5664143011
 Cl        -2.6646377075        4.2075107976        2.4609785836
 Cl        -3.7991476390        2.7585697130       -2.5827240538
 Cl         2.6911829347        4.3167576119        2.1614078756
 Cl         4.3872189612        2.1880966654       -2.5001269834
 Cl        -2.4851597630       -4.4375668186        2.0110752634
 Cl        -4.5558492335       -2.0074302815       -2.3446690302
 Cl         0.0809997231       -0.0429049948        2.4572669752
  78
       -160.31358985
 N         -0.0776732124       -2.0590413113       -0.0862354194
 N         -2.0057763447        0.0737570701       -0.0820675927
 C          2.3168891816       -2.5344545059       -0.1595402470
 C          0.9789121657       -2.9104043552       -0.0765496983
 C          0.5168386918       -4.2693390314        0.0428959783
 H          1.1563393978       -5.1298768333        0.0817442243
 C         -0.8323984976       -4.2211196769        0.1157973440
 H         -1.5252098290       -5.0337890969        0.2185304304
 C         -1.2081129164       -2.8335246439        0.0136546968
 C         -2.4968618318       -2.3581107196       -0.0358682452
 C         -2.8465355214       -0.9886124677       -0.2148743224
 C         -4.1413420524       -0.5532571315       -0.5732407216
 H         -4.9842611887       -1.1888957489       -0.7611736454
 C         -4.0874650140        0.8169473041       -0.6469976838
 H         -4.8784116566        1.4892898857       -0.9159480234
 C         -2.7614766102        1.1928018116       -0.3125717183
 C         -3.6345109281       -3.2959500341        0.0754207849
 C         -4.3881481489       -3.3371736701        1.2485019343
 C         -5.4881159041       -4.1702725542        1.3693757584
 C         -5.8548552545       -4.9691024769        0.3000411960
 H         -6.7176080421       -5.6111592904        0.3833768160
 C         -5.1273269086       -4.9481481893       -0.8775447648
 C         -4.0227560574       -4.1182582959       -0.9798955384
 N          0.0703699513        2.0437777712       -0.0257073697
 N          2.0053000491       -0.0845635489        0.0017897930
 C         -2.3178434445        2.5257248023       -0.1982505635
 C         -0.9857518529        2.8949001446       -0.0111625003
 C         -0.5267400962        4.2454141734        0.1935148566
 H         -1.1650140040        5.1031625805        0.2805816948
 C          0.8222686496        4.1958161319        0.2665997943
 H          1.5142471399        5.0023002160        0.4142995422
 C          1.1996708081        2.8139466215        0.1147665784
 C          2.4911670628        2.3462094157        0.0639109212
 C          2.8554871435        0.9772542214       -0.0695978847
 C          4.1768719507        0.5375825589       -0.3115959111
 H          5.0364148535        1.1681158483       -0.4260294471
 C          4.1281401697       -0.8319525321       -0.3814392001
 H          4.9410012423       -1.5061261254       -0.5673490847
 C          2.7750640338       -1.2034400428       -0.1751957298
 C          3.6210788803        3.3009621883        0.0651216697
 C          4.4421455568        3.4450058802        1.1833327244
 C          5.5599075813        4.2640742087        1.1539825985
 C          5.8731749156        4.9440662864       -0.0079944895
 H          6.7551287278        5.5647070835       -0.0422867632
 C          5.0693272891        4.8317198714       -1.1286641394
 C          3.9492634610        4.0179750887       -1.0829365720
 Fe        -0.0084450553       -0.0128420284        0.3253405826
 C         -3.3444078523        3.5788683945       -0.2930645703
 C         -4.3782535940        3.6655306486        0.6452635168
 C         -3.3489293349        4.5045839745       -1.3391774607
 C         -5.3777746056        4.6180535025        0.5366289899
 C         -4.3383268482        5.4671787974       -1.4549670522
 H         -6.1634026425        4.6499909004        1.2740304987
 C         -5.3554551727        5.5158612636       -0.5168983999
 H         -4.3114572082        6.1620258684       -2.2787484227
 H         -6.1355271207        6.2550941371       -0.6085029009
 C          3.3576396461       -3.5776901050       -0.2631468734
 C          4.2552774259       -3.8050575725        0.7811662302
 C          3.5257624692       -4.3152239415       -1.4346982013
 C          5.2930813443       -4.7138156012        0.6568627560
 C          4.5625953426       -5.2231065541       -1.5761915444
 H          5.9726526052       -4.8626928890        1.4802029580
 C          5.4478808611       -5.4118828372       -0.5288217052
 H          4.6778636084       -5.7617241245       -2.5029165425
 H          6.2648927648       -6.1060383138       -0.6383833298
 H         -6.0486101461       -4.1844137101        2.2899023779
 H         -5.4133656053       -5.5617979566       -1.7161208775
 H          6.1807275810        4.3538443994        2.0306110921
 H          5.3091878215        5.3577355371       -2.0392852693
 Cl         4.0503090307       -2.9305694938        2.2568584618
 Cl         2.4333704047       -4.0534522352       -2.7478019454
 Cl        -4.3932714813        2.5763399362        1.9855480005
 Cl        -2.1135037254        4.4191278563       -2.5466355881
 Cl         4.0411753646        2.5672175898        2.6151437682
 Cl         2.9533240703        3.8488905989       -2.4839445678
 Cl        -3.9139992362       -2.3245200927        2.5655895934
 Cl        -3.1187501798       -4.0660716605       -2.4511923334
 Cl        -0.0558022847       -0.0484382926        2.4579485045
  78
       -160.31348536
 N         -0.1075011452       -2.0658487838       -0.2460112637
 N         -2.0232661421        0.0819687681       -0.1168854603
 C          2.2718264047       -2.5760052246       -0.0892132183
 C          0.9456781958       -2.9392333813       -0.1290652678
 C          0.4457123547       -4.2897873211       -0.0690525464
 H          1.0594561325       -5.1641271134        0.0284278943
 C         -0.8998758789       -4.2161146451       -0.1778623453
 H         -1.6112822315       -5.0188570287       -0.1864040675
 C         -1.2379472577       -2.8185752370       -0.2565488309
 C         -2.5396509164       -2.3274243898       -0.3063413015
 C         -2.8924990822       -0.9680567935       -0.2701682055
 C         -4.2230399634       -0.4849036797       -0.3498329793
 H         -5.0979517796       -1.0929489094       -0.4708368253
 C         -4.1533152373        0.8817745516       -0.2459550149
 H         -4.9612392185        1.5856622438       -0.2718682991
 C         -2.7846164919        1.2080784477       -0.1009619390
 C         -3.6486091310       -3.3077436773       -0.3712919704
 C         -4.1380891911       -3.9077754995        0.7875351354
 C         -5.1822315442       -4.8162455162        0.7414713932
 C         -5.7526252631       -5.1348150888       -0.4794318992
 H         -6.5678168285       -5.8395743329       -0.5188095467
 C         -5.2874931567       -4.5558020420       -1.6465051028
 C         -4.2413864239       -3.6492462670       -1.5833731360
 N          0.0922427521        2.0307043384       -0.1508776897
 N          1.9978537121       -0.1074543057       -0.1638622493
 C         -2.2942670638        2.5387891300        0.0113102376
 C         -0.9650419991        2.8940821792       -0.0127176824
 C         -0.4729392905        4.2452978218        0.0856175390
 H         -1.0912564182        5.1128496233        0.2122089214
 C          0.8740864235        4.1800193268       -0.0047481493
 H          1.5793870683        4.9881177030        0.0396526452
 C          1.2182640692        2.7899173052       -0.1585031629
 C          2.5202525385        2.3078766189       -0.2780867200
 C          2.8618780151        0.9425046980       -0.3376769953
 C          4.1703279086        0.4527901903       -0.5707081252
 H          5.0382601394        1.0494036083       -0.7691285173
 C          4.0989733249       -0.9178357347       -0.5025813807
 H          4.8914719938       -1.6285583494       -0.6326493413
 C          2.7491022539       -1.2390372784       -0.2415874125
 C          3.6285155600        3.2798399988       -0.3322636133
 C          4.5848110407        3.3380610812        0.6865054814
 C          5.6511593219        4.2165908709        0.6271552454
 C          5.7767968388        5.0636992456       -0.4591950436
 H          6.6117078327        5.7495897926       -0.5120067050
 C          4.8379971242        5.0427774848       -1.4763012216
 C          3.7754527028        4.1591504170       -1.4042807766
 Fe        -0.0092833291       -0.0240715271        0.1922131053
 C         -3.3064078623        3.6123505039        0.1138294112
 C         -3.9626190554        3.8681347774        1.3159789197
 C         -3.6381564343        4.3940049042       -0.9915698162
 C         -4.9104133223        4.8725341609        1.4185533776
 C         -4.5931495358        5.3927373243       -0.9088221746
 H         -5.3939317571        5.0548750319        2.3640522745
 C         -5.2232986453        5.6274030227        0.3005950158
 H         -4.8363428103        5.9740313913       -1.7832275946
 H         -5.9658575157        6.4065034079        0.3714115980
 C          3.3067854995       -3.5875255489        0.2054909477
 C          3.9352683055       -3.5465908374        1.4531256208
 C          3.7205497500       -4.5642194998       -0.6982405416
 C          4.9326405309       -4.4452249423        1.7900134201
 C          4.7215024704       -5.4667814015       -0.3759633305
 H          5.3951544690       -4.3886826942        2.7618598902
 C          5.3235384317       -5.4019541431        0.8689121151
 H          5.0288377216       -6.2016905796       -1.1018114381
 H          6.1068487163       -6.0994692404        1.1191855880
 H         -5.5423988022       -5.2631779658        1.6533416686
 H         -5.7243888994       -4.7977709384       -2.6011678144
 H          6.3698549432        4.2349841499        1.4306635389
 H          4.9257159612        5.7045801368       -2.3226367120
 Cl         3.4270506246       -2.3513170947        2.5948667713
 Cl         2.9885181479       -4.6183358841       -2.2626064141
 Cl        -3.5556520937        2.9133429015        2.6970843826
 Cl        -2.8386162879        4.0858723459       -2.4918843782
 Cl         4.4126137783        2.3074089835        2.0606869160
 Cl         2.6263733925        4.1123447115       -2.6965659616
 Cl        -3.4155691470       -3.4861413125        2.2997837187
 Cl        -3.6447680337       -2.9175312043       -3.0284336894
 Cl         0.0234833268       -0.0441455298        2.3241998652
  78
       -160.31347491
 N         -0.0582882947       -2.0519444281       -0.1893115786
 N         -1.9884152423        0.0807931851       -0.1055423853
 C          2.3400746959       -2.5348445945       -0.1530934682
 C          0.9985882026       -2.9039039170       -0.1740877900
 C          0.5322447367       -4.2666942829       -0.1426389483
 H          1.1678333727       -5.1304647801       -0.1285983866
 C         -0.8179726593       -4.2201657729       -0.1124870247
 H         -1.5141381547       -5.0354353787       -0.0752792392
 C         -1.1892186378       -2.8286363387       -0.1493167722
 C         -2.4790666340       -2.3541603846       -0.1459464625
 C         -2.8358994700       -0.9777219450       -0.2382922852
 C         -4.1489550203       -0.5293336094       -0.5084540501
 H         -5.0015879060       -1.1603890609       -0.6705508378
 C         -4.0993855375        0.8432079088       -0.5273154830
 H         -4.9055579713        1.5254671293       -0.7218652781
 C         -2.7556455393        1.2064025394       -0.2507606835
 C         -3.6059982723       -3.3049272248       -0.0351085828
 C         -4.2983868561       -3.4120917823        1.1711594165
 C         -5.3814307961       -4.2632451382        1.3072615255
 C         -5.7970178145       -5.0127531074        0.2187408812
 H         -6.6478171023       -5.6689843548        0.3156454472
 C         -5.1267873440       -4.9311675185       -0.9896269276
 C         -4.0364524370       -4.0841522345       -1.1065546871
 N          0.0929552968        2.0461266107       -0.0662471184
 N          2.0324372875       -0.0846778072       -0.0393025935
 C         -2.3011539439        2.5361500229       -0.1297421956
 C         -0.9604641756        2.9009142773       -0.0082564344
 C         -0.4896494860        4.2522861480        0.1547988063
 H         -1.1191260506        5.1131471094        0.2756149870
 C          0.8612170740        4.2011952921        0.1483600063
 H          1.5583801101        5.0116640473        0.2378949636
 C          1.2278865564        2.8138541744        0.0140313825
 C          2.5208140093        2.3450808926       -0.0348239441
 C          2.8914537464        0.9744770517       -0.0855679580
 C          4.2260829067        0.5244522777       -0.1857076514
 H          5.0943792644        1.1515665019       -0.2351404032
 C          4.1779472670       -0.8492863959       -0.2036061307
 H          4.9987320473       -1.5348333849       -0.2775419558
 C          2.8112577903       -1.2093027691       -0.1185245601
 C          3.6171262356        3.3426941511       -0.0723939336
 C          4.2423942464        3.7824723608        1.0902134989
 C          5.2551447512        4.7279787493        1.0473886199
 C          5.6548548376        5.2416028864       -0.1740235105
 H          6.4465670254        5.9711473180       -0.2164569240
 C          5.0527960668        4.8191964117       -1.3473548550
 C          4.0392631144        3.8778293627       -1.2875697798
 Fe         0.0154963673       -0.0142814440        0.2633272712
 C         -3.3246291116        3.5980844517       -0.1392252623
 C         -4.2896913536        3.6742002045        0.8685580916
 C         -3.3881477264        4.5464015256       -1.1619405437
 C         -5.2742676181        4.6470883436        0.8539183876
 C         -4.3634265979        5.5288469194       -1.1835524760
 H         -6.0060243982        4.6769935093        1.6446403337
 C         -5.3083252144        5.5715560496       -0.1750779685
 H         -4.3824473513        6.2434267624       -1.9921269890
 H         -6.0742699965        6.3310590399       -0.1888352160
 C          3.3442320417       -3.6220586032       -0.1716635193
 C          4.0305377909       -3.9846258297        0.9861878597
 C          3.6135463939       -4.3275206222       -1.3442976440
 C          4.9484776012       -5.0225354624        0.9792629947
 C          4.5346139817       -5.3624685166       -1.3656073398
 H          5.4572446573       -5.2897341447        1.8913193505
 C          5.1954863664       -5.7057075298       -0.1985786640
 H          4.7231604486       -5.8897581199       -2.2859341535
 H          5.9070228990       -6.5153214892       -0.2081369798
 H         -5.8932648682       -4.3296127966        2.2534317438
 H         -5.4462095936       -5.5131201080       -1.8395830255
 H          5.7185500832        5.0563568339        1.9631266907
 H          5.3620163131        5.2122159201       -2.3034874620
 Cl         3.6962989649       -3.1296913676        2.4480399002
 Cl         2.7793509224       -3.8900438984       -2.7897299470
 Cl        -4.2276372364        2.5513016558        2.1787156223
 Cl        -2.2443798701        4.4650541554       -2.4634139000
 Cl         3.7241387609        3.1278608253        2.6018035474
 Cl         3.2704052625        3.3400585062       -2.7377369238
 Cl        -3.7541824718       -2.4711540897        2.5156836464
 Cl        -3.1960335338       -3.9646184941       -2.6112664703
 Cl        -0.0348095361       -0.0930905544        2.3956047296
  78
       -160.31335416
 N         -0.0926329839       -2.0501986509        0.0296801808
 N         -2.0342114978        0.0696825404       -0.0032014524
 C          2.3238832304       -2.5106137128        0.1261201698
 C          0.9720850925       -2.8800257972       -0.1186985893
 C          0.5361191570       -4.1680327433       -0.5221571668
 H          1.1767386974       -5.0021814996       -0.7309455928
 C         -0.8317328936       -4.1173716021       -0.5852301781
 H         -1.5072063820       -4.9015011077       -0.8654368379
 C         -1.2098568626       -2.7945748080       -0.2258421842
 C         -2.5320222278       -2.3288931651       -0.1190389752
 C         -2.8860517272       -0.9916787422        0.0638396645
 C         -4.2267587318       -0.5278957865        0.2911482655
 H         -5.0829011969       -1.1618034125        0.4168620600
 C         -4.1771752456        0.8233268231        0.3326029588
 H         -4.9869253849        1.5065962955        0.4989010965
 C         -2.8074889728        1.2022846368        0.1029136581
 C         -3.6165753381       -3.3201770263       -0.2545448758
 C         -3.7815990094       -4.3525567514        0.6730577522
 C         -4.7815769349       -5.2996708691        0.5297487997
 C         -5.6421993931       -5.2270432863       -0.5527364082
 H         -6.4139423622       -5.9694008576       -0.6754743032
 C         -5.5128613507       -4.2124016770       -1.4846526184
 C         -4.5058810539       -3.2738520398       -1.3318197359
 N          0.0662457758        2.0147970776       -0.0631613784
 N          1.9796090846       -0.0857859190        0.1879570304
 C         -2.3529116923        2.4921330812       -0.0825868525
 C         -0.9876391817        2.8263482112       -0.3239687921
 C         -0.5365162250        4.0728782543       -0.8286198456
 H         -1.1675432184        4.8814258783       -1.1441647611
 C          0.8337766645        4.0187311259       -0.8368717855
 H          1.5216383775        4.7750513583       -1.1598737568
 C          1.1950754420        2.7394974812       -0.3277350252
 C          2.5045605033        2.2922687533       -0.0788818851
 C          2.8290746798        0.9777444743        0.2616465552
 C          4.1482731382        0.5220729389        0.6070232558
 H          4.9919691864        1.1599329464        0.7849227856
 C          4.0975141318       -0.8287978995        0.6662354830
 H          4.8935994630       -1.5102887389        0.9002506339
 C          2.7445343964       -1.2136214366        0.3539492925
 C          3.6052965341        3.2586802839       -0.2469494061
 C          3.7012107540        4.4089207535        0.5428337736
 C          4.7159760970        5.3324744952        0.3541215810
 C          5.6671049822        5.1138288275       -0.6337279483
 H          6.4595985890        5.8292040072       -0.7865227497
 C          5.6081272019        3.9788461665       -1.4252263389
 C          4.5841907704        3.0666645409       -1.2302421421
 Fe        -0.0432033545       -0.0059476883        0.4386135643
 C         -3.3084999462        3.6117135245       -0.0306368522
 C         -3.1780656658        4.5995439254        0.9530196575
 C         -4.3566871388        3.7456125504       -0.9446826971
 C         -4.0682411742        5.6558262081        1.0397269548
 C         -5.2552021002        4.7957711201       -0.8656824958
 H         -3.9429071317        6.3955030729        1.8147973226
 C         -5.1095417541        5.7462780110        0.1311961755
 H         -6.0545613206        4.8699791785       -1.5860662274
 H         -5.8092738167        6.5637337903        0.1989051404
 C          3.3555611340       -3.5615895489        0.0377919344
 C          3.3989517881       -4.6338797310        0.9325608975
 C          4.3300246259       -3.5184194805       -0.9642613923
 C          4.3665629854       -5.6193362770        0.8388440347
 C          5.3087696617       -4.4937589900       -1.0647620795
 H          4.3727598124       -6.4321815881        1.5473366809
 C          5.3248016298       -5.5399588144       -0.1600223906
 H          6.0480172264       -4.4271768230       -1.8480478249
 H          6.0828036924       -6.3032491007       -0.2339356067
 H         -4.8823907572       -6.0847471815        1.2624677189
 H         -6.1768386023       -4.1485743060       -2.3325506050
 H          4.7568636660        6.2109568296        0.9783043212
 H          6.3431205028        3.7994266662       -2.1949273686
 Cl         2.2280160792       -4.7036343589        2.2026153130
 Cl         4.3039367811       -2.2417760379       -2.1275119913
 Cl        -1.9014512141        4.4711561573        2.1088749905
 Cl        -4.5145524332        2.5977181280       -2.2293950911
 Cl         2.5311094934        4.6787934605        1.7893883764
 Cl         4.4955085425        1.6805789262       -2.2615165973
 Cl        -2.7284250066       -4.4271914458        2.0417980206
 Cl        -4.3205255289       -2.0366135580       -2.5263038300
 Cl        -0.1760467678        0.0542030584        2.5665616848
  78
       -160.31334596
 N         -0.0595574950       -2.0565274847       -0.1795515700
 N         -1.9898694384        0.0748628768       -0.0897148096
 C          2.3526617991       -2.5150142336        0.0346032714
 C          0.9930391576       -2.9050031377       -0.1468745674
 C          0.5570943166       -4.2336680758       -0.3697538876
 H          1.1890686435       -5.0986322850       -0.4068297984
 C         -0.8043282329       -4.1786798478       -0.5376064735
 H         -1.4756124971       -4.9910930302       -0.7359684271
 C         -1.1761033619       -2.8165040024       -0.3911960974
 C         -2.4889083504       -2.3213852105       -0.3822809866
 C         -2.8403026217       -0.9887499114       -0.1685817486
 C         -4.1912808565       -0.5504002368        0.0539454332
 H         -5.0510299013       -1.1933595192        0.0650179587
 C         -4.1441569411        0.7828088732        0.2793889227
 H         -4.9567334076        1.4421489345        0.5168539647
 C         -2.7670437956        1.1846792351        0.1387116901
 C         -3.5919425445       -3.2891606091       -0.5698892214
 C         -3.9543518135       -4.1929899515        0.4282996185
 C         -5.0068271516       -5.0762199324        0.2503351057
 C         -5.7056177654       -5.0721710682       -0.9446384203
 H         -6.5265896806       -5.7580983589       -1.0865030614
 C         -5.3612920693       -4.1951448672       -1.9592470248
 C         -4.3138315612       -3.3114666127       -1.7623901003
 N          0.0820449910        2.0362062358       -0.1292769731
 N          2.0228117694       -0.0983410482       -0.2106681820
 C         -2.3229582587        2.4922561535        0.1565502598
 C         -0.9726091636        2.8853134675       -0.0757114153
 C         -0.5434966749        4.2122609341       -0.3256976300
 H         -1.1773854375        5.0769298770       -0.3624971426
 C          0.8148364918        4.1577301698       -0.5157855973
 H          1.4815021627        4.9694467179       -0.7327423535
 C          1.1912977288        2.7959725548       -0.3756852339
 C          2.5062411797        2.3047874597       -0.4282320237
 C          2.8702161521        0.9654697210       -0.3075025531
 C          4.2312785507        0.5159518312       -0.2017176528
 H          5.0939370669        1.1527291980       -0.2471236609
 C          4.1931230759       -0.8224981530       -0.0061464618
 H          5.0161879529       -1.4946372704        0.1357936713
 C          2.8076995677       -1.2140922687       -0.0424736004
 C          3.5843826036        3.3112218206       -0.5625072381
 C          3.9553870089        4.1106311670        0.5179539352
 C          4.9447252089        5.0717154230        0.3938910052
 C          5.5713267366        5.2494741599       -0.8272888899
 H          6.3349234543        6.0042039159       -0.9322439769
 C          5.2210478154        4.4737062512       -1.9193468091
 C          4.2372710010        3.5096720532       -1.7768296896
 Fe         0.0272293367       -0.0146926049        0.2195991669
 C         -3.2945233951        3.5804974867        0.3747093696
 C         -3.1901233697        4.4025281905        1.5002031742
 C         -4.3262461219        3.8525400137       -0.5275325252
 C         -4.0791183164        5.4395888881        1.7258150221
 C         -5.2289335999        4.8787571356       -0.3073333266
 H         -3.9670391848        6.0522853603        2.6050832700
 C         -5.1021273011        5.6684583685        0.8216374747
 H         -6.0163425726        5.0568733382       -1.0228805213
 H         -5.8009670792        6.4730660070        0.9927251480
 C          3.2953391441       -3.6047787695        0.3563927004
 C          3.1962315545       -4.2324478470        1.6016952019
 C          4.2758523453       -4.0615984493       -0.5239443827
 C          4.0531691613       -5.2582433354        1.9636204289
 C          5.1386356511       -5.0884893331       -0.1754676299
 H          3.9513356101       -5.7156546429        2.9354601409
 C          5.0254391643       -5.6797819654        1.0715389551
 H          5.8875528987       -5.4171463902       -0.8778083733
 H          5.6996197407       -6.4730134702        1.3516586403
 H         -5.2746059454       -5.7551900813        1.0439617115
 H         -5.8960339808       -4.1900391666       -2.8950599371
 H          5.2153723860        5.6723069116        1.2473008166
 H          5.7009536615        4.6108506970       -2.8745881938
 Cl         1.9881676019       -3.6845274189        2.7112544937
 Cl         4.3905142392       -3.3473722173       -2.0971567989
 Cl        -1.9328994271        4.0947332801        2.6491821137
 Cl        -4.4594919823        2.9163371372       -1.9740267617
 Cl         3.1666557525        3.8723988863        2.0352529879
 Cl         3.7810753467        2.5372345923       -3.1315378778
 Cl        -3.0851009612       -4.1748566100        1.9210421304
 Cl        -3.8675008525       -2.2135070195       -3.0221668625
 Cl         0.1021151210       -0.0525185432        2.3511124668
  78
       -160.31333701
 N         -0.0824325533       -2.0708035299       -0.1737454533
 N         -2.0127139723        0.0622364919       -0.1352366854
 C          2.3102748834       -2.5349837214       -0.2957238394
 C          0.9759007764       -2.9177734341       -0.1652309335
 C          0.5189476423       -4.2731197437        0.0192967473
 H          1.1572679402       -5.1326414182        0.0728511136
 C         -0.8278256188       -4.2234361989        0.1257927040
 H         -1.5166778304       -5.0328289122        0.2731140258
 C         -1.2088254914       -2.8407706352       -0.0083671494
 C         -2.4978249739       -2.3657962328       -0.0324451059
 C         -2.8525545457       -1.0039141253       -0.2515089825
 C         -4.1434645225       -0.5757345118       -0.6315940395
 H         -4.9850125761       -1.2171774009       -0.8065049483
 C         -4.0849257104        0.7907977938       -0.7522726102
 H         -4.8698974568        1.4554165569       -1.0541776087
 C         -2.7639989448        1.1760305877       -0.4020317118
 C         -3.6156647416       -3.3086039633        0.2001729729
 C         -4.1598975760       -3.4126610530        1.4806432183
 C         -5.2037320605       -4.2822153271        1.7487416808
 C         -5.7269015059       -5.0509728221        0.7216619137
 H         -6.5441415589       -5.7257111761        0.9217089775
 C         -5.2096562955       -4.9646193451       -0.5595388140
 C         -4.1552814613       -4.0999397211       -0.8094681894
 N          0.0638530234        2.0274407961       -0.0401656821
 N          1.9939646128       -0.0894499633       -0.0792692605
 C         -2.3216917831        2.5076454788       -0.2734316208
 C         -0.9992338703        2.8652698548        0.0060347671
 C         -0.5639056270        4.1920051126        0.3664644348
 H         -1.2146188556        5.0322256499        0.5166495208
 C          0.7805415920        4.1427023511        0.5039624242
 H          1.4507256949        4.9373179428        0.7829116031
 C          1.1809153455        2.7875533613        0.2097809255
 C          2.4782568653        2.3358220458        0.0986102104
 C          2.8332601576        0.9823919241       -0.1693220082
 C          4.1285303713        0.5598940200       -0.5467092954
 H          4.9695637137        1.2031641524       -0.7171045070
 C          4.0808804682       -0.8074346761       -0.6586137667
 H          4.8749897057       -1.4725586230       -0.9358264353
 C          2.7516875028       -1.1965872764       -0.3458137854
 C          3.5764761378        3.3139551039        0.2037931009
 C          4.5326583445        3.2248341430        1.2197155343
 C          5.5613740557        4.1494837514        1.3297549793
 C          5.6477326950        5.1886648351        0.4175663390
 H          6.4390763258        5.9167662169        0.5056959085
 C          4.7252393282        5.2972777962       -0.6088964631
 C          3.7045408405        4.3634947828       -0.7113065256
 Fe        -0.0152684914       -0.0332079179        0.2709986729
 C         -3.3000816573        3.5925159506       -0.4554245513
 C         -4.4287564747        3.7283898237        0.3574674749
 C         -3.1296951825        4.5384305577       -1.4758350101
 C         -5.3516114675        4.7412912220        0.1529519490
 C         -4.0374172556        5.5635471482       -1.6821168664
 H         -6.2145185040        4.8076072489        0.7949521706
 C         -5.1525621403        5.6573600750       -0.8688515657
 H         -3.8606371309        6.2758279528       -2.4674653572
 H         -5.8676248786        6.4491403374       -1.0249714153
 C          3.3412017091       -3.5862305964       -0.3595814897
 C          4.2981975296       -3.7168524105        0.6516228011
 C          3.4081831018       -4.4819475143       -1.4301328506
 C          5.2805174340       -4.6914721648        0.5948953832
 C          4.3873184710       -5.4576013222       -1.5011566585
 H          6.0004631260       -4.7659856731        1.3945269842
 C          5.3234051218       -5.5565063485       -0.4853565179
 H          4.4144694397       -6.1256225971       -2.3477644572
 H          6.0909217072       -6.3128539549       -0.5349688970
 H         -5.5988701062       -4.3485114140        2.7493751393
 H         -5.6158333631       -5.5564780814       -1.3633865325
 H          6.2787441218        4.0513570225        2.1287562898
 H          4.7913760914        6.0964116544       -1.3314497734
 Cl         4.2290671389       -2.6592156339        2.0164477663
 Cl         2.2601441491       -4.3390103112       -2.7158514770
 Cl        -4.6807135531        2.6279508030        1.6678788979
 Cl        -1.7674827330        4.4096499656       -2.5325326021
 Cl         4.4035295279        1.9484411892        2.3812097898
 Cl         2.5887439980        4.4802363274       -2.0272941699
 Cl        -3.4847145044       -2.4347687401        2.7395289116
 Cl        -3.4940363351       -3.9789103136       -2.4025008535
 Cl        -0.0515197551       -0.1080233451        2.4031965072
  78
       -160.31327777
 N         -0.0812611701       -2.0333959710        0.0628206709
 N         -2.0075678445        0.0964880209        0.0464133146
 C          2.3135543649       -2.5322502027       -0.0018756503
 C          0.9827944738       -2.8914884325        0.1185313498
 C          0.5064156161       -4.2386572488        0.2739494020
 H          1.1310512601       -5.1036268431        0.3818394260
 C         -0.8468069696       -4.1808998265        0.2755405926
 H         -1.5474792943       -4.9849920218        0.3875552844
 C         -1.2015847059       -2.7977074680        0.1242201381
 C         -2.5109661368       -2.3245476146        0.0169818991
 C         -2.8677097414       -0.9680362167       -0.0486992197
 C         -4.1945342057       -0.5050315456       -0.2475955398
 H         -5.0594045010       -1.1284629519       -0.3656136161
 C         -4.1363102792        0.8645440893       -0.2657581332
 H         -4.9428365166        1.5595432014       -0.4002941784
 C         -2.7771097995        1.2165075006       -0.0847652570
 C         -3.5712747607       -3.3484899706       -0.0969612673
 C         -4.4726884589       -3.6014659597        0.9367805648
 C         -5.4200423950       -4.6086927323        0.8343689682
 C         -5.4840139724       -5.3746330724       -0.3169713118
 H         -6.2177414517       -6.1639771143       -0.3913589134
 C         -4.6113357452       -5.1407659367       -1.3657461118
 C         -3.6651722403       -4.1363795475       -1.2468391894
 N          0.0906148410        2.0626984048       -0.0856434489
 N          2.0179857002       -0.0742037802        0.0265438448
 C         -2.3056260197        2.5539823678       -0.0796441701
 C         -0.9747590687        2.9222044497       -0.0537742553
 C         -0.4988953279        4.2782636256        0.0001035678
 H         -1.1262124217        5.1449815339        0.0576297294
 C          0.8536361394        4.2207709585       -0.0073699378
 H          1.5494012482        5.0359286220        0.0356195295
 C          1.2105130315        2.8303711102       -0.0688108633
 C          2.5212584488        2.3483696381       -0.0914913287
 C          2.8758261215        0.9879541380       -0.0974229919
 C          4.2024126835        0.5189470088       -0.2848466841
 H          5.0649147134        1.1412206820       -0.4235592696
 C          4.1442439509       -0.8509574659       -0.2753420796
 H          4.9521227140       -1.5457493167       -0.3931946631
 C          2.7864421054       -1.1984059670       -0.0714686299
 C          3.6054948077        3.3499952206       -0.1075919377
 C          4.4348137635        3.5290978942        1.0011707027
 C          5.4200848458        4.5027723574        1.0158065080
 C          5.5953897058        5.3131373201       -0.0935654431
 H          6.3579443482        6.0769931164       -0.0827091807
 C          4.7986806193        5.1514639242       -1.2134105791
 C          3.8148639624        4.1762279858       -1.2135657107
 Fe         0.0078219970        0.0279484634        0.3719618532
 C         -3.3111386014        3.6358120018       -0.1667715520
 C         -4.1137566416        3.9792623289        0.9198243646
 C         -3.4730030208        4.3595051490       -1.3490584417
 C         -5.0341051828        5.0122721514        0.8386743387
 C         -4.3940960513        5.3884176508       -1.4482214860
 H         -5.6339634497        5.2632170780        1.6988333901
 C         -5.1690573578        5.7123938940       -0.3475156539
 H         -4.5011817258        5.9226515566       -2.3791192834
 H         -5.8828918578        6.5189766490       -0.4139072358
 C          3.2771870108       -3.6451383571       -0.1419772197
 C          4.1667867722       -3.9952250396        0.8733012888
 C          3.2648872549       -4.4339754219       -1.2947762456
 C          4.9936883555       -5.1043686095        0.7600462842
 C          4.0888646382       -5.5406054749       -1.4224137490
 H          5.6561688535       -5.3598541300        1.5716572744
 C          4.9455347488       -5.8767818870       -0.3872727282
 H          4.0495138702       -6.1347166992       -2.3216433209
 H          5.5727935338       -6.7523087907       -0.4798455149
 H         -6.0939425883       -4.7930397747        1.6560823879
 H         -4.6534315624       -5.7273918205       -2.2698335532
 H          6.0352894673        4.6248763585        1.8922681204
 H          4.9332010007        5.7738086289       -2.0835249210
 Cl         4.1919835981       -3.0454397451        2.3159327057
 Cl         2.1942913350       -4.0180369844       -2.5860624891
 Cl        -3.9229372254        3.1054018740        2.3972946084
 Cl        -2.5058848968        3.9459874628       -2.7194682338
 Cl         4.1912456468        2.5367413304        2.3948450783
 Cl         2.8313639176        3.9568483770       -2.6164840492
 Cl        -4.3682552194       -2.6604587992        2.3796617896
 Cl        -2.5734936117       -3.8383788956       -2.5527465125
 Cl         0.0298225556        0.1207160995        2.5037874763
  78
       -160.31326207
 N         -0.0572310424       -2.0485455460        0.0493562622
 N         -1.9707722864        0.0675599031       -0.0995114228
 C          2.3362684895       -2.5256273548       -0.0798101234
 C          1.0079706276       -2.8954910869        0.0877094910
 C          0.5531593978       -4.2431496769        0.3016443774
 H          1.1954371786       -5.0986922357        0.3820628956
 C         -0.7945779302       -4.1917212967        0.4072877636
 H         -1.4754078325       -4.9976984542        0.5998490509
 C         -1.1781627933       -2.8180498355        0.1978685771
 C         -2.4733669844       -2.3559246044        0.0616803460
 C         -2.8097500193       -0.9998013573       -0.2142663773
 C         -4.0874263327       -0.5737064422       -0.6480255787
 H         -4.9247210887       -1.2125760588       -0.8515426467
 C         -4.0301178011        0.7931040541       -0.7601764969
 H         -4.8089154224        1.4604884431       -1.0751010462
 C         -2.7159195130        1.1769758931       -0.3920871209
 C         -3.6026613937       -3.2982791320        0.1564859597
 C         -4.5690742724       -3.1433400862        1.1554287672
 C         -5.6642566255       -3.9852683498        1.2397746272
 C         -5.8120241428       -5.0084497620        0.3195911542
 H         -6.6663767851       -5.6649748799        0.3810971987
 C         -4.8727633828       -5.1929067893       -0.6769813075
 C         -3.7856175710       -4.3381080526       -0.7558586311
 N          0.1115457519        2.0506545680       -0.1377810911
 N          2.0383073918       -0.0716418089        0.0129581253
 C         -2.2808164914        2.5177215075       -0.2982661799
 C         -0.9532975693        2.8998173393       -0.1434498267
 C         -0.4967633480        4.2552384170        0.0241240986
 H         -1.1370570317        5.1148086961        0.0754965125
 C          0.8517157142        4.2097642121        0.1087799646
 H          1.5372435224        5.0233278516        0.2452837278
 C          1.2324613013        2.8234299296       -0.0034891537
 C          2.5325192361        2.3564448731        0.0013374549
 C          2.8963573006        0.9833919006       -0.0791708292
 C          4.2179116964        0.5263817576       -0.2966581308
 H          5.0794166454        1.1539236294       -0.4166471026
 C          4.1602731684       -0.8442121839       -0.3354371069
 H          4.9671926157       -1.5360196291       -0.4789215500
 C          2.8021698918       -1.1998134812       -0.1388761739
 C          3.6368497366        3.3351861104        0.0441483380
 C          4.4785760228        3.4186287101        1.1560444429
 C          5.5279096547        4.3214025530        1.2015281407
 C          5.7547735517        5.1576644390        0.1217152735
 H          6.5731688302        5.8601959071        0.1499286513
 C          4.9401967415        5.0986753622       -0.9958616487
 C          3.8915499077        4.1938837179       -1.0264419292
 Fe         0.0235987637        0.0180712178        0.3291581951
 C         -3.3332333189        3.5490994195       -0.3377477048
 C         -4.3126345603        3.5977853897        0.6599748473
 C         -3.4217882436        4.4838705403       -1.3706402908
 C         -5.3372719054        4.5280219831        0.6232127236
 C         -4.4411213579        5.4209139454       -1.4179124004
 H         -6.0771652932        4.5351803404        1.4069091110
 C         -5.3995334699        5.4358910041       -0.4200500657
 H         -4.4826241273        6.1220984618       -2.2356895532
 H         -6.2002789014        6.1573617700       -0.4566679973
 C          3.3257898908       -3.6092636532       -0.2922511473
 C          4.0181497742       -4.2141526063        0.7523780521
 C          3.5751550768       -4.0613432596       -1.5875043602
 C          4.9314486359       -5.2315322342        0.5169682578
 C          4.4848232696       -5.0740652081       -1.8403591206
 H          5.4515147746       -5.6827168272        1.3468794901
 C          5.1612182383       -5.6550038531       -0.7809029894
 H          4.6550720954       -5.3993031805       -2.8544109002
 H          5.8714592864       -6.4454456926       -0.9683674051
 H         -6.3982601627       -3.8323432651        2.0189088897
 H         -4.9814452456       -5.9801451905       -1.4045727496
 H          6.1575885011        4.3661296511        2.0755328675
 H          5.1140253417        5.7423883992       -1.8430227057
 Cl         3.7173175912       -3.6808096524        2.3710177645
 Cl         2.7139479327       -3.3259456770       -2.8939878882
 Cl        -4.2238024014        2.4886911888        1.9808637870
 Cl        -2.2567422330        4.4414629120       -2.6467184770
 Cl         4.1740101971        2.3845142592        2.5053544886
 Cl         2.8945265660        4.1013225665       -2.4345231945
 Cl        -4.3672410948       -1.8888136726        2.3237083262
 Cl        -2.6545948073       -4.5461725139       -2.0543725250
 Cl        -0.0484856979        0.1343463450        2.4598049199
  78
       -160.31322244
 N         -0.0956041968       -2.0595818450       -0.0951204238
 N         -2.0199302240        0.0726693748       -0.0778674298
 C          2.2972900452       -2.5406521465       -0.1399904715
 C          0.9663831149       -2.9168589106       -0.1123986460
 C          0.4947942008       -4.2762103788       -0.1147948927
 H          1.1258525566       -5.1434809058       -0.1301082655
 C         -0.8589203233       -4.2216733143       -0.1031256488
 H         -1.5548408953       -5.0399490965       -0.1201588292
 C         -1.2224337811       -2.8287848279       -0.0740496610
 C         -2.5218687615       -2.3535795311       -0.0629394613
 C         -2.8842632256       -0.9856740084       -0.1111310409
 C         -4.2200267648       -0.5247039652       -0.2199977390
 H         -5.0946292714       -1.1456589687       -0.2421826949
 C         -4.1594570461        0.8443418358       -0.2902763118
 H         -4.9760155271        1.5308902046       -0.4016400987
 C         -2.7913239526        1.1984478794       -0.1869829205
 C         -3.6154957391       -3.3474925451        0.0028437741
 C         -3.8698844736       -4.0359107051        1.1906814928
 C         -4.8942235131       -4.9659111878        1.2761530339
 C         -5.6807026403       -5.2183538241        0.1663962766
 H         -6.4809445625       -5.9397436145        0.2292634113
 C         -5.4454113520       -4.5597327846       -1.0281485984
 C         -4.4176519807       -3.6328456117       -1.1008208663
 N          0.0753936320        2.0413247255       -0.0369434784
 N          1.9977140534       -0.0848338723       -0.0015393953
 C         -2.3178961474        2.5290895033       -0.1653078211
 C         -0.9874768308        2.8950870480       -0.0347851197
 C         -0.5247630260        4.2476189424        0.1320597318
 H         -1.1586841293        5.1101643839        0.1965771550
 C          0.8242553610        4.1942326348        0.2182095926
 H          1.5069494632        5.0074969874        0.3738564284
 C          1.1962363715        2.8109104570        0.0815758374
 C          2.4995651484        2.3432653516        0.0089749392
 C          2.8539542868        0.9744125558       -0.0984492607
 C          4.1719261883        0.5198631285       -0.3540707796
 H          5.0314182857        1.1451470788       -0.4977502780
 C          4.1159071649       -0.8518307942       -0.3845418699
 H          4.9195437359       -1.5410904823       -0.5577737297
 C          2.7630029787       -1.2077019121       -0.1591667757
 C          3.5931648195        3.3312518833       -0.0156590781
 C          4.5294153679        3.4068479136        1.0184005964
 C          5.5606452713        4.3316947954        0.9923422594
 C          5.6681145466        5.2038842781       -0.0772379418
 H          6.4685466391        5.9266750853       -0.1021059683
 C          4.7559488991        5.1561829550       -1.1181096246
 C          3.7326075195        4.2245558465       -1.0816394347
 Fe        -0.0180512616       -0.0141852301        0.3127037866
 C         -3.3026463137        3.6217528072       -0.3143781570
 C         -4.2142924283        3.9439926437        0.6907065287
 C         -3.3247864968        4.3889138678       -1.4820759907
 C         -5.1141768984        4.9878645042        0.5413872551
 C         -4.2214307058        5.4305985137       -1.6463521609
 H         -5.8042674053        5.2148867112        1.3380555849
 C         -5.1137399373        5.7259691840       -0.6291772220
 H         -4.2179779103        6.0011049995       -2.5645002212
 H         -5.8157545913        6.5406598232       -0.7520083047
 C          3.3259475974       -3.6070859746       -0.1303320782
 C          3.9909649463       -3.9315427656        1.0522845333
 C          3.6645499503       -4.3096654683       -1.2843714266
 C          4.9565591005       -4.9238708925        1.0855746080
 C          4.6335085838       -5.2989873487       -1.2684209274
 H          5.4518776447       -5.1557231219        2.0153900424
 C          5.2728054998       -5.6027956454       -0.0785203324
 H          4.8817918379       -5.8200511805       -2.1793044995
 H          6.0323237019       -6.3704929799       -0.0593949039
 H         -5.0704029465       -5.4805385315        2.2068714927
 H         -6.0469404659       -4.7593079740       -1.9003453825
 H          6.2656588528        4.3652539665        1.8071203201
 H          4.8342390557        5.8304712649       -1.9560874925
 Cl         3.5796139733       -3.0675366426        2.4890675310
 Cl         2.8661910113       -3.9096691640       -2.7641675246
 Cl        -4.1892904237        3.0398623811        2.1630991414
 Cl        -2.2176469440        4.0088810586       -2.7538415222
 Cl         4.3675743833        2.3455717673        2.3697974963
 Cl         2.6226742225        4.1403726905       -2.4043096376
 Cl        -2.8851308198       -3.7120232695        2.5677764460
 Cl        -4.0919200642       -2.8313168188       -2.5954333135
 Cl        -0.0711225636       -0.0448704760        2.4454049175
  78
       -160.31319751
 N         -0.0601517716       -2.0638869333       -0.1532106308
 N         -1.9748636353        0.0467694548       -0.2248795073
 C          2.3391118546       -2.5222233151       -0.3215871420
 C          1.0090869883       -2.9043401689       -0.1727224960
 C          0.5706846400       -4.2580125381        0.0392137978
 H          1.2165417696       -5.1146170911        0.0675306536
 C         -0.7676391921       -4.2124708928        0.2335498232
 H         -1.4291482319       -5.0255041801        0.4593723015
 C         -1.1700769033       -2.8384221821        0.0660580722
 C         -2.4675862068       -2.3691023509        0.0633556957
 C         -2.8226935732       -1.0128779727       -0.2252428148
 C         -4.1284436051       -0.5957207704       -0.5668446954
 H         -4.9824975367       -1.2297693261       -0.6657765182
 C         -4.0735127173        0.7648076374       -0.7469959414
 H         -4.8701954273        1.4274946680       -1.0211965200
 C         -2.7318441671        1.1528558427       -0.5087660552
 C         -3.5966138767       -3.2672935033        0.3604915981
 C         -4.4029283906       -3.0048069598        1.4764625343
 C         -5.5021319046       -3.7905025421        1.7772840772
 C         -5.8139417219       -4.8671241872        0.9621878493
 H         -6.6692825031       -5.4832165385        1.1917703864
 C         -5.0372866840       -5.1550148551       -0.1488451433
 C         -3.9470776324       -4.3540883131       -0.4446046073
 N          0.1148490506        2.0310898919       -0.2866907888
 N          2.0406684574       -0.0784625564       -0.1280219455
 C         -2.2797029529        2.4856953002       -0.4979140978
 C         -0.9507242754        2.8756944489       -0.3621241517
 C         -0.5060703985        4.2359216308       -0.2230927701
 H         -1.1451724103        5.0974551271       -0.2456508923
 C          0.8335103398        4.1976073970       -0.0398978448
 H          1.5067352836        5.0169624264        0.1184784475
 C          1.2248227997        2.8106648325       -0.0930528681
 C          2.5187688502        2.3457780136        0.0219579790
 C          2.8972070298        0.9760354899       -0.0992739035
 C          4.2303579310        0.5335393138       -0.2633331329
 H          5.0985358729        1.1628457651       -0.2881465479
 C          4.1779126529       -0.8321252117       -0.3994588193
 H          4.9955425021       -1.5128090523       -0.5403731581
 C          2.8115097105       -1.2000387061       -0.3037623856
 C          3.6016478306        3.3166715007        0.2743666349
 C          4.2406486532        3.3387962000        1.5159555796
 C          5.2403846943        4.2547440671        1.7995491197
 C          5.6231857298        5.1665247612        0.8309029159
 H          6.3983137408        5.8850632600        1.0475352180
 C          5.0183466442        5.1611280038       -0.4146034034
 C          4.0180946441        4.2411806534       -0.6837706807
 Fe         0.0246931814       -0.0036158618        0.1710950981
 C         -3.3256165114        3.5294721009       -0.5127364025
 C         -4.1626541473        3.6921901360        0.5946886773
 C         -3.5328638521        4.3637951413       -1.6096864886
 C         -5.1681487110        4.6446028871        0.6069649745
 C         -4.5356822981        5.3197299951       -1.6139176122
 H         -5.7986925001        4.7464923431        1.4766291630
 C         -5.3493140238        5.4568003877       -0.5000044298
 H         -4.6781573421        5.9415311635       -2.4833031773
 H         -6.1349489219        6.1973773949       -0.4958400053
 C          3.3480599894       -3.5960717324       -0.4853837195
 C          3.9847968816       -4.1780996697        0.6081901342
 C          3.6874452905       -4.0484050236       -1.7582688728
 C          4.9282389854       -5.1793999846        0.4413704768
 C          4.6342623110       -5.0437211560       -1.9432613178
 H          5.4026675323       -5.6150421090        1.3057479027
 C          5.2493933168       -5.6042295616       -0.8372828428
 H          4.8803076872       -5.3710138405       -2.9410197961
 H          5.9871243435       -6.3799217766       -0.9740217563
 H         -6.1037105496       -3.5533792124        2.6409102292
 H         -5.2797705313       -5.9847568355       -0.7938987147
 H          5.7035548525        4.2505839783        2.7729493560
 H          5.3137724070        5.8618571289       -1.1794624773
 Cl         3.5710530780       -3.6274707776        2.1933042744
 Cl         2.9037940771       -3.3370453190       -3.1221311031
 Cl        -3.9219701932        2.6810951202        1.9777950010
 Cl        -2.5401643043        4.1641169929       -3.0102574631
 Cl         3.7352052108        2.2128381609        2.7262385319
 Cl         3.2812730050        4.2177479383       -2.2464612469
 Cl        -3.9973587028       -1.6821376039        2.5118899739
 Cl        -3.0396158615       -4.6757495109       -1.8845437457
 Cl        -0.0331691300        0.0585369995        2.3037823524
  78
       -160.31319344
 N         -0.0611728203       -2.0258895982        0.0197943438
 N         -2.0019922873        0.0777221820        0.1284013817
 C          2.3605183106       -2.4862066181        0.1305563449
 C          1.0073222606       -2.8428270086       -0.1507737484
 C          0.5841859328       -4.1081044898       -0.6273802320
 H          1.2239582320       -4.9334216631       -0.8737794037
 C         -0.7820615593       -4.0534028572       -0.7229949128
 H         -1.4417582093       -4.8266339359       -1.0604246646
 C         -1.1738577863       -2.7598191583       -0.2897746770
 C         -2.4969878666       -2.3072254371       -0.1379930577
 C         -2.8445007248       -0.9887997350        0.1604493706
 C         -4.1799412799       -0.5478711745        0.4704094893
 H         -5.0212930908       -1.1995446591        0.6033924182
 C         -4.1365845807        0.8001024517        0.5740759965
 H         -4.9334391217        1.4786861089        0.8135433711
 C         -2.7776718032        1.1995625057        0.3046354314
 C         -3.5880817762       -3.2697398558       -0.3832286077
 C         -3.7647820708       -4.4083681537        0.4061306574
 C         -4.7752233177       -5.3190986033        0.1437118716
 C         -5.6351717390       -5.1034530064       -0.9186559053
 H         -6.4204161163       -5.8117660209       -1.1288707342
 C         -5.4932047136       -3.9806158471       -1.7136895444
 C         -4.4781488534       -3.0783883615       -1.4443520991
 N          0.0725871922        2.0429084136        0.0397678485
 N          2.0164695526       -0.0645584210        0.1520130757
 C         -2.3502655625        2.4983598823        0.1168416821
 C         -0.9941358932        2.8621811542       -0.1328377496
 C         -0.5644215682        4.1388292898       -0.5704132785
 H         -1.2052152523        4.9649040854       -0.8101981284
 C          0.8041449852        4.0909480552       -0.6385795087
 H          1.4707830722        4.8735469610       -0.9404310510
 C          1.1895360880        2.7834783230       -0.2364240937
 C          2.5099854863        2.3230196850       -0.1027871786
 C          2.8597020323        1.0004638291        0.1846745559
 C          4.1959641622        0.5574326786        0.4798997359
 H          5.0385949949        1.2098882182        0.6045301918
 C          4.1507371431       -0.7911372705        0.5833786980
 H          4.9514021966       -1.4676836480        0.8130328007
 C          2.7901922217       -1.1886513154        0.3206803477
 C          3.6028418832        3.2770437263       -0.3710368547
 C          3.8289882933        4.4029205530        0.4244004423
 C          4.8344196691        5.3095845214        0.1295688525
 C          5.6339593500        5.1049972025       -0.9811423986
 H          6.4122962083        5.8138083640       -1.2265027354
 C          5.4409054864        3.9974110324       -1.7883669695
 C          4.4384325888        3.0931433786       -1.4772068264
 Fe         0.0051084095        0.0067710775        0.4850410851
 C         -3.3500416480        3.5807507362        0.1044350311
 C         -3.3033189661        4.6189995763        1.0396021693
 C         -4.3687682896        3.6197153526       -0.8503492824
 C         -4.2289491967        5.6488431132        1.0245138741
 C         -5.3072700290        4.6396315086       -0.8701432797
 H         -4.1581292010        6.4370827637        1.7526971069
 C         -5.2329584221        5.6522102146        0.0714871482
 H         -6.0810966769        4.6363367811       -1.6229201351
 H         -5.9588054378        6.4509768380        0.0565368955
 C          3.3412179959       -3.5853808690        0.1378208642
 C          3.2394137849       -4.6308235851        1.0620975368
 C          4.3736966442       -3.6560140409       -0.8009461383
 C          4.1218268440       -5.6979919283        1.0525742435
 C          5.2692991719       -4.7125681155       -0.8139050002
 H          4.0092994254       -6.4913824348        1.7751358687
 C          5.1378369649       -5.7333768387        0.1120031340
 H          6.0537486091       -4.7326781856       -1.5540141875
 H          5.8265873397       -6.5628748580        0.0993192359
 H         -4.8824513534       -6.1880240385        0.7730373875
 H         -6.1542821551       -3.8027719301       -2.5471028024
 H          4.9843107896        6.1672365718        0.7713436827
 H          6.0610508418        3.8281383958       -2.6542623620
 Cl         1.9939561463       -4.5677746292        2.2564988352
 Cl         4.5168771551       -2.4240368923       -2.0090593130
 Cl        -2.0687599500        4.5978376855        2.2490076067
 Cl        -4.4434195082        2.3926018677       -2.0678454646
 Cl         2.8476450158        4.6467995682        1.8271396390
 Cl         4.1890886686        1.7295878740       -2.5078741271
 Cl        -2.7181748390       -4.6696657773        1.7565762007
 Cl        -4.2858039758       -1.7001130960       -2.4729875238
 Cl        -0.0056125003       -0.0063680703        2.6186554068
  78
       -160.31318433
 N         -0.0966731635       -2.0371739849       -0.1976906355
 N         -2.0127208561        0.1110720839       -0.0875117455
 C          2.2723448136       -2.5594355487        0.0802281529
 C          0.9459992019       -2.9137839715       -0.0451508690
 C          0.4412999890       -4.2648911337       -0.0511648518
 H          1.0449364282       -5.1439866292        0.0642138797
 C         -0.8960775765       -4.1839306762       -0.2321463323
 H         -1.6053905521       -4.9871920893       -0.2892715326
 C         -1.2268888787       -2.7846290472       -0.3038915664
 C         -2.5233058594       -2.2877070648       -0.4011882155
 C         -2.8784832303       -0.9288082952       -0.3128518780
 C         -4.2036188048       -0.4358196897       -0.4214937814
 H         -5.0750063793       -1.0293423373       -0.6168017393
 C         -4.1365550969        0.9234799063       -0.2414564356
 H         -4.9433207500        1.6297807390       -0.2506932963
 C         -2.7711449246        1.2386882070       -0.0411147961
 C         -3.6198316901       -3.2658831819       -0.5770033178
 C         -4.4784929619       -3.5881866795        0.4728273573
 C         -5.5033524052       -4.5034274101        0.3057935429
 C         -5.6807219577       -5.1088848095       -0.9258917708
 H         -6.4801342178       -5.8187088371       -1.0607506051
 C         -4.8447853351       -4.8105888884       -1.9867094891
 C         -3.8206770326       -3.8994961437       -1.8021198806
 N          0.1000322350        2.0499013919       -0.1015437648
 N          2.0058377362       -0.0988524760       -0.0493627382
 C         -2.2786467848        2.5656918678        0.1129083856
 C         -0.9502983101        2.9203616391        0.0379121665
 C         -0.4544369590        4.2732712637        0.0323600825
 H         -1.0709638721        5.1464841209        0.1248119083
 C          0.8857400363        4.2013244619       -0.1342591668
 H          1.5909206887        5.0038705776       -0.1951978005
 C          1.2253135753        2.8032438889       -0.1899836231
 C          2.5212704650        2.3068363153       -0.2919100553
 C          2.8743511821        0.9479387114       -0.2225180678
 C          4.2046552416        0.4622996747       -0.2957239484
 H          5.0813525102        1.0659261313       -0.4284614432
 C          4.1352482694       -0.9022132903       -0.1585700640
 H          4.9437463637       -1.6069553502       -0.1729906242
 C          2.7657874303       -1.2252258658       -0.0117338291
 C          3.6236426487        3.2767055984       -0.4933405411
 C          4.2751359195        3.8777184331        0.5801034494
 C          5.3066985379        4.7835880761        0.3812234779
 C          5.7018030671        5.0920946173       -0.9093878170
 H          6.5045389016        5.7963026422       -1.0713728597
 C          5.0753693421        4.5040850063       -1.9959852666
 C          4.0443359551        3.6047150499       -1.7800244999
 Fe        -0.0065762676       -0.0024624750        0.2634692100
 C         -3.2925463813        3.6191931830        0.3502065031
 C         -3.6929700243        3.9053426463        1.6537016143
 C         -3.8876000168        4.3238095111       -0.6918866174
 C         -4.6661921388        4.8545455852        1.9130313996
 C         -4.8692240059        5.2698952463       -0.4483761735
 H         -4.9593861115        5.0559173351        2.9303666366
 C         -5.2546369671        5.5267209415        0.8553262578
 H         -5.3245706905        5.7909890663       -1.2763609109
 H         -6.0244815575        6.2569636205        1.0514878984
 C          3.2861411808       -3.6106501771        0.2978865016
 C          3.9189676906       -3.7154198622        1.5380368927
 C          3.6670052321       -4.5015241435       -0.7048766293
 C          4.8889971177       -4.6743826490        1.7736659779
 C          4.6428431856       -5.4610080365       -0.4844034892
 H          5.3525052708       -4.7329912350        2.7452038561
 C          5.2488189109       -5.5430338863        0.7572040429
 H          4.9213556150       -6.1271136571       -1.2856162268
 H          6.0078084482       -6.2893739226        0.9330578439
 H         -6.1481874537       -4.7377734302        1.1365056614
 H         -4.9819288190       -5.2764259697       -2.9486847350
 H          5.7893137110        5.2358494579        1.2329033119
 H          5.3788054290        4.7366678233       -3.0043067328
 Cl         3.4475779119       -2.6284735008        2.7980887770
 Cl         2.9200792354       -4.3813150351       -2.2553249872
 Cl        -2.9482230237        3.0395508325        2.9494031755
 Cl        -3.3870461396        3.9856187365       -2.3089130470
 Cl         3.7741571116        3.4698805310        2.1805052704
 Cl         3.2521439219        2.8631129573       -3.1221815340
 Cl        -4.2410863238       -2.8310067137        2.0052355024
 Cl        -2.7734088111       -3.5097768819       -3.1191655317
 Cl        -0.0397067268       -0.0508373975        2.3955905364
  78
       -160.31316889
 N         -0.0761794924       -2.0606338937       -0.1075509382
 N         -1.9933603612        0.0840878187       -0.1319962035
 C          2.3137702146       -2.5574955265       -0.1182167322
 C          0.9808079225       -2.9228457616       -0.0706635448
 C          0.5007657685       -4.2775418492        0.0355746393
 H          1.1312438847       -5.1440699701        0.0873061486
 C         -0.8499070524       -4.2151363686        0.0699701625
 H         -1.5540204291       -5.0207460981        0.1501448233
 C         -1.2063928585       -2.8247183958       -0.0325204220
 C         -2.4995341683       -2.3399207075       -0.1079187799
 C         -2.8415375261       -0.9797755431       -0.2782358211
 C         -4.1350479344       -0.5278563503       -0.6278660365
 H         -4.9827843865       -1.1551813390       -0.8231962588
 C         -4.0689517175        0.8428673925       -0.6878396034
 H         -4.8553096792        1.5248312418       -0.9459772211
 C         -2.7436130089        1.2023709529       -0.3445777681
 C         -3.6362754968       -3.2827678834       -0.0056584256
 C         -4.3172377255       -3.4110479879        1.2042275957
 C         -5.4151796780       -4.2468771311        1.3258420642
 C         -5.8513647891       -4.9587656586        0.2212858941
 H         -6.7139403215       -5.6010926391        0.3060929329
 C         -5.1935895705       -4.8521607381       -0.9921445580
 C         -4.0899697662       -4.0205982566       -1.0954428285
 N          0.0906191017        2.0414461918       -0.0533437154
 N          2.0169090285       -0.0995141779        0.0123549055
 C         -2.2950785676        2.5438624836       -0.1965963339
 C         -0.9679027450        2.9036667978       -0.0282690829
 C         -0.4911224351        4.2496282637        0.1672117004
 H         -1.1170425253        5.1154675353        0.2606396772
 C          0.8591046242        4.1873001067        0.2130784203
 H          1.5601414579        4.9891838922        0.3422295552
 C          1.2180504483        2.8018950724        0.0701484276
 C          2.5174967348        2.3249714868        0.0273868273
 C          2.8762316321        0.9634670024       -0.0636187848
 C          4.1991601628        0.5073240169       -0.2805495123
 H          5.0634924571        1.1327194376       -0.3872864269
 C          4.1383077546       -0.8628434525       -0.3352526082
 H          4.9463872933       -1.5477271323       -0.5033627456
 C          2.7814026068       -1.2181040803       -0.1434513131
 C          3.6310741515        3.2991868881       -0.0120330011
 C          4.4413295040        3.5253178304        1.0993545740
 C          5.5261256739        4.3874682697        1.0327235714
 C          5.8097198390        5.0357667504       -0.1574363072
 H          6.6578673561        5.7002745503       -0.2174198907
 C          5.0133783887        4.8423780558       -1.2726874934
 C          3.9313035505        3.9792872397       -1.1910884479
 Fe        -0.0018908494       -0.0140815516        0.3012260473
 C         -3.3345589650        3.5870370301       -0.2214977529
 C         -4.3502343136        3.6039954999        0.7417553564
 C         -3.3818717290        4.5678764992       -1.2155261006
 C         -5.3723642892        4.5369864958        0.7054426240
 C         -4.3910259021        5.5157812045       -1.2546994042
 H         -6.1426199441        4.5083831512        1.4590165316
 C         -5.3896073959        5.4914256660       -0.2970263574
 H         -4.3944300079        6.2554802047       -2.0391099151
 H         -6.1848069287        6.2189312374       -0.3329922748
 C          3.3534366661       -3.6065658576       -0.1697757979
 C          4.1903034575       -3.8429466711        0.9211907306
 C          3.5744085614       -4.3481858748       -1.3302695330
 C          5.2178179280       -4.7698207743        0.8563933721
 C          4.6041202179       -5.2710740922       -1.4132879325
 H          5.8481521810       -4.9290288814        1.7161882159
 C          5.4258055701       -5.4734208620       -0.3177588181
 H          4.7622226882       -5.8134540480       -2.3314390657
 H          6.2355748757       -6.1833811959       -0.3814143285
 H         -5.9206027266       -4.3295458033        2.2742347325
 H         -5.5329121851       -5.4009728404       -1.8557897907
 H          6.1385606264        4.5381596272        1.9054765265
 H          5.2264236971        5.3449617199       -2.2023934880
 Cl         3.9180968416       -2.9562108470        2.3783014656
 Cl         2.5578597409       -4.0758727966       -2.6997159114
 Cl        -4.3093691183        2.4510831488        2.0289519076
 Cl        -2.1840551075        4.5720136127       -2.4630517878
 Cl         4.0753361677        2.7173853419        2.5686871496
 Cl         2.9421345470        3.7111030534       -2.5809304417
 Cl        -3.7581259180       -2.4994935871        2.5612028311
 Cl        -3.2605014248       -3.8656886203       -2.6026077814
 Cl        -0.0936705170       -0.0545233557        2.4326871188
  78
       -160.31311248
 N         -0.0929389720       -2.0304920861       -0.1073538103
 N         -2.0211823207        0.0947199431       -0.0825678229
 C          2.3066929047       -2.5145322922       -0.1987273721
 C          0.9645122076       -2.8775528712       -0.2754606941
 C          0.4808029479       -4.2082641388       -0.4996006919
 H          1.0966024778       -5.0624656876       -0.7033772386
 C         -0.8754249008       -4.1545685976       -0.4126763791
 H         -1.5782847065       -4.9572270766       -0.5272648147
 C         -1.2203651394       -2.7905708249       -0.1540767474
 C         -2.5288899095       -2.3147101606        0.0040750648
 C         -2.8894466189       -0.9609086466        0.0374214327
 C         -4.2263983546       -0.4795492329        0.1118415522
 H         -5.1012205667       -1.0864005501        0.2457888047
 C         -4.1640386632        0.8807478554       -0.0180589777
 H         -4.9768113476        1.5807739867       -0.0189454182
 C         -2.7886501237        1.2212161181       -0.1355456771
 C         -3.5967000637       -3.3252082782        0.1510326922
 C         -3.6555892340       -4.1126944905        1.3042775300
 C         -4.6561574307       -5.0533474003        1.4861895638
 C         -5.6181950531       -5.2243413766        0.5048744493
 H         -6.4037599410       -5.9504858861        0.6440387217
 C         -5.5764300561       -4.4717822190       -0.6563132879
 C         -4.5696068183       -3.5343632005       -0.8266473039
 N          0.0800502431        2.0649450260       -0.1024165414
 N          2.0022470008       -0.0694222807       -0.0180285552
 C         -2.3143613456        2.5436614971       -0.2626614628
 C         -0.9751103822        2.9182064954       -0.2433404545
 C         -0.4969227136        4.2655681852       -0.3438200818
 H         -1.1195403449        5.1292984650       -0.4741190000
 C          0.8578551999        4.2112256649       -0.2360074236
 H          1.5621789758        5.0197370411       -0.2535389063
 C          1.2057703331        2.8325760648       -0.0840023890
 C          2.5076779843        2.3431996996        0.0474943285
 C          2.8629358781        0.9915247864        0.1008386808
 C          4.2004124247        0.5170393470        0.2242189560
 H          5.0712572498        1.1323749216        0.3457129954
 C          4.1439209149       -0.8465479057        0.1524880785
 H          4.9610312890       -1.5409794358        0.2150664693
 C          2.7731287334       -1.1931191199       -0.0204106869
 C          3.6164829790        3.3258719342        0.1205361802
 C          3.9834416259        3.8930340530        1.3401592734
 C          5.0493016542        4.7743476693        1.4321928943
 C          5.7582355093        5.1050864605        0.2905705076
 H          6.5965729042        5.7793463643        0.3587279349
 C          5.4065119908        4.5677579588       -0.9362970640
 C          4.3428769672        3.6819133093       -1.0120455194
 Fe        -0.0144431988        0.0171146267        0.2810979376
 C         -3.3373728058        3.6032810866       -0.4135241717
 C         -3.7135031920        4.4131375779        0.6576682415
 C         -3.9771792385        3.8031735815       -1.6352376991
 C         -4.7011340639        5.3762482185        0.5221937196
 C         -4.9607788432        4.7663405373       -1.7891185620
 H         -4.9781011624        5.9772091346        1.3725871650
 C         -5.3214980467        5.5457600181       -0.7033664037
 H         -5.4373424993        4.8958598269       -2.7471729006
 H         -6.0949175114        6.2876854563       -0.8133454030
 C          3.3223037671       -3.5787068925       -0.3189776536
 C          3.4574507025       -4.5754446849        0.6504099468
 C          4.1849536208       -3.6229852550       -1.4162380176
 C          4.4145867472       -5.5678442276        0.5353567910
 C          5.1461538668       -4.6101378506       -1.5432790867
 H          4.4946839435       -6.3190447303        1.3046143377
 C          5.2550539401       -5.5813478551       -0.5629346651
 H          5.7907668098       -4.6145129999       -2.4074652787
 H          6.0021302327       -6.3530397252       -0.6567005094
 H         -4.6795429535       -5.6384094360        2.3914770016
 H         -6.3163705901       -4.6085707375       -1.4290193165
 H          5.3172269036        5.1878959055        2.3909632299
 H          5.9539495205        4.8220817432       -1.8294337656
 Cl         2.4305589444       -4.5416736959        2.0406367594
 Cl         4.0192550351       -2.4352638517       -2.6573682257
 Cl        -2.9353993055        4.1804097793        2.1831293542
 Cl        -3.5091076117        2.8259570442       -2.9837309894
 Cl         3.0899860780        3.4503588825        2.7487546607
 Cl         3.9078608748        2.9874758363       -2.5308040936
 Cl        -2.4602447502       -3.8819646941        2.5328399095
 Cl        -4.4952968255       -2.6236198319       -2.2934315515
 Cl        -0.0430426344        0.0027858723        2.4157107302
  78
       -160.31301324
 N         -0.0556959974       -2.0499247093        0.0932120283
 N         -1.9735825879        0.0659625124       -0.0716724206
 C          2.3343002506       -2.5264946033       -0.0755962391
 C          1.0095775822       -2.8974180571        0.1195466089
 C          0.5542889386       -4.2462206949        0.3321649730
 H          1.1955051311       -5.1040314020        0.4062225299
 C         -0.7922107138       -4.1941998069        0.4483283407
 H         -1.4716565018       -5.0022208872        0.6393782265
 C         -1.1775304511       -2.8197707791        0.2446594344
 C         -2.4720402231       -2.3588742413        0.1081011909
 C         -2.8101335478       -1.0027094606       -0.1752285798
 C         -4.0885508597       -0.5859447281       -0.6137172232
 H         -4.9249375112       -1.2287796045       -0.8081721351
 C         -4.0333077845        0.7799470433       -0.7447532361
 H         -4.8141722397        1.4395568517       -1.0714234590
 C         -2.7214060010        1.1723612155       -0.3824472913
 C         -3.6001798060       -3.3041808149        0.1967394776
 C         -4.5603939293       -3.1674660034        1.2047667757
 C         -5.6525862301       -4.0149324632        1.2892452042
 C         -5.7991880302       -5.0278598311        0.3554468343
 H         -6.6465686584       -5.6932952299        0.4140479409
 C         -4.8662205744       -5.1925936579       -0.6543058280
 C         -3.7839716807       -4.3311035133       -0.7293988911
 N          0.1056673463        2.0492889117       -0.1266838123
 N          2.0342658496       -0.0729702936        0.0137540557
 C         -2.2856741932        2.5131234758       -0.3033060777
 C         -0.9579103768        2.8976337806       -0.1414000170
 C         -0.5039110444        4.2531056435        0.0300926470
 H         -1.1437342420        5.1129060733        0.0796499888
 C          0.8442812008        4.2081464165        0.1259918674
 H          1.5273304932        5.0230047139        0.2684788148
 C          1.2276167517        2.8237822381        0.0147439769
 C          2.5258221399        2.3558209176        0.0172993096
 C          2.8903298986        0.9828040603       -0.0710484366
 C          4.2120069702        0.5292506310       -0.2946971513
 H          5.0757863948        1.1550155699       -0.4089725518
 C          4.1547823867       -0.8414424693       -0.3446720441
 H          4.9659930885       -1.5266057712       -0.4959126445
 C          2.7980421946       -1.2004958530       -0.1476696573
 C          3.6317406527        3.3341667280        0.0579856746
 C          4.4675814870        3.4293702106        1.1727337338
 C          5.5191046857        4.3309267023        1.2108895015
 C          5.7539606707        5.1529604759        0.1219756905
 H          6.5745459204        5.8532490301        0.1465465287
 C          4.9439642017        5.0809813009       -0.9985075576
 C          3.8929683992        4.1788571883       -1.0223791484
 Fe         0.0225455076        0.0193213413        0.3508292715
 C         -3.3333470880        3.5479057096       -0.3750286686
 C         -4.3387552028        3.6087983802        0.5968019940
 C         -3.3897966729        4.4791625805       -1.4140109962
 C         -5.3587059703        4.5424732591        0.5278209493
 C         -4.4027668014        5.4221716118       -1.4912211165
 H         -6.1196613238        4.5562947721        1.2912201120
 C         -5.3887948613        5.4462406112       -0.5206497166
 H         -4.4166929890        6.1214896994       -2.3114474753
 H         -6.1855110857        6.1717218566       -0.5815761669
 C          3.3208407478       -3.6067104810       -0.3208944071
 C          3.9380416102       -4.3194226282        0.7043901888
 C          3.6415487592       -3.9467674891       -1.6352350190
 C          4.8399457137       -5.3379287977        0.4306941646
 C          4.5397555734       -4.9601695769       -1.9262939595
 H          5.3025576385       -5.8749441849        1.2441298187
 C          5.1347935058       -5.6535125674       -0.8851794037
 H          4.7627636350       -5.2002629230       -2.9539590075
 H          5.8338364309       -6.4475979036       -1.0998554189
 H         -6.3726429841       -3.8816309007        2.0801921753
 H         -4.9770505380       -5.9749768231       -1.3887478922
 H          6.1432733976        4.3828817494        2.0893601522
 H          5.1238599554        5.7132335105       -1.8533670860
 Cl         3.5628582417       -3.9106185568        2.3428544486
 Cl         2.8780980265       -3.0754730576       -2.9205438896
 Cl        -4.2887098781        2.5132983255        1.9326518590
 Cl        -2.1938214425        4.4258846702       -2.6607732871
 Cl         4.1543214556        2.4106035105        2.5322370496
 Cl         2.8998349992        4.0704448912       -2.4331120018
 Cl        -4.3566554266       -1.9248041813        2.3836214470
 Cl        -2.6524300685       -4.5242663350       -2.0324038875
 Cl        -0.0184659406        0.1569802684        2.4798102595
  78
       -160.31300479
 N         -0.1009798990       -2.0620434124       -0.0156279442
 N         -2.0123050342        0.0666363346        0.0176780276
 C          2.2954504356       -2.5466508454       -0.1184105660
 C          0.9569075149       -2.9163460424       -0.0811418612
 C          0.4870806793       -4.2751461168       -0.1120915350
 H          1.1193653501       -5.1396312172       -0.1733233284
 C         -0.8644160192       -4.2256226089       -0.0515242522
 H         -1.5638046029       -5.0389094323       -0.0562246715
 C         -1.2301872792       -2.8346137800        0.0155711486
 C         -2.5264753482       -2.3569925401        0.0611324581
 C         -2.8811932468       -0.9824568484        0.0590960468
 C         -4.2174163468       -0.5131815523        0.0556849453
 H         -5.0961522778       -1.1219811255        0.1078172480
 C         -4.1551858290        0.8538079355       -0.0256237974
 H         -4.9727855734        1.5449820195       -0.0773497365
 C         -2.7805008402        1.1988088745       -0.0529514057
 C         -3.6490313961       -3.3211116045        0.0653600294
 C         -3.9763619152       -4.0562478566        1.2035731107
 C         -5.0734000388       -4.9066814430        1.2214954614
 C         -5.8561226705       -5.0398775897        0.0854441439
 H         -6.7189282821       -5.6801549381        0.1023155422
 C         -5.5445388203       -4.3370141406       -1.0671217310
 C         -4.4487382962       -3.4892915937       -1.0678901536
 N          0.0992951498        2.0270587139       -0.2008297879
 N          2.0134072075       -0.0902132410       -0.0698630131
 C         -2.3004435058        2.5165299631       -0.1833720187
 C         -0.9613927794        2.8808733099       -0.2461575713
 C         -0.4963273325        4.2402909928       -0.2997464445
 H         -1.1334855374        5.1025818682       -0.3439131968
 C          0.8556196278        4.1937302618       -0.2604012574
 H          1.5497098796        5.0104421280       -0.2671628106
 C          1.2253687121        2.8037177638       -0.2045740588
 C          2.5246460865        2.3329754707       -0.1355371467
 C          2.8820977813        0.9597217142       -0.1158475534
 C          4.2144690887        0.4906990131       -0.1977798363
 H          5.0884522315        1.1092057088       -0.2580202178
 C          4.1516667016       -0.8803388621       -0.1955143925
 H          4.9686517046       -1.5732118966       -0.2402681254
 C          2.7789030011       -1.2247139209       -0.1229054717
 C          3.6274108585        3.3123105134       -0.0648806543
 C          4.3504131426        3.4677402021        1.1209987141
 C          5.3767775992        4.3917300444        1.2256400724
 C          5.6969571951        5.1786733872        0.1327869092
 H          6.4910067909        5.9044275227        0.2116965062
 C          5.0069881234        5.0424124289       -1.0592183849
 C          3.9843780016        4.1128320366       -1.1496804888
 Fe         0.0076030998        0.0004042570        0.2953452613
 C         -3.3201567428        3.5815480504       -0.2986243243
 C         -4.0686358532        3.9958382377        0.8030716944
 C         -3.5878060855        4.1729420373       -1.5319679210
 C         -5.0587937972        4.9549852220        0.6755228660
 C         -4.5782422824        5.1302645248       -1.6750498827
 H         -5.6260559195        5.2604975047        1.5386320405
 C         -5.3123151072        5.5127443594       -0.5661761278
 H         -4.7722185294        5.5587572841       -2.6450915354
 H         -6.0923648091        6.2490094344       -0.6694140638
 C          3.3278592098       -3.6072593447       -0.1597023286
 C          3.7654625205       -4.2227809739        1.0109022215
 C          3.9413572297       -3.9700968003       -1.3567159912
 C          4.7922631728       -5.1535734448        0.9966049824
 C          4.9711571330       -4.8982593019       -1.3889845224
 H          5.1189303672       -5.6039403947        1.9195788630
 C          5.3944307650       -5.4805787043       -0.2067097257
 H          5.4338079704       -5.1498906315       -2.3299718305
 H          6.2056437623       -6.1931246387       -0.2218998676
 H         -5.3105772416       -5.4489525128        2.1220238152
 H         -6.1482568757       -4.4349452149       -1.9543801953
 H          5.9116398438        4.4924636512        2.1557871582
 H          5.2549870305        5.6476293344       -1.9162544805
 Cl         3.0121684137       -3.7773917973        2.5033829592
 Cl         3.4043578217       -3.2239211988       -2.8184079810
 Cl        -3.7339362677        3.2944367008        2.3453608931
 Cl        -2.6777870169        3.6685081095       -2.9082068471
 Cl         3.9246418944        2.5011173794        2.4856158712
 Cl         3.1400873775        3.9179861340       -2.6455829846
 Cl        -3.0119612666       -3.8665218135        2.6239070194
 Cl        -4.0447635311       -2.6159256225       -2.5028607652
 Cl         0.0786256897        0.0808810488        2.4260191124
  78
       -160.31299055
 N         -0.0923324597       -2.0462372772       -0.0518973424
 N         -1.9916752013        0.1139310007        0.0529148719
 C          2.2826146643       -2.5742641237        0.1530962036
 C          0.9527427885       -2.9221203498        0.1048823484
 C          0.4428129954       -4.2700927863        0.1389314955
 H          1.0439171818       -5.1481464938        0.2681960678
 C         -0.8966738057       -4.1879507327       -0.0281463543
 H         -1.6107002828       -4.9883151380       -0.0523594902
 C         -1.2210626247       -2.7893239358       -0.1439029869
 C         -2.5120601474       -2.2802209821       -0.3061831260
 C         -2.8449845250       -0.9147215875       -0.2568440793
 C         -4.1413376423       -0.3990598210       -0.5179216244
 H         -4.9960934372       -0.9755009562       -0.8143561496
 C         -4.0716429117        0.9591560158       -0.3346689183
 H         -4.8579546645        1.6791759884       -0.4524866366
 C         -2.7357134947        1.2538353726        0.0239813583
 C         -3.5946506535       -3.2508885574       -0.5563463419
 C         -4.6347333538       -3.4528380569        0.3528177227
 C         -5.6394560761       -4.3767671350        0.1110852455
 C         -5.6165222361       -5.1208197536       -1.0552877136
 H         -6.3936619640       -5.8433018145       -1.2491038663
 C         -4.5985030702       -4.9446738398       -1.9773497001
 C         -3.6027773019       -4.0168851221       -1.7264488198
 N          0.1213601808        2.0458859018        0.0867736937
 N          2.0197727625       -0.1127213682        0.0374837011
 C         -2.2522909331        2.5766653818        0.2528744282
 C         -0.9161895621        2.9191762480        0.2851755836
 C         -0.3936819275        4.2576233362        0.4107763727
 H         -0.9807424789        5.1300932093        0.6222205847
 C          0.9414311970        4.1792514753        0.2050425600
 H          1.6618611608        4.9755008021        0.2131048314
 C          1.2531992898        2.7883894840        0.0097750634
 C          2.5354985633        2.2894912306       -0.2158654006
 C          2.8813840151        0.9279924068       -0.1948533416
 C          4.2007591903        0.4330793146       -0.3694782385
 H          5.0668564047        1.0332241880       -0.5750713820
 C          4.1359783769       -0.9295700035       -0.2165040300
 H          4.9369604023       -1.6414652027       -0.2828895751
 C          2.7768925186       -1.2444289042        0.0243845361
 C          3.5794427944        3.2750017822       -0.5766055152
 C          4.5541009407        3.7222659061        0.3150448146
 C          5.4976941335        4.6678604365       -0.0651068892
 C          5.4766178697        5.1740769029       -1.3553809453
 H          6.2071169007        5.9108677376       -1.6560007055
 C          4.5236819043        4.7431189277       -2.2667594281
 C          3.5815521694        3.8066001760       -1.8692823285
 Fe         0.0149171057       -0.0129004095        0.4063057725
 C         -3.2660111055        3.6432160574        0.3503254791
 C         -4.1689548491        3.6778290717        1.4133987986
 C         -3.3827465197        4.6360804382       -0.6236811972
 C         -5.1340060083        4.6653627931        1.5109166092
 C         -4.3428442640        5.6293646621       -0.5352880006
 H         -5.8105371633        4.6635673161        2.3504460607
 C         -5.2174317753        5.6387995958        0.5327604189
 H         -4.4088535727        6.3776249158       -1.3077493327
 H         -5.9643928042        6.4144046076        0.6033714425
 C          3.2907543125       -3.6469892285        0.2954376492
 C          3.9333869797       -3.8496574024        1.5171082139
 C          3.6340572995       -4.4749775044       -0.7728447374
 C          4.8796133598       -4.8479107502        1.6754958881
 C          4.5855257418       -5.4727357395       -0.6303210510
 H          5.3532393947       -4.9899289386        2.6340898715
 C          5.2028799480       -5.6540819524        0.5955675357
 H          4.8374702145       -6.0954298478       -1.4743868844
 H          5.9405817254       -6.4325212657        0.7133733635
 H         -6.4260578363       -4.5093888003        0.8367780404
 H         -4.5745403936       -5.5175632180       -2.8907772549
 H          6.2365187512        5.0082382229        0.6463720102
 H          4.5019718208        5.1295518406       -3.2741439813
 Cl         3.5021032530       -2.8323883594        2.8469044150
 Cl         2.8599224505       -4.2396472622       -2.2975327543
 Cl        -4.0443654181        2.4730444382        2.6448142704
 Cl        -2.3331701764        4.6023279802       -1.9998172489
 Cl         4.5610265609        3.0888191630        1.9251525235
 Cl         2.3827221918        3.2588635072       -2.9907673913
 Cl        -4.6502798185       -2.5535765279        1.8258254014
 Cl        -2.3547859699       -3.7773795855       -2.8953053336
 Cl         0.0516105552       -0.0876307686        2.5372096454
  78
       -160.31290585
 N         -0.0868880735       -2.0569513974       -0.0924776062
 N         -2.0225820983        0.0777575390       -0.2148154949
 C          2.3166163921       -2.5163611583        0.1837675312
 C          0.9661012846       -2.9094370048       -0.0283911907
 C          0.5346768441       -4.2376501213       -0.2632369294
 H          1.1683245330       -5.1027470983       -0.2809363978
 C         -0.8210152776       -4.1783639255       -0.4677460553
 H         -1.4903685131       -4.9854546898       -0.6905661733
 C         -1.1955107738       -2.8150273566       -0.3382371767
 C         -2.5144531730       -2.3258873794       -0.3802677072
 C         -2.8751932524       -0.9849145877       -0.2633712931
 C         -4.2318848206       -0.5272032200       -0.1282970100
 H         -5.0946960551       -1.1652180383       -0.1274668302
 C         -4.1868723901        0.8160894539        0.0227794026
 H         -5.0037207618        1.4934011131        0.1705626937
 C         -2.8028393061        1.2016282538       -0.0654483678
 C         -3.5961247861       -3.3277648502       -0.4887491128
 C         -3.8917087864       -4.1869598674        0.5708224979
 C         -4.8972047935       -5.1350250242        0.4745546665
 C         -5.6213138376       -5.2412959915       -0.7004377887
 H         -6.4023950338       -5.9796677767       -0.7840302727
 C         -5.3505456168       -4.4051373318       -1.7707922706
 C         -4.3488733572       -3.4557114287       -1.6564259508
 N          0.0676712012        2.0228220683       -0.2458346652
 N          1.9946265556       -0.0946768975       -0.0256668352
 C         -2.3432725282        2.5005956019       -0.0749697892
 C         -0.9847667326        2.8733853366       -0.2963429703
 C         -0.5441470150        4.1828409073       -0.6007095923
 H         -1.1776603213        5.0386544372       -0.7250766606
 C          0.8232595105        4.1176432342       -0.7198429329
 H          1.5060359094        4.9122583706       -0.9522461401
 C          1.1886683521        2.7688913762       -0.4741241322
 C          2.5048626581        2.2839164813       -0.3638528981
 C          2.8524738683        0.9630592022       -0.1057771492
 C          4.2017840259        0.5089899603        0.0826834503
 H          5.0619282194        1.1434367734        0.0773535020
 C          4.1508211865       -0.8274934360        0.2757939763
 H          4.9616431612       -1.5033202339        0.4654174329
 C          2.7672184854       -1.2117605097        0.1762227219
 C          3.5884379704        3.2868353462       -0.4838333791
 C          4.1378986857        3.8838940808        0.6488162605
 C          5.1234768646        4.8533793463        0.5449423446
 C          5.5683642586        5.2369922296       -0.7079721984
 H          6.3302197065        5.9963953438       -0.7957967490
 C          5.0443562473        4.6593365030       -1.8523713704
 C          4.0617734585        3.6910611440       -1.7298344498
 Fe        -0.0306769356       -0.0006733118        0.2366299387
 C         -3.2692674012        3.6174627145        0.2056150254
 C         -3.1558806134        4.2895910663        1.4251582324
 C         -4.2304945219        4.0706924691       -0.6964804169
 C         -3.9701808440        5.3635621822        1.7409844768
 C         -5.0469777575        5.1526716712       -0.3998441652
 H         -3.8599215279        5.8563926231        2.6938788139
 C         -4.9122701781        5.7920579236        0.8203218967
 H         -5.7723591858        5.4859162925       -1.1248311086
 H         -5.5438982044        6.6371716041        1.0531828090
 C          3.3067857603       -3.6001896284        0.3586722906
 C          3.3789545113       -4.3072086064        1.5598155655
 C          4.1952104254       -3.9522184645       -0.6563602337
 C          4.3116621415       -5.3133808468        1.7515964272
 C          5.1297533339       -4.9601970222       -0.4836203136
 H          4.3481383451       -5.8353033327        2.6946267092
 C          5.1857274140       -5.6323490910        0.7259559250
 H          5.8017604729       -5.2093969587       -1.2886207476
 H          5.9158255226       -6.4146058563        0.8658438267
 H         -5.1050919625       -5.7779941629        1.3139624076
 H         -5.9060086082       -4.4854790890       -2.6905047503
 H          5.5284199669        5.2999804919        1.4381665553
 H          5.3883014790        4.9545634692       -2.8305648258
 Cl         2.2871022620       -3.8862061756        2.8312404818
 Cl         4.1059014839       -3.1157388658       -2.1650897740
 Cl        -1.9661079207        3.7324419690        2.5557787816
 Cl        -4.3768176475        3.2844191117       -2.2284240971
 Cl         3.5548091080        3.3994483471        2.2011010378
 Cl         3.3939383736        2.9498274268       -3.1402524930
 Cl        -2.9837695721       -4.0436992696        2.0368693433
 Cl        -3.9957685299       -2.4146843287       -2.9892616992
 Cl        -0.1566176214        0.0838580425        2.3652906254
  78
       -160.31289846
 N         -0.0923009052       -2.0710476092        0.0905919856
 N         -2.0223550793        0.0717939360        0.0315384325
 C          2.3022388930       -2.5598826747        0.0899708456
 C          0.9611620841       -2.9293519401        0.1076610332
 C          0.4881452713       -4.2865507986        0.0736019072
 H          1.1178413119       -5.1545702242        0.0757549303
 C         -0.8627294756       -4.2310278550        0.0287217000
 H         -1.5628516183       -5.0427839195       -0.0130386252
 C         -1.2266760952       -2.8366876934        0.0484516590
 C         -2.5195290515       -2.3568097324       -0.0018901600
 C         -2.8846201039       -0.9813968193        0.0059676358
 C         -4.2234821765       -0.5209419794       -0.0068583737
 H         -5.0979620062       -1.1415427525       -0.0069543953
 C         -4.1695316095        0.8488168775       -0.0064481086
 H         -4.9904424908        1.5350528187       -0.0158444025
 C         -2.7958877532        1.2032009876        0.0060933842
 C         -3.6341091803       -3.3224964726       -0.1110095894
 C         -4.0408105849       -4.1084632840        0.9661029296
 C         -5.1121456980       -4.9820474815        0.8563214990
 C         -5.7920413539       -5.0825122860       -0.3447819724
 H         -6.6297071027       -5.7564682400       -0.4327058788
 C         -5.4062394093       -4.3213010522       -1.4355318924
 C         -4.3349927396       -3.4533405139       -1.3105606074
 N          0.0732244116        2.0224740759       -0.1435145997
 N          2.0035701171       -0.1030284391        0.0377583461
 C         -2.3222201395        2.5223587206       -0.0888119211
 C         -0.9786724518        2.8842796216       -0.1661620293
 C         -0.5043074536        4.2382422487       -0.2529129720
 H         -1.1314321129        5.1081348571       -0.2783128830
 C          0.8469669042        4.1801601891       -0.2752571534
 H          1.5472975814        4.9909885437       -0.3259557491
 C          1.2082964039        2.7872403630       -0.2047142182
 C          2.5031338051        2.3153315581       -0.1682618501
 C          2.8668733663        0.9432801106       -0.0735090538
 C          4.2024856334        0.4801223488       -0.1234200588
 H          5.0745314496        1.0960550227       -0.2205231075
 C          4.1476793601       -0.8878073981       -0.0352134743
 H          4.9678642838       -1.5778869893       -0.0302026733
 C          2.7746947931       -1.2365757486        0.0506139693
 C          3.6123728953        3.2899655828       -0.2334048073
 C          4.3800081184        3.5730328661        0.8966133697
 C          5.4331996290        4.4712369556        0.8468110354
 C          5.7322988232        5.1020531768       -0.3486765969
 H          6.5532398262        5.7997273181       -0.3951752499
 C          4.9870712776        4.8440277008       -1.4862360117
 C          3.9361798476        3.9440461023       -1.4210030063
 Fe        -0.0092131929       -0.0019592960        0.3612420261
 C         -3.3289530673        3.6039163633       -0.1591171678
 C         -4.0476503458        3.9998441755        0.9684331447
 C         -3.5937171459        4.2577726751       -1.3621353078
 C         -4.9957211381        5.0079339846        0.9009368353
 C         -4.5406027281        5.2644069752       -1.4460129133
 H         -5.5336383486        5.2942867975        1.7897381986
 C         -5.2389135078        5.6339367612       -0.3090817670
 H         -4.7283940395        5.7452421426       -2.3914822036
 H         -5.9787394221        6.4165895073       -0.3666713928
 C          3.3397178632       -3.6146203768        0.0113961760
 C          3.8033625669       -4.2788121571        1.1444978670
 C          3.9396006068       -3.9173381480       -1.2105943835
 C          4.8466544078       -5.1898446253        1.0712038339
 C          4.9804491829       -4.8272705033       -1.3025343578
 H          5.1978077361       -5.6743294946        1.9681250381
 C          5.4350327938       -5.4543872801       -0.1540614582
 H          5.4317064083       -5.0267851898       -2.2613870513
 H          6.2582042871       -6.1503235691       -0.2168996233
 H         -5.4067724280       -5.5717151417        1.7097165954
 H         -5.9264096803       -4.3963856516       -2.3770218282
 H          6.0069860788        4.6708539319        1.7371702638
 H          5.2155333248        5.3307787424       -2.4207833561
 Cl         3.0798439381       -3.9049454040        2.6732523668
 Cl         3.3750725093       -3.1049322192       -2.6311346801
 Cl        -3.7227556501        3.2182117169        2.4739625146
 Cl        -2.7261345168        3.7792401679       -2.7781553720
 Cl         3.9789156240        2.7881057276        2.3827969034
 Cl         3.0133281332        3.5999364720       -2.8402726404
 Cl        -3.2009618472       -3.9652444477        2.4706847881
 Cl        -3.8319559977       -2.5137176714       -2.6710862094
 Cl        -0.0057896519        0.1185599483        2.4923833168
  78
       -160.31285703
 N         -0.0725500408       -2.0435627051       -0.1286182456
 N         -2.0042499971        0.0987280091       -0.0376352255
 C          2.3187550490       -2.5388004660        0.0339978819
 C          0.9775339691       -2.9043758638       -0.0495564696
 C          0.5018829482       -4.2599517578       -0.1146038347
 H          1.1242104869       -5.1332026176       -0.0898008496
 C         -0.8470363270       -4.2007651849       -0.2058860685
 H         -1.5439727864       -5.0140433940       -0.2588583640
 C         -1.2062674052       -2.8064504113       -0.2165998286
 C         -2.4983326384       -2.3218316020       -0.2738416407
 C         -2.8559399713       -0.9465039892       -0.2449799171
 C         -4.1779222605       -0.4728095560       -0.4148032561
 H         -5.0384204884       -1.0796948528       -0.6175761243
 C         -4.1287646669        0.8923832299       -0.2797438947
 H         -4.9406379300        1.5889600997       -0.3544337328
 C         -2.7726246753        1.2296688967       -0.0402981132
 C         -3.6159046970       -3.2878920457       -0.3243784045
 C         -4.4650309675       -3.4417106411        0.7731527020
 C         -5.5306325967       -4.3263030938        0.7439877157
 C         -5.7606820718       -5.0765469127       -0.3963187187
 H         -6.5910650837       -5.7647234401       -0.4249753624
 C         -4.9342356966       -4.9500227548       -1.4990361473
 C         -3.8722560154       -4.0612182357       -1.4569988246
 N          0.0877451111        2.0580922317       -0.0036847517
 N          2.0140270079       -0.0871760276       -0.0333097340
 C         -2.3036473666        2.5521969614        0.1050843751
 C         -0.9590235212        2.9176256711        0.1097281286
 C         -0.4744095764        4.2720681358        0.1612417394
 H         -1.0857630356        5.1431277418        0.2928590426
 C          0.8687904439        4.2154252398        0.0096617821
 H          1.5670279717        5.0288697718       -0.0223155351
 C          1.2229104403        2.8230140001       -0.0730747714
 C          2.5091190612        2.3384885479       -0.1910729634
 C          2.8732898298        0.9685610002       -0.1192800873
 C          4.2129618251        0.5169325820       -0.0778724579
 H          5.0837129326        1.1422087148       -0.1100417263
 C          4.1647759792       -0.8498217952        0.0330059613
 H          4.9933074867       -1.5269482313        0.1121153818
 C          2.7927593180       -1.2115244834        0.0277545077
 C          3.6066160205        3.2974378848       -0.4488956767
 C          4.1449030799        4.1174411494        0.5400027413
 C          5.1662987860        5.0115078410        0.2550714250
 C          5.6635087627        5.0925872185       -1.0336470327
 H          6.4559184922        5.7883332685       -1.2614668100
 C          5.1540754709        4.2846019071       -2.0361602416
 C          4.1365602800        3.3959086060       -1.7357943846
 Fe         0.0039558574       -0.0044596518        0.3076186916
 C         -3.3190173769        3.6170192082        0.2144151764
 C         -4.1500230347        3.6916327256        1.3357118348
 C         -3.4940421900        4.5775159715       -0.7828793134
 C         -5.1037990197        4.6874480326        1.4624520179
 C         -4.4383264324        5.5836479225       -0.6651961100
 H         -5.7275945040        4.7183460860        2.3409232808
 C         -5.2402903586        5.6336937578        0.4612779443
 H         -4.5404691401        6.3119390849       -1.4534479613
 H         -5.9787020013        6.4138013723        0.5578436427
 C          3.3326597416       -3.6117359999        0.0966218396
 C          3.4702075879       -4.4022068576        1.2395718132
 C          4.2001265438       -3.8557057824       -0.9688918423
 C          4.4448909618       -5.3828499145        1.3245244906
 C          5.1808734412       -4.8308364743       -0.8952182967
 H          4.5302484609       -5.9705640837        2.2241001523
 C          5.3018378814       -5.5882793440        0.2572678490
 H          5.8376935723       -4.9894346353       -1.7352933665
 H          6.0684132451       -6.3433421781        0.3234764988
 H         -6.1672981089       -4.4213930295        1.6085357473
 H         -5.1076870873       -5.5292237354       -2.3917610341
 H          5.5645433245        5.6329457658        1.0411170659
 H          5.5367173098        4.3390012899       -3.0425299889
 Cl         2.4197740093       -4.1182701907        2.5806896327
 Cl         4.0253453832       -2.9358867314       -2.4212097016
 Cl        -3.9577895697        2.5290307741        2.5986240198
 Cl        -2.5350669841        4.4830263709       -2.2228053750
 Cl         3.5314461402        3.9952931089        2.1485395411
 Cl         3.4829892352        2.3856717567       -2.9772599770
 Cl        -4.1542432024       -2.5183125334        2.1994996697
 Cl        -2.8564667741       -3.8800388312       -2.8417799137
 Cl        -0.0061338067       -0.0849895673        2.4402142786
  78
       -160.31276431
 N         -0.0907255617       -2.0446398622       -0.4706970792
 N         -2.0211049832        0.0754319769       -0.3072773758
 C          2.3115462902       -2.5154176253       -0.4940268931
 C          0.9737253402       -2.8933694794       -0.4915405569
 C          0.5175770071       -4.2562222166       -0.4139534961
 H          1.1528853594       -5.1202108387       -0.4359895810
 C         -0.8281102225       -4.2146263250       -0.2906839970
 H         -1.5103910844       -5.0373915308       -0.1998044431
 C         -1.2089247135       -2.8255265923       -0.3252702654
 C         -2.4976881160       -2.3544752452       -0.1982625996
 C         -2.8711886357       -0.9850471960       -0.3308761843
 C         -4.1995824259       -0.5493791747       -0.5328614476
 H         -5.0580954352       -1.1879424425       -0.6094218441
 C         -4.1530745319        0.8205967111       -0.6280669545
 H         -4.9685819110        1.4961510943       -0.7969502195
 C         -2.7949384759        1.1944123397       -0.4599140832
 C         -3.5735920085       -3.2833055896        0.2061107243
 C         -4.0370439176       -3.2169976185        1.5249457268
 C         -5.0211199615       -4.0764070652        1.9857559044
 C         -5.5643025803       -5.0169541784        1.1251574546
 H         -6.3273265690       -5.6903972078        1.4834809872
 C         -5.1359443293       -5.0945180493       -0.1906441637
 C         -4.1458022051       -4.2313662242       -0.6376772501
 N          0.0693466841        2.0466884985       -0.3055301872
 N          2.0017745274       -0.0730501639       -0.2873128348
 C         -2.3338330002        2.5234411988       -0.4049177255
 C         -0.9948654071        2.8935636333       -0.2958245275
 C         -0.5448259286        4.2439288316       -0.0830578199
 H         -1.1851712625        5.1019045301       -0.0290407453
 C          0.7986144701        4.1941148703        0.0574583110
 H          1.4728479771        5.0051323529        0.2508698919
 C          1.1861374141        2.8159679374       -0.1001471871
 C          2.4824432507        2.3476129983       -0.0600796713
 C          2.8545425709        0.9865386686       -0.2631074038
 C          4.1841994061        0.5546488615       -0.4802449366
 H          5.0498467671        1.1886268426       -0.5362990236
 C          4.1365334833       -0.8127350298       -0.6078078659
 H          4.9527051204       -1.4854094153       -0.7888480229
 C          2.7757335474       -1.1864779165       -0.4751082603
 C          3.5874569659        3.2841930906        0.2186666916
 C          4.3189199330        3.1612327943        1.4037378206
 C          5.3804666996        4.0048273880        1.6903393579
 C          5.7253078927        4.9979850629        0.7876276399
 H          6.5524160810        5.6577646944        1.0038866601
 C          5.0198512287        5.1454249346       -0.3940616079
 C          3.9634150893        4.2912961544       -0.6712708705
 Fe        -0.0117986736       -0.0155558259        0.0249723077
 C         -3.3551466143        3.5896404755       -0.3726302450
 C         -4.2055050270        3.7268761455        0.7277301996
 C         -3.5020116742        4.4980022380       -1.4219439242
 C         -5.1626975797        4.7273224361        0.7782765465
 C         -4.4527238678        5.5057695952       -1.3825774914
 H         -5.8001136235        4.8084711374        1.6440988033
 C         -5.2807184424        5.6146708824       -0.2793234269
 H         -4.5417535748        6.1877154722       -2.2126951070
 H         -6.0225578753        6.3993102651       -0.2416048815
 C          3.3371033684       -3.5737066550       -0.3492481977
 C          3.9201719187       -3.7804826058        0.9052574556
 C          3.7452314647       -4.3887795712       -1.4007417316
 C          4.8699406671       -4.7693603394        1.1035959822
 C          4.7006275635       -5.3785437744       -1.2185813424
 H          5.2917591937       -4.9149538960        2.0847882083
 C          5.2554065905       -5.5656720186        0.0371233335
 H          5.0006273263       -5.9893045306       -2.0545963815
 H          5.9886870940       -6.3388758440        0.1863095368
 H         -5.3476311989       -4.0109340366        3.0124774339
 H         -5.5620908911       -5.8145819499       -0.8706455988
 H          5.9260225922        3.8813675055        2.6110999469
 H          5.2877885553        5.9112198898       -1.1042330591
 Cl         3.4139450157       -2.7860968926        2.2264591620
 Cl         3.0475196127       -4.1379244928       -2.9635674002
 Cl        -4.0256390908        2.6470652496        2.0690107050
 Cl        -2.4823913999        4.3388101155       -2.8072558200
 Cl         3.8666534996        1.9358554116        2.5365290373
 Cl         3.1208343939        4.4436664667       -2.1737004544
 Cl        -3.3335257638       -2.0518694071        2.5909202881
 Cl        -3.6202582319       -4.3067762639       -2.2850554053
 Cl        -0.0238986168       -0.1130629982        2.1563888202
  78
       -160.31275316
 N         -0.0501883357       -2.0634428392       -0.1613060601
 N         -1.9797320022        0.0415572931       -0.2053803163
 C          2.3445769313       -2.5118421294       -0.3948561476
 C          1.0175608676       -2.9021066540       -0.2313683805
 C          0.5796943070       -4.2619445871       -0.0601078490
 H          1.2203902673       -5.1214870985       -0.0881580561
 C         -0.7522072169       -4.2211636108        0.1739110711
 H         -1.4105837137       -5.0411641621        0.3821558898
 C         -1.1555805480       -2.8421285637        0.0674214062
 C         -2.4512822752       -2.3734747725        0.1286252315
 C         -2.8251749838       -1.0209133343       -0.1443629003
 C         -4.1451699907       -0.6120516827       -0.4336855492
 H         -5.0030915783       -1.2537026977       -0.4757011185
 C         -4.0986137021        0.7435515189       -0.6568878453
 H         -4.9113471261        1.3934128893       -0.9158608330
 C         -2.7483143567        1.1370482057       -0.4906592267
 C         -3.5672733663       -3.2667017413        0.4852234073
 C         -4.2811054463       -3.0128432459        1.6621867106
 C         -5.3792747242       -3.7750742201        2.0230674763
 C         -5.7788776241       -4.8196830447        1.2101867834
 H         -6.6356212611       -5.4154928416        1.4826743823
 C         -5.0890757477       -5.1019900002        0.0432801270
 C         -3.9996730613       -4.3248046359       -0.3140599949
 N          0.1008064759        2.0264304861       -0.3304576356
 N          2.0352198613       -0.0740798857       -0.1660365695
 C         -2.2945261944        2.4701759618       -0.5467013421
 C         -0.9643540204        2.8647262017       -0.4400291918
 C         -0.5223279212        4.2310476885       -0.3342964851
 H         -1.1639167255        5.0886853756       -0.3963240014
 C          0.8125933716        4.1993052902       -0.1209394410
 H          1.4830490992        5.0242398963        0.0214440898
 C          1.2058693885        2.8127374671       -0.1290702547
 C          2.4945178749        2.3502404723        0.0275129762
 C          2.8841096540        0.9850646889       -0.1022214394
 C          4.2211169817        0.5526957057       -0.2560985978
 H          5.0843312276        1.1888927331       -0.2488621114
 C          4.1769766273       -0.8099158348       -0.4273558080
 H          4.9998611633       -1.4816063343       -0.5750895181
 C          2.8109151882       -1.1857960736       -0.3591874098
 C          3.5703506832        3.3092480166        0.3565169167
 C          4.0677429828        3.3500385575        1.6605306988
 C          5.0776619411        4.2271794875        2.0184241633
 C          5.6127510437        5.0748216966        1.0634978266
 H          6.4031107799        5.7562061246        1.3358327320
 C          5.1418590214        5.0539528839       -0.2381040826
 C          4.1254854159        4.1767020764       -0.5805792335
 Fe         0.0244915592       -0.0018530364        0.1573411168
 C         -3.3375449113        3.5142165493       -0.6074005368
 C         -4.1750852650        3.7325422185        0.4895699437
 C         -3.5365863150        4.2992073895       -1.7413630076
 C         -5.1756557179        4.6882133348        0.4529024265
 C         -4.5368857481        5.2563687780       -1.7939374607
 H         -5.8046106176        4.8353511324        1.3158470622
 C         -5.3547745147        5.4439543171       -0.6935570975
 H         -4.6712726769        5.8406406371       -2.6899480938
 H         -6.1382398055        6.1846615275       -0.7273667796
 C          3.3529511019       -3.5788228000       -0.5917475827
 C          3.8320844587       -4.3412816193        0.4713333673
 C          3.8454401857       -3.8559425119       -1.8659202299
 C          4.7593292372       -5.3519099434        0.2744843134
 C          4.7724710376       -4.8623946957       -2.0799835301
 H          5.1099100381       -5.9266016527        1.1162433464
 C          5.2228147378       -5.6084712790       -1.0045521156
 H          5.1300244246       -5.0559140937       -3.0781779791
 H          5.9413804053       -6.3969488431       -1.1643188397
 H         -5.9127430240       -3.5457526615        2.9308458817
 H         -5.3988701267       -5.9119442130       -0.5976847431
 H          5.4341819122        4.2409286442        3.0357682544
 H          5.5571489108        5.7087956467       -0.9871662571
 Cl         3.2519611360       -3.9977016501        2.0632447523
 Cl         3.2653373331       -2.9216708730       -3.1968413144
 Cl        -3.9314580043        2.8022475924        1.9249057300
 Cl        -2.5224945558        4.0452829936       -3.1177002893
 Cl         3.3761227921        2.2897432609        2.8370701773
 Cl         3.5401497769        4.1318857040       -2.2055226770
 Cl        -3.7574336088       -1.7280797540        2.6925048124
 Cl        -3.2027796086       -4.6367752020       -1.8185745164
 Cl         0.0010977361        0.0992874652        2.2887246769
  78
       -160.31274615
 N         -0.0800278020       -2.0427158478       -0.2860554763
 N         -1.9928542075        0.0750900568       -0.1518005420
 C          2.3292073576       -2.5059144304       -0.4109686228
 C          0.9760228496       -2.8896595490       -0.4547136086
 C          0.5084593311       -4.2254236900       -0.5658206806
 H          1.1203549696       -5.0916232755       -0.7188415793
 C         -0.8575355312       -4.1779250645       -0.4391292758
 H         -1.5459608045       -4.9993605063       -0.4629825917
 C         -1.1984719556       -2.8156387165       -0.2598966799
 C         -2.5120107242       -2.3218278829       -0.0575082047
 C         -2.8550819708       -0.9846777033       -0.0262479385
 C         -4.2066488831       -0.4997149760        0.0487594938
 H         -5.0767486665       -1.1192407504        0.1515395805
 C         -4.1496924922        0.8455683283       -0.0579228336
 H         -4.9635296810        1.5429364245       -0.0472778925
 C         -2.7618618041        1.2009998703       -0.1826298358
 C         -3.6007282111       -3.3104559047        0.1089657970
 C         -4.1067035562       -3.5957939070        1.3756766016
 C         -5.1392757573       -4.5036434608        1.5503984984
 C         -5.6850117005       -5.1337764022        0.4465149802
 H         -6.4927127113       -5.8364992028        0.5768145127
 C         -5.2034980955       -4.8681364306       -0.8241857989
 C         -4.1670439946       -3.9640668378       -0.9828859129
 N          0.1093641120        2.0461871908       -0.1852811672
 N          2.0317398781       -0.0690456897       -0.2263523545
 C         -2.3032871567        2.5114427619       -0.2873550239
 C         -0.9490907649        2.8950098473       -0.3374387917
 C         -0.4845961296        4.2265692196       -0.4739576016
 H         -1.1022773627        5.0897551931       -0.6284987777
 C          0.8842364822        4.1764042849       -0.3722361312
 H          1.5734843433        4.9962056445       -0.4285672415
 C          1.2280767622        2.8165588637       -0.1831778852
 C          2.5539615668        2.3227400294       -0.0341586729
 C          2.9013332971        0.9846796526       -0.0809395558
 C          4.2516109442        0.4868479948       -0.0245180511
 H          5.1263706333        1.0945025283        0.1066060350
 C          4.1862614821       -0.8558461826       -0.1785059818
 H          4.9933268859       -1.5619895125       -0.2111025915
 C          2.7927708700       -1.1998211516       -0.2842000743
 C          3.6047939379        3.3362384390        0.1859503947
 C          3.6275985685        4.0690395490        1.3756587509
 C          4.6032855046        5.0212209065        1.6206526277
 C          5.5712005296        5.2716055517        0.6637704751
 H          6.3321058534        6.0129408953        0.8497326774
 C          5.5679588679        4.5730747847       -0.5325016001
 C          4.5926443881        3.6168972013       -0.7605682348
 Fe         0.0247829140       -0.0087080852        0.1491261698
 C         -3.3188732265        3.5856560665       -0.2797302840
 C         -3.5132138829        4.3656910809        0.8606016399
 C         -4.1314800881        3.8317869389       -1.3843050562
 C         -4.4878164658        5.3476892752        0.9036588551
 C         -5.1103160411        4.8127242271       -1.3573755069
 H         -4.6213076312        5.9272861954        1.7996220631
 C         -5.2827032406        5.5650083441       -0.2085937926
 H         -5.7239878211        4.9791362050       -2.2283486377
 H         -6.0448301220        6.3292064426       -0.1782123158
 C          3.3233196653       -3.6039480511       -0.3871304799
 C          3.8661420131       -4.0258537689        0.8273150484
 C          3.7147716465       -4.2714994191       -1.5448468671
 C          4.7624334809       -5.0804919791        0.8860263252
 C          4.6159776361       -5.3250035888       -1.5020096002
 H          5.1572251727       -5.3922986645        1.8394514704
 C          5.1322164314       -5.7259579780       -0.2822452651
 H          4.9025000678       -5.8210065294       -2.4152315113
 H          5.8283265020       -6.5497950136       -0.2378074868
 H         -5.5076960734       -4.7041253572        2.5435820211
 H         -5.6285300752       -5.3529867968       -1.6861928427
 H          4.5960972090        5.5548468221        2.5581534899
 H          6.3117469030        4.7654499527       -1.2887415066
 Cl         3.3830461424       -3.2144772688        2.2735358652
 Cl         3.0551982809       -3.7626168198       -3.0562332905
 Cl        -2.5344599366        4.0639041815        2.2504730252
 Cl        -3.8999150705        2.8905634176       -2.8125958183
 Cl         2.4287979477        3.7494210649        2.5765082402
 Cl         4.5772703994        2.7700645644       -2.2644167422
 Cl        -3.4172149104       -2.7934331037        2.7412682923
 Cl        -3.5674894685       -3.6093464122       -2.5635008506
 Cl         0.0764536911       -0.0729107581        2.2812279551
  78
       -160.31264464
 N         -0.0918726672       -2.0119847606       -0.1303856251
 N         -2.0133899632        0.0930598978        0.0854165009
 C          2.2971987385       -2.4737972710       -0.3873529266
 C          0.9697116106       -2.8567157768       -0.2684124346
 C          0.5107791936       -4.2211175984       -0.2186143578
 H          1.1414677709       -5.0855093392       -0.2909061873
 C         -0.8302324591       -4.1800382527       -0.0447959151
 H         -1.5097311411       -5.0049209884        0.0481041015
 C         -1.2033989186       -2.7921625048        0.0039565777
 C         -2.5025428804       -2.3303116709        0.1409641380
 C         -2.8766974744       -0.9673942403        0.1354837166
 C         -4.2134259288       -0.5116231196        0.0657409274
 H         -5.0843744898       -1.1367039461        0.0865872578
 C         -4.1567641349        0.8571330281       -0.0580057117
 H         -4.9819028815        1.5424434295       -0.1337363564
 C         -2.7864147573        1.2092860671       -0.0502942883
 C         -3.5897491113       -3.3301249144        0.2103594859
 C         -4.2400856852       -3.6016493866        1.4141572188
 C         -5.2580225476       -4.5388196266        1.4876646028
 C         -5.6426419691       -5.2178600665        0.3438649209
 H         -6.4352373472       -5.9490394874        0.3938583953
 C         -5.0193057721       -4.9655504290       -0.8660976658
 C         -4.0006944487       -4.0276448789       -0.9236151627
 N          0.0735064266        2.0791865487        0.0733384350
 N          2.0039636005       -0.0400230748       -0.0378930574
 C         -2.3145280346        2.5427484537       -0.1583391539
 C         -0.9894129653        2.9293927107       -0.0373684753
 C         -0.5207746499        4.2896854442       -0.0133523917
 H         -1.1406635768        5.1610936429       -0.0977734615
 C          0.8205068661        4.2430790830        0.1626445247
 H          1.5008868116        5.0665648661        0.2537616340
 C          1.1920005046        2.8542386738        0.1737236591
 C          2.4950064248        2.3783865867        0.1899103762
 C          2.8597649518        1.0249263096       -0.0030966835
 C          4.1800263425        0.5964572215       -0.2798755645
 H          5.0440795069        1.2286557817       -0.3346301277
 C          4.1183376761       -0.7603569252       -0.4881250547
 H          4.9239707759       -1.4210479080       -0.7417499094
 C          2.7660515371       -1.1386265646       -0.3139799129
 C          3.6049343305        3.3412803745        0.3529721144
 C          4.3303764307        3.3667942997        1.5444022379
 C          5.3833209133        4.2482707728        1.7285053753
 C          5.7285525823        5.1185182983        0.7096614990
 H          6.5485008074        5.8061140739        0.8458319179
 C          5.0309735033        5.1131392383       -0.4863574414
 C          3.9803262787        4.2261081900       -0.6563919819
 Fe         0.0056775205        0.0132303756        0.3666361768
 C         -3.3216501237        3.5683863572       -0.5052938195
 C         -3.7557981281        4.5521130280        0.3829813208
 C         -3.8724643225        3.5692308894       -1.7903098373
 C         -4.6873550766        5.5078715407        0.0046908961
 C         -4.8104597640        4.5093450460       -2.1795729140
 H         -4.9973940648        6.2628847692        0.7116737308
 C         -5.2124724497        5.4802493462       -1.2767364723
 H         -5.2165308777        4.4740638109       -3.1796946127
 H         -5.9396287796        6.2189733073       -1.5766765740
 C          3.2997590353       -3.5471922351       -0.5402139795
 C          4.1956951091       -3.8473632768        0.4867260536
 C          3.3538872481       -4.3306127496       -1.6954224014
 C          5.1052831788       -4.8857499773        0.3712271555
 C          4.2560463624       -5.3727164301       -1.8239152217
 H          5.7779911889       -5.0969317058        1.1865221875
 C          5.1276383747       -5.6478128241       -0.7846537759
 H          4.2657763693       -5.9601206656       -2.7285356425
 H          5.8276512504       -6.4630412392       -0.8736607261
 H         -5.7377915142       -4.7316762225        2.4335803566
 H         -5.3172181743       -5.4850386256       -1.7625678683
 H          5.9232639884        4.2462343401        2.6615937392
 H          5.2982280666        5.7828544245       -1.2880874782
 Cl         4.1336582148       -2.9225872899        1.9463646534
 Cl         2.2743820577       -3.9763369042       -2.9971348748
 Cl        -3.1335737164        4.5575850857        1.9974549168
 Cl        -3.3387057876        2.3805436355       -2.9283767193
 Cl         3.8815250252        2.2806133859        2.8099847875
 Cl         3.1309938800        4.1874472857       -2.1611304387
 Cl        -3.7348718124       -2.7545703096        2.8312423659
 Cl        -3.2254668404       -3.6970921613       -2.4322785842
 Cl         0.0845065472       -0.1021763540        2.4973819677
  78
       -160.31267101
 N         -0.0855962376       -2.0313695541       -0.3522991481
 N         -2.0179580704        0.1159346428       -0.2128308265
 C          2.2818758631       -2.5510309163       -0.0573367974
 C          0.9617413008       -2.9078300051       -0.2699024572
 C          0.4750000293       -4.2537523023       -0.4010177655
 H          1.0913495230       -5.1312279014       -0.3833989308
 C         -0.8685496113       -4.1711062631       -0.5585530651
 H         -1.5701095961       -4.9701297594       -0.6980695585
 C         -1.2135043593       -2.7786519470       -0.4870699428
 C         -2.5194823657       -2.2911615897       -0.4541854378
 C         -2.8831680225       -0.9426497753       -0.3081481504
 C         -4.2215224299       -0.4819807356       -0.2097774751
 H         -5.0973282449       -1.1004938836       -0.2503821784
 C         -4.1614700770        0.8795753826       -0.0516032032
 H         -4.9815051478        1.5607728209        0.0656157219
 C         -2.7889158811        1.2320372287       -0.0712654927
 C         -3.6048564045       -3.2997590575       -0.4583926778
 C         -3.9440800448       -3.9587051296        0.7225516186
 C         -4.9201896368       -4.9412486528        0.7464605460
 C         -5.5713550249       -5.2777406165       -0.4289546315
 H         -6.3224689738       -6.0532586710       -0.4199994546
 C         -5.2643575622       -4.6329711360       -1.6145041435
 C         -4.2887198482       -3.6473727983       -1.6200301305
 N          0.0879661220        2.0558676305       -0.1813290007
 N          2.0056619342       -0.0935333501       -0.1477577661
 C         -2.2997412962        2.5610156934       -0.0005935187
 C         -0.9666652133        2.9222243114       -0.1078323369
 C         -0.4856202932        4.2717882916       -0.2048699458
 H         -1.1058041434        5.1462998907       -0.1875182908
 C          0.8622796646        4.2017871954       -0.3383407561
 H          1.5588652306        5.0097757676       -0.4510854803
 C          1.2146311656        2.8111646047       -0.2893159399
 C          2.5196033994        2.3180949492       -0.3001308675
 C          2.8756308338        0.9615371811       -0.2087795454
 C          4.2119214536        0.4879296518       -0.1325466562
 H          5.0920591681        1.0999347332       -0.1498671771
 C          4.1422569231       -0.8777172860       -0.0258394940
 H          4.9549190098       -1.5738477099        0.0469711996
 C          2.7680215092       -1.2179716365       -0.0450536949
 C          3.6217098371        3.3044117861       -0.3374389739
 C          3.9303933764        4.0663638092        0.7901336240
 C          4.9587390863        4.9938373876        0.7741318007
 C          5.7016155438        5.1643198489       -0.3799133880
 H          6.5084247801        5.8787091461       -0.3932641506
 C          5.4204977719        4.4231791708       -1.5140321037
 C          4.3880129838        3.5018919847       -1.4842819067
 Fe        -0.0117862841       -0.0033037411        0.1346005856
 C         -3.2940482463        3.6347148198        0.2137402765
 C         -3.3918582497        4.2536696500        1.4614024050
 C         -4.1693747254        4.0486879765       -0.7876950316
 C         -4.3393709745        5.2320527626        1.7063524546
 C         -5.1164557875        5.0315512767       -0.5597227614
 H         -4.3998086151        5.6820374369        2.6839958114
 C         -5.1995333156        5.6160161126        0.6919809523
 H         -5.7799703155        5.3291611279       -1.3562569444
 H         -5.9431168736        6.3731608850        0.8791295756
 C          3.2751144833       -3.6160554612        0.1983724052
 C          3.7318223817       -3.8241918079        1.5008463112
 C          3.7914047700       -4.4266825294       -0.8087051100
 C          4.6647853560       -4.8059967045        1.7901583672
 C          4.7284003567       -5.4083943714       -0.5355426634
 H          4.9934343090       -4.9433643223        2.8077529534
 C          5.1598589765       -5.5942446604        0.7666664740
 H          5.1162452010       -6.0154812340       -1.3378760320
 H          5.8916919876       -6.3555591227        0.9835466760
 H         -5.1578754735       -5.4357229829        1.6742930370
 H         -5.7676741978       -4.8952847680       -2.5308200828
 H          5.1751393902        5.5646905104        1.6629336263
 H          5.9928179705        4.5538028212       -2.4175747866
 Cl         3.0909431746       -2.8372809960        2.7660077942
 Cl         3.2721205180       -4.1712369448       -2.4378404277
 Cl        -2.3217359767        3.7553097473        2.7226583764
 Cl        -4.0531061281        3.3183024083       -2.3501965055
 Cl         3.0113457609        3.8202353118        2.2333748441
 Cl         4.0134852438        2.5824358718       -2.8992325673
 Cl        -3.1104207190       -3.5244998029        2.1742346310
 Cl        -3.8843905660       -2.8367658364       -3.0897063783
 Cl        -0.0612735279       -0.1155805378        2.2651128165
  78
       -160.31261688
 N         -0.0765853929       -2.0310347170       -0.0621735486
 N         -2.0123770765        0.1091898147        0.0132503283
 C          2.3106285619       -2.5307793653        0.1229708158
 C          0.9722690502       -2.8949041320        0.0031511599
 C          0.4986154997       -4.2459542722       -0.1330091025
 H          1.1224893512       -5.1183861645       -0.1279564963
 C         -0.8471428087       -4.1806762134       -0.2655122601
 H         -1.5450371413       -4.9864471785       -0.3863689672
 C         -1.2061662747       -2.7881141463       -0.2129603919
 C         -2.4986645898       -2.3042877000       -0.2657479640
 C         -2.8673444090       -0.9391013193       -0.1696224535
 C         -4.2006797521       -0.4733448241       -0.2519035351
 H         -5.0659316358       -1.0881632533       -0.4048975615
 C         -4.1520588285        0.8907426622       -0.1046012853
 H         -4.9699787606        1.5840072582       -0.1229615874
 C         -2.7862468901        1.2349505798        0.0570024368
 C         -3.6050819842       -3.2819213345       -0.3902008156
 C         -4.3111967453       -3.6981452638        0.7371077732
 C         -5.3547688233       -4.6047694779        0.6374126534
 C         -5.7047525680       -5.1057505121       -0.6047816701
 H         -6.5188414155       -5.8092161988       -0.6877659064
 C         -5.0199086033       -4.7118022132       -1.7415961630
 C         -3.9772025579       -3.8064983208       -1.6254093844
 N          0.0840051429        2.0682209803        0.0258203670
 N          2.0064308927       -0.0793008225        0.0345715361
 C         -2.3093826178        2.5606793437        0.1521369109
 C         -0.9677973364        2.9281195722        0.1057897374
 C         -0.4899576834        4.2844671571        0.0636357921
 H         -1.1069784263        5.1581087888        0.1428160201
 C          0.8519616341        4.2242657935       -0.1029221166
 H          1.5414439037        5.0399177381       -0.1997603424
 C          1.2141684010        2.8318730242       -0.0987016400
 C          2.5035064642        2.3420221071       -0.1921291508
 C          2.8653396634        0.9752470565       -0.0554730473
 C          4.2034617087        0.5254923875        0.0425872095
 H          5.0753289171        1.1500023851        0.0243182477
 C          4.1529112787       -0.8390864366        0.1803638095
 H          4.9753858010       -1.5168463807        0.3005762048
 C          2.7831422741       -1.2016654510        0.1393773537
 C          3.6099503183        3.2736552593       -0.4967410497
 C          4.0928295703        4.2115447822        0.4154642153
 C          5.1359739528        5.0649752778        0.0904780899
 C          5.7200656477        4.9835659649       -1.1620468030
 H          6.5347510410        5.6426000352       -1.4186028115
 C          5.2702360530        4.0569965013       -2.0870647242
 C          4.2249702605        3.2139845983       -1.7500119683
 Fe        -0.0049486365        0.0103719314        0.3631061929
 C         -3.3315861755        3.6246880539        0.2317971287
 C         -4.0990674783        3.7845620138        1.3877581107
 C         -3.5885234334        4.4796243909       -0.8398469961
 C         -5.0808115839        4.7571422647        1.4738941415
 C         -4.5683128918        5.4554868377       -0.7679700492
 H         -5.6559314701        4.8561008748        2.3806867789
 C         -5.3117585928        5.5887923518        0.3918634102
 H         -4.7478143094        6.0959958142       -1.6164629227
 H         -6.0808285681        6.3443509986        0.4506140150
 C          3.3265317964       -3.6025227029        0.1571413959
 C          3.4719308682       -4.4270115872        1.2734761697
 C          4.1868875270       -3.8139182619       -0.9215363750
 C          4.4488885838       -5.4084130734        1.3240385795
 C          5.1700564833       -4.7883180461       -0.8828675630
 H          4.5395291656       -6.0243947193        2.2038433708
 C          5.2999252424       -5.5790589563        0.2459375168
 H          5.8221415989       -4.9214757691       -1.7312058348
 H          6.0694670043       -6.3353152633        0.2834184394
 H         -5.8825060206       -4.9107152049        1.5262401020
 H         -5.2877467281       -5.0971974892       -2.7123017145
 H          5.4885429707        5.7786334110        0.8165597030
 H          5.7202264510        3.9818352065       -3.0644060957
 Cl         2.4237885849       -4.1889377741        2.6254723565
 Cl         4.0006709269       -2.8510655916       -2.3433835498
 Cl        -3.7923266374        2.7493614391        2.7351836622
 Cl        -2.6872637230        4.2891407666       -2.3014535569
 Cl         3.3938513617        4.2787906721        1.9962467849
 Cl         3.6479746480        2.0703333453       -2.9095212601
 Cl        -3.8525232488       -3.0648965102        2.2766109329
 Cl        -3.1152129814       -3.2978894892       -3.0331722532
 Cl        -0.0246751385       -0.0452969477        2.4961980572
  78
       -160.31258289
 N         -0.0791959028       -2.0448646877       -0.0584351926
 N         -2.0084964064        0.0915597724        0.0109728115
 C          2.3071800322       -2.5373169120        0.1725304089
 C          0.9697683713       -2.9069236487        0.0464472615
 C          0.5020747475       -4.2570973514       -0.0859783751
 H          1.1248726346       -5.1293976463       -0.0393066990
 C         -0.8384436443       -4.1926373374       -0.2869337255
 H         -1.5282273116       -5.0016575860       -0.4340373325
 C         -1.1997069393       -2.8018691170       -0.2490458482
 C         -2.4966372917       -2.3172384569       -0.2969174547
 C         -2.8675622739       -0.9593922022       -0.1182587765
 C         -4.2061711596       -0.5027569808       -0.0548889726
 H         -5.0821495006       -1.1154141887       -0.1350953512
 C         -4.1543514384        0.8547105635        0.1333230155
 H         -4.9784247267        1.5305694313        0.2476216022
 C         -2.7823851399        1.2145674479        0.1383710538
 C         -3.5938995866       -3.2750648468       -0.5571942948
 C         -4.4586134664       -3.7022413078        0.4486799745
 C         -5.5169247921       -4.5558629289        0.1780561691
 C         -5.7198261448       -5.0004259799       -1.1165199437
 H         -6.5492720258       -5.6559189249       -1.3343786965
 C         -4.8665139442       -4.6093569404       -2.1351085046
 C         -3.8137681916       -3.7560358448       -1.8485446231
 N          0.0836089866        2.0477541923       -0.0488610952
 N          2.0106294345       -0.0932593276       -0.0102977802
 C         -2.3037432999        2.5395239586        0.1763700333
 C         -0.9672278564        2.9078065606        0.0303307724
 C         -0.5027812062        4.2557742992       -0.1347169611
 H         -1.1311732564        5.1254473323       -0.1266289166
 C          0.8385492424        4.1908258837       -0.3198560343
 H          1.5255775396        4.9956751350       -0.4954730856
 C          1.2061425510        2.8024010338       -0.2386325307
 C          2.5004662190        2.3148671296       -0.3104310800
 C          2.8690686736        0.9538031167       -0.1642087781
 C          4.2095639142        0.4971383495       -0.1185435379
 H          5.0799509788        1.1171246280       -0.2056760276
 C          4.1591973367       -0.8610040166        0.0687449812
 H          4.9806813210       -1.5446304148        0.1586118118
 C          2.7864829077       -1.2157641272        0.1094709706
 C          3.5983213893        3.2792554239       -0.5435532039
 C          4.0515174702        4.1343829504        0.4589284843
 C          5.0750279571        5.0389659796        0.2249451220
 C          5.6587540426        5.0976210803       -1.0288072926
 H          6.4518455161        5.8038859904       -1.2172326817
 C          5.2333252886        4.2575211341       -2.0444126507
 C          4.2128187381        3.3569809078       -1.7929887510
 Fe         0.0027400151        0.0004464104        0.3384193472
 C         -3.3082805031        3.6112957843        0.3397107865
 C         -3.4042741927        4.3055114415        1.5461973778
 C         -4.2086409837        3.9425557441       -0.6732773872
 C         -4.3838035029        5.2656731384        1.7502091271
 C         -5.1909552076        4.9007714291       -0.4838819018
 H         -4.4404046463        5.7739753073        2.6994680809
 C         -5.2797473556        5.5522826239        0.7348992569
 H         -5.8772207162        5.1279278579       -1.2841908068
 H         -6.0531868905        6.2891951915        0.8923654393
 C          3.3133930335       -3.6168837105        0.2841975153
 C          3.5420411685       -4.2581168427        1.4990016282
 C          4.0654216625       -4.0180712135       -0.8196250344
 C          4.4978577660       -5.2552099581        1.6191219743
 C          5.0229551697       -5.0120590205       -0.7165650535
 H          4.6580767978       -5.7293394644        2.5737502014
 C          5.2363742788       -5.6230668005        0.5081050982
 H          5.5892968994       -5.3014294337       -1.5873102940
 H          5.9851432311       -6.3950804624        0.5947135148
 H         -6.1723659579       -4.8617841840        0.9777815176
 H         -5.0160645122       -4.9526221026       -3.1465031803
 H          5.4078496114        5.6864892967        1.0203617605
 H          5.6832387323        4.2977370822       -3.0234576332
 Cl         2.6137526870       -3.7751722843        2.8756710196
 Cl         3.7694429819       -3.2547952891       -2.3437924288
 Cl        -2.2897944645        3.9262213360        2.8124594405
 Cl        -4.0733472602        3.1460563063       -2.2015891210
 Cl         3.3281140202        4.0350402061        2.0274907503
 Cl         3.6614196457        2.3053959854       -3.0513391476
 Cl        -4.1867180870       -3.1463597355        2.0646546125
 Cl        -2.7540985713       -3.2481887358       -3.1150355519
 Cl         0.0045009330       -0.0045956742        2.4717233996
  78
       -160.31253592
 N         -0.0863678990       -2.0107905271       -0.1218296624
 N         -1.9838810505        0.1015469908        0.0542380840
 C          2.3129335733       -2.4839675755       -0.3468338728
 C          0.9575329964       -2.8435761666       -0.4209772459
 C          0.4642498958       -4.1480459079       -0.6943292261
 H          1.0621936369       -4.9938223599       -0.9710472287
 C         -0.8972355478       -4.0968566787       -0.5309560578
 H         -1.6038791046       -4.8948189037       -0.6549460198
 C         -1.2114027627       -2.7650666689       -0.1575876867
 C         -2.5216156597       -2.2849099595        0.1389210364
 C         -2.8449207251       -0.9487756569        0.2672751353
 C         -4.1678144749       -0.4347687876        0.5091145672
 H         -5.0222522580       -1.0301330425        0.7636613919
 C         -4.1075002753        0.9059962491        0.3419384333
 H         -4.9023600323        1.6206177441        0.4387272571
 C         -2.7397871034        1.2316887408        0.0381098764
 C         -3.5929210434       -3.2924802623        0.2447182661
 C         -3.5811676732       -4.2422759124        1.2738019501
 C         -4.5701425779       -5.2021977345        1.3807016414
 C         -5.5978722766       -5.2305011918        0.4544045565
 H         -6.3722223158       -5.9753621398        0.5343235951
 C         -5.6371736578       -4.3070545366       -0.5807515523
 C         -4.6391955208       -3.3509953207       -0.6812508133
 N          0.1122523357        2.0509736863       -0.0179626086
 N          2.0328446150       -0.0709748703        0.0047411876
 C         -2.2839028915        2.5198979084       -0.2698958971
 C         -0.9277019037        2.8819235825       -0.3440674053
 C         -0.4207103978        4.1692503121       -0.6687389752
 H         -1.0026506970        5.0061850885       -1.0017724756
 C          0.9381808940        4.1185068551       -0.4812859006
 H          1.6525540876        4.9071811902       -0.6221693996
 C          1.2419644997        2.7954361610       -0.0758538986
 C          2.5604235778        2.3100431566        0.1811684691
 C          2.9016426398        0.9739018619        0.2047994566
 C          4.2423236821        0.4609239332        0.3233021108
 H          5.1092083482        1.0576512640        0.5197586932
 C          4.1737437229       -0.8757750146        0.1203693054
 H          4.9784792514       -1.5842637032        0.1082459828
 C          2.7880258010       -1.2026087991       -0.0751725353
 C          3.6079673397        3.3341058077        0.3534714902
 C          3.6041973833        4.1550654756        1.4845124090
 C          4.5621431212        5.1392614030        1.6679585568
 C          5.5385977847        5.3255610144        0.7047909793
 H          6.2797316805        6.1010471085        0.8348613479
 C          5.5625319413        4.5354774917       -0.4335377554
 C          4.6048387103        3.5490450851       -0.5993629164
 Fe         0.0277484262        0.0084618946        0.3796348729
 C         -3.3067657328        3.5463473349       -0.5424757165
 C         -3.4408392081        4.6971539868        0.2418347057
 C         -4.1937952083        3.3912061449       -1.6128411200
 C         -4.4033254121        5.6553452872       -0.0359041382
 C         -5.1687057510        4.3340794028       -1.8923120241
 H         -4.4767157990        6.5362259345        0.5839418650
 C         -5.2645505690        5.4700303587       -1.1036315869
 H         -5.8375891969        4.1795886722       -2.7240288162
 H         -6.0182167240        6.2112274398       -1.3208322493
 C          3.3008423310       -3.5721695983       -0.5318044652
 C          3.8715419783       -4.2166727092        0.5643536866
 C          3.6627568313       -4.0019140451       -1.8063362584
 C          4.7731516811       -5.2562800650        0.3978085751
 C          4.5620189379       -5.0403310235       -1.9891302366
 H          5.1977741390       -5.7391005511        1.2628181252
 C          5.1117618259       -5.6632333582       -0.8816075395
 H          4.8233667507       -5.3526950286       -2.9866591073
 H          5.8104745841       -6.4738497093       -1.0153552699
 H         -4.5301089093       -5.9190147270        2.1875316079
 H         -6.4292996435       -4.3259719431       -1.3133908747
 H          4.5353140575        5.7522816662        2.5560904423
 H          6.3119058403        4.6828563468       -1.1946220195
 Cl         3.4188762635       -3.7031156571        2.1490013780
 Cl         2.9682904429       -3.2083929826       -3.1740291532
 Cl        -2.4222574443        4.9055592217        1.6214588241
 Cl        -4.0565120873        1.9988289402       -2.6340517855
 Cl         2.3825065510        3.9084432691        2.6795391763
 Cl         4.6127281064        2.5936820938       -2.0415210272
 Cl        -2.3055221905       -4.1918902164        2.4377124682
 Cl        -4.6651168571       -2.2404251240       -2.0122715573
 Cl         0.0655889566       -0.1107961780        2.5086159357
  78
       -160.31250112
 N         -0.0812607913       -2.0525950966       -0.0204473884
 N         -2.0127245350        0.0874610586        0.0848429522
 C          2.3244231387       -2.5412885626        0.1001543074
 C          0.9689095788       -2.9203153841        0.0329276777
 C          0.4952074826       -4.2592178925       -0.0235171918
 H          1.1066579573       -5.1390422428        0.0180925800
 C         -0.8680150781       -4.1901102686       -0.1382134299
 H         -1.5656728339       -5.0016897750       -0.2064028255
 C         -1.2070267484       -2.8102598434       -0.1307971635
 C         -2.5215528634       -2.3065533267       -0.1897916263
 C         -2.8724574942       -0.9683350283       -0.0628777688
 C         -4.2256689064       -0.4922149398       -0.0807331429
 H         -5.0903423058       -1.1157967084       -0.1929743117
 C         -4.1738559803        0.8543964375        0.0726722255
 H         -4.9919035730        1.5456834377        0.1260234825
 C         -2.7872618452        1.2143076244        0.1418942280
 C         -3.5958556924       -3.2891680549       -0.4600938923
 C         -4.4696651917       -3.7398573788        0.5271982735
 C         -5.4674270038       -4.6599631238        0.2420457282
 C         -5.6023488699       -5.1413528601       -1.0492914431
 H         -6.3798198048       -5.8542076982       -1.2781346979
 C         -4.7470735948       -4.7154131597       -2.0511749157
 C         -3.7525065751       -3.7997994415       -1.7497335377
 N          0.0806425286        2.0421010573        0.0620422659
 N          2.0137150140       -0.0986721150        0.0596682942
 C         -2.3271136961        2.5272879703        0.1844165191
 C         -0.9711646374        2.9073940192        0.1351034012
 C         -0.5028138681        4.2458633590        0.0517722879
 H         -1.1177575596        5.1238094881        0.0808059971
 C          0.8590335657        4.1793738015       -0.0766893257
 H          1.5539258916        4.9902172573       -0.1607833446
 C          1.2032120745        2.8007896590       -0.0720223075
 C          2.5191928459        2.3007076549       -0.1565374156
 C          2.8726648323        0.9588140931       -0.0706056833
 C          4.2241740156        0.4789435233       -0.1354076691
 H          5.0912340513        1.0993973132       -0.2501859034
 C          4.1705938090       -0.8714859690       -0.0257830809
 H          4.9837107080       -1.5707062504       -0.0363428377
 C          2.7849707768       -1.2281102020        0.0816566634
 C          3.5919230299        3.2989617032       -0.3600396320
 C          4.4671695003        3.6630408548        0.6632872032
 C          5.4460758261        4.6257202339        0.4682505664
 C          5.5622005824        5.2397161373       -0.7667740887
 H          6.3084006714        5.9963108993       -0.9167666561
 C          4.7134151015        4.8947203445       -1.8055906900
 C          3.7382358177        3.9331247409       -1.5943441049
 Fe         0.0014555802       -0.0127544872        0.4072086032
 C         -3.3223345140        3.6214373826        0.1584996830
 C         -3.5400594372        4.4351184997        1.2706880030
 C         -4.0450514983        3.9050197054       -1.0012228290
 C         -4.4377676184        5.4912472070        1.2291702107
 C         -4.9449292033        4.9564064231       -1.0583212102
 H         -4.5829693625        6.1017882872        2.1058131539
 C         -5.1346045489        5.7491982359        0.0615593007
 H         -5.4810996539        5.1493638456       -1.9736958743
 H         -5.8293508879        6.5744019411        0.0200570331
 C          3.3221769224       -3.6306615931        0.1458513987
 C          4.0099002674       -3.9180748445        1.3258155336
 C          3.5890541857       -4.4205435764       -0.9713278471
 C          4.9169660504       -4.9611017426        1.3944450780
 C          4.4976479726       -5.4648712569       -0.9185214632
 H          5.4257876960       -5.1666136343        2.3220297354
 C          5.1554005139       -5.7324327307        0.2692704555
 H          4.6795755525       -6.0560259821       -1.8011271839
 H          5.8570288354       -6.5492318288        0.3203532180
 H         -6.1282301972       -4.9915080916        1.0267841724
 H         -4.8467365681       -5.0822842110       -3.0606704246
 H          6.0984737076        4.8936855312        1.2815909008
 H          4.7984010958        5.3660394454       -2.7713669013
 Cl         3.6820229786       -2.9596118056        2.7275583659
 Cl         2.7751218858       -4.0675234097       -2.4540183379
 Cl        -2.6726016151        4.0997861010        2.7266139575
 Cl        -3.7847745127        2.9276506711       -2.4059300281
 Cl         4.2961775961        2.9077802459        2.2087698661
 Cl         2.6839598777        3.4831387485       -2.8862235210
 Cl        -4.2899537231       -3.1375968727        2.1384166716
 Cl        -2.6877326803       -3.2503252438       -2.9927004446
 Cl         0.0269474136       -0.0582353366        2.5403155557
  78
       -160.31246097
 N         -0.1195535632       -2.0866738403       -0.1873026262
 N         -2.0437629549        0.0437383857        0.0094616415
 C          2.2743231673       -2.5388204987       -0.2961011509
 C          0.9502568120       -2.9305629283       -0.1608038102
 C          0.4991493002       -4.2870676159        0.0019491430
 H          1.1451072078       -5.1412664349        0.0573722260
 C         -0.8503334208       -4.2469593689        0.0741230803
 H         -1.5318280237       -5.0639410688        0.2104473027
 C         -1.2384039841       -2.8625518192       -0.0560080879
 C         -2.5351111756       -2.3895883547       -0.0616986307
 C         -2.8856935129       -1.0088089731       -0.1671380519
 C         -4.1876806735       -0.5519935551       -0.4814747268
 H         -5.0341736248       -1.1784213962       -0.6844817823
 C         -4.1348764005        0.8191823018       -0.4870834774
 H         -4.9318623009        1.5059885487       -0.6942363492
 C         -2.8014432420        1.1777935254       -0.1632467716
 C         -3.6535847846       -3.3445476543        0.0320418658
 C         -4.5126361024       -3.3215028478        1.1345369305
 C         -5.5777262126       -4.1992782344        1.2419968564
 C         -5.8050752061       -5.1218664795        0.2353467012
 H         -6.6339752349       -5.8074510964        0.3131356707
 C         -4.9759864226       -5.1684904604       -0.8718042388
 C         -3.9135559258       -4.2853333154       -0.9668389944
 N          0.0511124934        2.0068891110        0.0874416675
 N          1.9591059797       -0.0904881547       -0.1453349807
 C         -2.3402076000        2.4958446490       -0.0137847741
 C         -1.0095355108        2.8423060710        0.2250470286
 C         -0.5522351264        4.1606440260        0.5730799908
 H         -1.1934623998        4.9947973092        0.7833103942
 C          0.7993922942        4.1114275987        0.6077900103
 H          1.4865515508        4.8976176598        0.8529349615
 C          1.1772776531        2.7669900125        0.2511021941
 C          2.4622638110        2.3298810234        0.0010632587
 C          2.7889176550        0.9764175637       -0.3058867634
 C          4.0582667805        0.5464763858       -0.7577115189
 H          4.8822601350        1.1847693768       -1.0058799527
 C          4.0135946280       -0.8238751037       -0.8124080474
 H          4.7925206430       -1.4960713892       -1.1101165719
 C          2.7066650250       -1.2040311839       -0.4216470887
 C          3.5654972224        3.3037931895       -0.0047380590
 C          4.6510624815        3.1760692787        0.8673921441
 C          5.7150244233        4.0608033626        0.8408081895
 C          5.7061706748        5.1113789824       -0.0609019502
 H          6.5326675432        5.8038435989       -0.0874904283
 C          4.6418153757        5.2755493046       -0.9310729725
 C          3.5898839750        4.3757526126       -0.9029235294
 Fe        -0.0285808813       -0.0636728453        0.3178338434
 C         -3.2771544237        3.6172707470       -0.2210834168
 C         -4.3364131603        3.8987900990        0.6406295919
 C         -3.0945133026        4.4654986275       -1.3178669205
 C         -5.1743724281        4.9815744665        0.4249235082
 C         -3.9245854276        5.5483064483       -1.5460488277
 H         -5.9790884605        5.1773043551        1.1145744655
 C         -4.9633195931        5.8035198662       -0.6678318718
 H         -3.7528074030        6.1787056382       -2.4031438888
 H         -5.6099467402        6.6497771572       -0.8372497886
 C          3.3491301751       -3.5533191053       -0.2397358635
 C          4.1167545459       -3.6638186898        0.9208244063
 C          3.6715451490       -4.3741153955       -1.3159535696
 C          5.1729430846       -4.5541344650        1.0041760745
 C          4.7324076505       -5.2633611265       -1.2511633559
 H          5.7460474847       -4.6178387918        1.9146263549
 C          5.4800341792       -5.3454475172       -0.0894547010
 H          4.9711779142       -5.8740049630       -2.1068276313
 H          6.3119742344       -6.0297379615       -0.0364737798
 H         -6.2172977086       -4.1562892689        2.1082457274
 H         -5.1509033094       -5.8780523380       -1.6644492486
 H          6.5384582902        3.9226217078        1.5217393270
 H          4.6239158686        6.0896839195       -1.6358769766
 Cl         3.7185661853       -2.6606975110        2.2724366000
 Cl         2.7396554839       -4.2455262004       -2.7651217550
 Cl        -4.5781199993        2.8952204799        2.0254577385
 Cl        -1.8131405973        4.1413342955       -2.4331127138
 Cl         4.6457575410        1.8958719535        2.0296227998
 Cl         2.3051323378        4.5649057722       -2.0463581086
 Cl        -4.2103008934       -2.1866879113        2.4010974126
 Cl        -2.9126590685       -4.3205100925       -2.3756347657
 Cl         0.0542814263       -0.2396481178        2.4422806168
  78
       -160.31241969
 N         -0.1008125623       -2.0700087084       -0.2859833807
 N         -2.0156629281        0.0805903004       -0.1618110847
 C          2.2692166937       -2.5795360585       -0.0372322270
 C          0.9476622022       -2.9458620598       -0.1380729662
 C          0.4432158584       -4.2973519135       -0.1034704776
 H          1.0496687752       -5.1766417164        0.0014630936
 C         -0.8968829082       -4.2203189886       -0.2573184413
 H         -1.6058837784       -5.0251878074       -0.2994714929
 C         -1.2328625713       -2.8184265588       -0.3241558411
 C         -2.5336402311       -2.3217414355       -0.3837163800
 C         -2.8892739090       -0.9625516373       -0.3225701685
 C         -4.2196903499       -0.4749960542       -0.3694141090
 H         -5.1014679348       -1.0746254941       -0.4825336865
 C         -4.1433476034        0.8864055736       -0.2419015202
 H         -4.9486368705        1.5915944800       -0.2417020354
 C         -2.7728192999        1.2072137300       -0.1125124323
 C         -3.6407468746       -3.2955550152       -0.4984153899
 C         -4.0342689984       -4.0788863653        0.5862506659
 C         -5.0835616091       -4.9748364985        0.4821292210
 C         -5.7601221182       -5.0944946696       -0.7197713399
 H         -6.5824696369       -5.7862599088       -0.8029356777
 C         -5.3909978479       -4.3329836668       -1.8133785769
 C         -4.3363604305       -3.4437060552       -1.6962777368
 N          0.1004584585        2.0238510643       -0.1529268413
 N          2.0009628594       -0.1156578985       -0.1725838959
 C         -2.2821689824        2.5324906889        0.0384251390
 C         -0.9537312103        2.8873433366        0.0102095175
 C         -0.4581220481        4.2370137341        0.1137429580
 H         -1.0725650816        5.1047709098        0.2533844099
 C          0.8855507536        4.1720950223       -0.0062033654
 H          1.5925091474        4.9777269778        0.0356088889
 C          1.2237260309        2.7814141169       -0.1780231640
 C          2.5238677100        2.2964578491       -0.3336623281
 C          2.8637329119        0.9312850127       -0.3703046372
 C          4.1773068747        0.4342485160       -0.5821230128
 H          5.0440262228        1.0270775845       -0.7987329773
 C          4.1088079074       -0.9321556069       -0.4629662598
 H          4.9059865030       -1.6436949438       -0.5605639858
 C          2.7542528799       -1.2462474663       -0.2077042924
 C          3.6234250133        3.2717927721       -0.4456035573
 C          4.6244302494        3.3573511042        0.5275584148
 C          5.6721007470        4.2544468630        0.4114170205
 C          5.7354703127        5.0953064468       -0.6867443606
 H          6.5512768773        5.7942877550       -0.7789881625
 C          4.7551206371        5.0441985294       -1.6616848207
 C          3.7147277001        4.1384438747       -1.5370401606
 Fe        -0.0068487336       -0.0338384453        0.1701434521
 C         -3.2887900454        3.6042794009        0.2143299627
 C         -3.7864286654        3.9033816292        1.4795230178
 C         -3.7582565501        4.3450425750       -0.8657744547
 C         -4.7140835607        4.9129522957        1.6683135376
 C         -4.6904311013        5.3533257518       -0.6935895651
 H         -5.0748104000        5.1274607967        2.6600014281
 C         -5.1612870826        5.6339175710        0.5758978211
 H         -5.0383483683        5.9090997445       -1.5478563882
 H         -5.8835172110        6.4224651096        0.7152441792
 C          3.2908780172       -3.5707588440        0.3557202775
 C          3.8317217983       -3.4728005385        1.6408330102
 C          3.7714579189       -4.5774758251       -0.4768780815
 C          4.8010734672       -4.3527269789        2.0846452498
 C          4.7465405044       -5.4611663883       -0.0474372544
 H          5.1924511405       -4.2581060843        3.0840321024
 C          5.2540719112       -5.3445393919        1.2346741473
 H          5.1043827527       -6.2269784800       -0.7166464151
 H          6.0083080276       -6.0335887698        1.5701512682
 H         -5.3705968396       -5.5664645435        1.3344054089
 H         -5.9120736379       -4.4235866174       -2.7522992347
 H          6.4263680567        4.2901244262        1.1807985946
 H          4.7933792306        5.6949197553       -2.5206966772
 Cl         3.2472277797       -2.2313466240        2.6914752800
 Cl         3.1543589656       -4.6968574096       -2.0862070954
 Cl        -3.2079769140        2.9876735243        2.8244658741
 Cl        -3.1572805725        3.9838035814       -2.4408798213
 Cl         4.5292267055        2.3417363300        1.9214623156
 Cl         2.5166010544        4.0529535652       -2.7791865632
 Cl        -3.1975879863       -3.8980444564        2.0876687262
 Cl        -3.8515622558       -2.5012954235       -3.0572684721
 Cl        -0.0152640498       -0.1368770383        2.3009986961
  78
       -160.31241731
 N         -0.0583292618       -2.0195331714       -0.3086628975
 N         -2.0023212799        0.1089555031       -0.1497536506
 C          2.3273150451       -2.5157215373       -0.0732519321
 C          0.9904117353       -2.8784337528       -0.2561550708
 C          0.5243891330       -4.2294818572       -0.4102723778
 H          1.1552419269       -5.0965974238       -0.4411228504
 C         -0.8256966526       -4.1706981778       -0.5091186639
 H         -1.5187021187       -4.9798666327       -0.6340203694
 C         -1.1904044466       -2.7836282894       -0.4170073811
 C         -2.4865687410       -2.3103284805       -0.3566418345
 C         -2.8600421660       -0.9488655660       -0.2508465109
 C         -4.2003446206       -0.4941047045       -0.2287254191
 H         -5.0702877129       -1.1185584422       -0.2935835327
 C         -4.1523186909        0.8723788629       -0.1143641324
 H         -4.9766929060        1.5580690419       -0.0804650177
 C         -2.7793491053        1.2303290855       -0.0639133110
 C         -3.5783654634       -3.3091971165       -0.2803257524
 C         -3.9216378763       -3.8531673930        0.9576586749
 C         -4.9443804104       -4.7827133096        1.0783871018
 C         -5.6328692046       -5.1864370468       -0.0548799840
 H         -6.4223369729       -5.9133111598        0.0304955671
 C         -5.3095209058       -4.6657369573       -1.2978118879
 C         -4.2869420678       -3.7327965795       -1.4004069286
 N          0.0798462691        2.0717832034       -0.1974412781
 N          2.0257273305       -0.0691495054       -0.1682350695
 C         -2.3101426094        2.5589592614       -0.0085191872
 C         -0.9688850000        2.9333177253       -0.1095677434
 C         -0.4911756033        4.2864233244       -0.1477875784
 H         -1.1039836387        5.1635362863       -0.0790875986
 C          0.8567745419        4.2258675050       -0.2819245814
 H          1.5523408573        5.0377487898       -0.3603466499
 C          1.2140976239        2.8339858519       -0.2873846650
 C          2.5097893968        2.3535183683       -0.3095546792
 C          2.8836202754        0.9914934995       -0.2123715117
 C          4.2218175229        0.5432423028       -0.1060412451
 H          5.0927034234        1.1686026901       -0.1084819425
 C          4.1721585505       -0.8232290653        0.0110731142
 H          4.9950012158       -1.4994779989        0.1307347177
 C          2.8036423414       -1.1906037354       -0.0588189290
 C          3.6194695919        3.3322050246       -0.3928982693
 C          4.0926136229        3.9852538829        0.7425293151
 C          5.1518835493        4.8785253805        0.6722815749
 C          5.7490648196        5.1297860241       -0.5513425501
 H          6.5797349454        5.8197581530       -0.6134560893
 C          5.2934648139        4.5015353762       -1.6994084559
 C          4.2358147347        3.6078424670       -1.6112390799
 Fe         0.0124396769        0.0148897896        0.1514287014
 C         -3.3279161019        3.6173762299        0.1471470904
 C         -4.0165096521        3.7624369863        1.3547424879
 C         -3.6545078611        4.4879611040       -0.8907677836
 C         -4.9834003617        4.7382813300        1.5226233514
 C         -4.6213204296        5.4693736599       -0.7379363327
 H         -5.4965004717        4.8252382307        2.4671227258
 C         -5.2821490244        5.5896771535        0.4713057017
 H         -4.8526956806        6.1225968483       -1.5638544699
 H         -6.0371932939        6.3491660010        0.5979828685
 C          3.2933654605       -3.6114979605        0.1436027117
 C          3.2461430845       -4.3470455271        1.3319170312
 C          4.2563131246       -3.9649214953       -0.8009827349
 C          4.1288795242       -5.3883289890        1.5713767370
 C          5.1475276233       -5.0025297247       -0.5720103201
 H          4.0661803505       -5.9353593526        2.4987273480
 C          5.0799255923       -5.7095352709        0.6161896065
 H          5.8791929228       -5.2524418501       -1.3242765021
 H          5.7700973043       -6.5196716198        0.8000175121
 H         -5.1888754023       -5.1847244744        2.0479503251
 H         -5.8401469458       -4.9773312807       -2.1837255614
 H          5.5042752438        5.3634300154        1.5678422633
 H          5.7528992434        4.6951488238       -2.6550279876
 Cl         2.0677213714       -3.9278652159        2.5265002005
 Cl         4.3101997947       -3.1109421085       -2.3025455810
 Cl        -3.6275320444        2.7056900020        2.6633639894
 Cl        -2.8565197389        4.3115883955       -2.4142173993
 Cl         3.3446813121        3.6476819634        2.2638236791
 Cl         3.6504965765        2.8123665320       -3.0286461810
 Cl        -3.0487381028       -3.3235447924        2.3554038225
 Cl        -3.8758448215       -3.0665590689       -2.9435095812
 Cl         0.0115302470       -0.1080299524        2.2840525141
  78
       -160.31241086
 N         -0.0836678463       -2.0553780079       -0.0347067901
 N         -2.0337338715        0.0574126718        0.0424056500
 C          2.3313836610       -2.5096911323        0.0936475962
 C          0.9795761233       -2.8916388321       -0.1391856448
 C          0.5451593105       -4.1957143680       -0.4854169173
 H          1.1829853984       -5.0406054895       -0.6583720273
 C         -0.8225738751       -4.1466987174       -0.5665463036
 H         -1.5036994475       -4.9404834569       -0.7966682826
 C         -1.1997827987       -2.8075902946       -0.2720512771
 C         -2.5190610005       -2.3375767399       -0.1819143280
 C         -2.8804951886       -1.0116892804        0.0409868744
 C         -4.2314707510       -0.5648909558        0.2490025341
 H         -5.0885701826       -1.2112052488        0.2967785386
 C         -4.1892136656        0.7808264397        0.3817071655
 H         -5.0012197635        1.4522028775        0.5796471330
 C         -2.8162196382        1.1788012742        0.1904061283
 C         -3.6026559845       -3.3307249483       -0.3721603944
 C         -4.1548210659       -4.0257367471        0.7003085462
 C         -5.1578840882       -4.9599620827        0.5115502815
 C         -5.6171705011       -5.2134278644       -0.7709758189
 H         -6.3928529381       -5.9440764805       -0.9259224870
 C         -5.0873014719       -4.5385217270       -1.8575917737
 C         -4.0881332290       -3.6032166932       -1.6501534299
 N          0.0482126790        2.0096742114       -0.0865398870
 N          1.9855650432       -0.0849835131        0.0449850600
 C         -2.3734172676        2.4768197446        0.0479009997
 C         -1.0184674417        2.8239527684       -0.2541215041
 C         -0.6016670233        4.0782924142       -0.7649129382
 H         -1.2470029054        4.8957993059       -1.0217205428
 C          0.7658012139        4.0248676913       -0.8741851582
 H          1.4269239899        4.7848815851       -1.2431758308
 C          1.1603189493        2.7381768530       -0.4149301371
 C          2.4828906261        2.2986724669       -0.2319493088
 C          2.8302548190        0.9830382450        0.0839071546
 C          4.1586541530        0.5414578719        0.4152871598
 H          5.0010670941        1.1891352606        0.5621722996
 C          4.1146706843       -0.8065692603        0.5146458830
 H          4.9093225312       -1.4846076603        0.7585966532
 C          2.7579795829       -1.2054813280        0.2405432188
 C          3.5609840113        3.2897438932       -0.3948913720
 C          3.6362293634        4.4286904095        0.4151020273
 C          4.6329895829        5.3764690562        0.2458386808
 C          5.5880951171        5.1915552641       -0.7382204732
 H          6.3656023086        5.9276550283       -0.8706049226
 C          5.5495798362        4.0708639347       -1.5510713842
 C          4.5417877138        3.1367202632       -1.3802276816
 Fe        -0.0237661703       -0.0162881174        0.3936414419
 C         -3.2994240416        3.6141449357        0.1785242990
 C         -3.0732898400        4.5740453046        1.1716076243
 C         -4.3781928779        3.8292965433       -0.6817099235
 C         -3.8736757938        5.6974442425        1.2966058046
 C         -5.1962654225        4.9398906017       -0.5552293034
 H         -3.6590064248        6.4180074168        2.0722115910
 C         -4.9358117415        5.8761364058        0.4280137103
 H         -6.0222955566        5.0693538173       -1.2358731552
 H         -5.5646193476        6.7489343076        0.5191667127
 C          3.3359407964       -3.5900701568        0.1179148403
 C          3.3261431379       -4.5622931767        1.1200643325
 C          4.3116552323       -3.6968907848       -0.8763150165
 C          4.2478915508       -5.5959451700        1.1331779199
 C          5.2376236593       -4.7258571410       -0.8739770296
 H          4.2143403899       -6.3276678458        1.9237093404
 C          5.2000236159       -5.6729000161        0.1325644327
 H          5.9722143699       -4.7805005048       -1.6613526365
 H          5.9195080891       -6.4757783526        0.1350086617
 H         -5.5688034874       -5.4816271984        1.3605798771
 H         -5.4413259500       -4.7304423939       -2.8594439391
 H          4.6574396612        6.2454329896        0.8854947897
 H          6.2884451235        3.9156976307       -2.3210382258
 Cl         2.1574103677       -4.4375049519        2.3821341809
 Cl         4.3397944986       -2.5363229719       -2.1591552188
 Cl        -1.7766017083        4.3377878695        2.2872562680
 Cl        -4.6858686075        2.7151937400       -1.9669763904
 Cl         2.4867416261        4.6461800865        1.6840344514
 Cl         4.4750645967        1.7710908311       -2.4405297744
 Cl        -3.5663681482       -3.6915329258        2.2901262914
 Cl        -3.4121465928       -2.7473011917       -2.9886525595
 Cl        -0.0208199173        0.0051037699        2.5261818747
  78
       -160.31238412
 N         -0.0891027509       -2.0542733220       -0.0925978176
 N         -2.0078985292        0.0726900987       -0.0738350262
 C          2.3214867341       -2.5310040139       -0.1188787947
 C          0.9697270867       -2.9000622206       -0.2562026747
 C          0.5040703356       -4.2139754926       -0.5110006403
 H          1.1239732818       -5.0719581854       -0.6831368287
 C         -0.8678317004       -4.1554911616       -0.4896928306
 H         -1.5601608344       -4.9574949351       -0.6516340590
 C         -1.2134065295       -2.8113536111       -0.2100177418
 C         -2.5383436900       -2.3239710305       -0.0368568960
 C         -2.8705204796       -0.9874650134        0.0728658174
 C         -4.2035655143       -0.4901199571        0.2958979200
 H         -5.0635542007       -1.1023061362        0.4873777329
 C         -4.1412044658        0.8586243691        0.2275357304
 H         -4.9380825617        1.5648524660        0.3548617724
 C         -2.7686247870        1.2058115742       -0.0363672709
 C         -3.6136820868       -3.3337390158        0.0000412883
 C         -3.6716973755       -4.2792258084        1.0274701509
 C         -4.6543036629       -5.2543126889        1.0604752691
 C         -5.6033563278       -5.2991608051        0.0531792337
 H         -6.3713881839       -6.0548121477        0.0754515318
 C         -5.5770087810       -4.3757510252       -0.9763256902
 C         -4.5880770551       -3.4077250618       -0.9969411203
 N          0.0948142223        2.0144480066       -0.1454905876
 N          2.0143782000       -0.1023437607        0.0450864471
 C         -2.3131253697        2.5028241137       -0.2494246708
 C         -0.9520816433        2.8524942217       -0.3939570308
 C         -0.4650866551        4.1428126152       -0.7262774397
 H         -1.0610327562        4.9890362525       -1.0032420971
 C          0.9033815383        4.0891958266       -0.6205431579
 H          1.6098026431        4.8790175117       -0.7851346539
 C          1.2252093974        2.7622515508       -0.2500307746
 C          2.5379945704        2.2880558977        0.0073818263
 C          2.8790365121        0.9597207433        0.1484534974
 C          4.2230510518        0.4725868621        0.3008453063
 H          5.0902611289        1.0925594287        0.4216629154
 C          4.1640400439       -0.8782333201        0.2346021544
 H          4.9729536490       -1.5802770349        0.2947253221
 C          2.7791039771       -1.2310987677        0.0691977890
 C          3.5960145280        3.3200024372        0.0967352125
 C          3.8348086615        3.9761307495        1.3033650779
 C          4.7906369334        4.9738496570        1.4010912044
 C          5.5171530515        5.3303826313        0.2781486187
 H          6.2571616151        6.1122497736        0.3464276740
 C          5.3029123308        4.6950668225       -0.9330993312
 C          4.3480596687        3.6948669661       -1.0127869107
 Fe        -0.0065854253       -0.0119714713        0.3196436050
 C         -3.2884976918        3.6045419575       -0.3224374815
 C         -3.2399623746        4.6668027003        0.5886631713
 C         -4.2690012048        3.6625610984       -1.3148187776
 C         -4.0991681448        5.7481619687        0.4926997129
 C         -5.1446664395        4.7311620467       -1.4130870847
 H         -4.0211066702        6.5555090700        1.2032070141
 C         -5.0481078130        5.7783124520       -0.5115238029
 H         -5.8861009294        4.7370212981       -2.1933866360
 H         -5.7106926117        6.6239964799       -0.5950804727
 C          3.3354553853       -3.6066258894       -0.2170675372
 C          3.8435776672       -4.2315269889        0.9187701844
 C          3.8168907718       -4.0117453165       -1.4604129272
 C          4.8060501912       -5.2247997139        0.8230380110
 C          4.7777283745       -5.0029868972       -1.5721546129
 H          5.1844153345       -5.6900918978        1.7188086096
 C          5.2690754817       -5.6033829631       -0.4254099650
 H          5.1359323072       -5.2933435699       -2.5468436541
 H          6.0216030303       -6.3727046064       -0.5052619216
 H         -4.6769749726       -5.9651707800        1.8711603599
 H         -6.3120029865       -4.4022921765       -1.7645903190
 H          4.9564951686        5.4647234563        2.3462058380
 H          5.8625585309        4.9696194713       -1.8124922713
 Cl         3.2481242276       -3.7381350740        2.4623667304
 Cl         3.1998836616       -3.2400671075       -2.8766455990
 Cl        -2.1050385184        4.6197330828        1.8873618276
 Cl        -4.3878573170        2.3870186927       -2.4846263715
 Cl         2.9061325621        3.5162326647        2.6852028951
 Cl         4.0588938367        2.8911605416       -2.5143714888
 Cl        -2.5121820347       -4.1994961652        2.3040107798
 Cl        -4.5579359598       -2.2652661436       -2.2998355281
 Cl        -0.0699844125        0.0059254201        2.4514863452
  78
       -160.31232312
 N         -0.1063810800       -2.0319126095       -0.1493109683
 N         -2.0413630326        0.0665187349        0.0113941940
 C          2.2786041851       -2.4550805535       -0.4925064639
 C          0.9485206605       -2.8570588410       -0.3417209657
 C          0.5141885187       -4.2282015924       -0.2628011604
 H          1.1500383510       -5.0833398772       -0.3845616881
 C         -0.8080291800       -4.2079052116        0.0246972026
 H         -1.4637996718       -5.0428382073        0.1759113781
 C         -1.2055029772       -2.8250366414        0.0698214329
 C         -2.4919153005       -2.3598277586        0.2377501076
 C         -2.8832856208       -1.0003101083        0.0670054152
 C         -4.2071781599       -0.5942321239       -0.2181275938
 H         -5.0626892990       -1.2406520287       -0.2418078878
 C         -4.1571733925        0.7518712879       -0.4857014817
 H         -4.9701938825        1.3873973596       -0.7758320332
 C         -2.8075983743        1.1571583731       -0.3092881953
 C         -3.5492480892       -3.3423788247        0.5555487483
 C         -4.0522964596       -3.4083697976        1.8553355315
 C         -4.9880943525       -4.3643231632        2.2160821435
 C         -5.4416093329       -5.2628109549        1.2663858412
 H         -6.1622827508       -6.0175586434        1.5427087291
 C         -4.9787991194       -5.2061014162       -0.0371031685
 C         -4.0388601984       -4.2497363532       -0.3823390378
 N          0.0367837596        2.0408182842        0.0216431838
 N          1.9702607481       -0.0537786680        0.0128721793
 C         -2.3375784775        2.4804751813       -0.4008272001
 C         -1.0185201730        2.8703268787       -0.1337473182
 C         -0.6007752402        4.2327113187        0.0743603138
 H         -1.2474342491        5.0874346212        0.0276389581
 C          0.7191010873        4.2006045583        0.3735962458
 H          1.3621029578        5.0238351327        0.6167436029
 C          1.1318841014        2.8238617104        0.2925459404
 C          2.4290748898        2.3616564820        0.3543009130
 C          2.8131369033        1.0118393343        0.1033948992
 C          4.1360127473        0.6147041267       -0.1999149535
 H          4.9931666526        1.2591757347       -0.2140663740
 C          4.0886876870       -0.7256452775       -0.4918596881
 H          4.9005349893       -1.3594493046       -0.7902837424
 C          2.7379403038       -1.1330690073       -0.3357312723
 C          3.5272428576        3.3236775329        0.5732078238
 C          4.2902118486        3.2679246381        1.7410324821
 C          5.3410538204        4.1438168069        1.9602692478
 C          5.6468634431        5.0931270925        1.0006794499
 H          6.4669063259        5.7748161281        1.1637705719
 C          4.9121418392        5.1701122684       -0.1701307798
 C          3.8637402405        4.2890093040       -0.3765796945
 Fe        -0.0360914831       -0.0131316352        0.3683221574
 C         -3.2592120918        3.5528817425       -0.8193566575
 C         -4.3564162265        3.9661215845       -0.0628456609
 C         -3.0172742601        4.2292448516       -2.0209699909
 C         -5.1843526177        4.9932852835       -0.4884094122
 C         -3.8307876982        5.2615450380       -2.4532578514
 H         -6.0224831044        5.2863515217        0.1225402748
 C         -4.9173167165        5.6387359332       -1.6832613931
 H         -3.6097744107        5.7603140301       -3.3833986670
 H         -5.5550198804        6.4435558133       -2.0137713147
 C          3.2713272233       -3.5055358767       -0.7856742178
 C          4.2579474250       -3.8648638238        0.1347605258
 C          3.2418801367       -4.1977797266       -1.9992343122
 C          5.1819313711       -4.8588483171       -0.1450700659
 C          4.1545813502       -5.1963232088       -2.2896944108
 H          5.9294167755       -5.1094809771        0.5899200870
 C          5.1265293020       -5.5215019345       -1.3583068719
 H          4.1014862502       -5.7091050961       -3.2364188073
 H          5.8412244832       -6.2982043177       -1.5797568709
 H         -5.3447617151       -4.4041989413        3.2324747832
 H         -5.3353530681       -5.8973151778       -0.7835611274
 H          5.9095090471        4.0755768806        2.8735582615
 H          5.1507481987        5.9012685205       -0.9253900430
 Cl         4.2973865027       -3.0807774007        1.6739601264
 Cl         2.0461662527       -3.7751547964       -3.1741030200
 Cl        -4.6567896143        3.2188811874        1.4674224940
 Cl        -1.6787357241        3.7503048497       -3.0029828183
 Cl         3.8887594772        2.0866040708        2.9349716886
 Cl         2.9802696943        4.3581194589       -1.8607942588
 Cl        -3.4526817688       -2.2896033080        3.0264995339
 Cl        -3.4613988564       -4.1563924776       -2.0099780624
 Cl        -0.0427371836       -0.1188611174        2.4986721138
  78
       -160.31231994
 N         -0.0916847280       -2.0494807220        0.0163227170
 N         -2.0210421273        0.0900015613       -0.0811651098
 C          2.3219133640       -2.5223568021        0.1437436977
 C          0.9570192536       -2.9099267644        0.0787992511
 C          0.5015109186       -4.2487391935        0.0087148598
 H          1.1220494739       -5.1228739766        0.0373208244
 C         -0.8660634733       -4.1919921275       -0.0963364500
 H         -1.5560580479       -5.0102305005       -0.1628151852
 C         -1.2171540200       -2.8167666310       -0.0998051625
 C         -2.5290983357       -2.3160836244       -0.1821394612
 C         -2.8805769791       -0.9697296611       -0.1336753735
 C         -4.2378558697       -0.4970724429       -0.1328460461
 H         -5.1058986444       -1.1270130736       -0.1744473405
 C         -4.1886435049        0.8518303094       -0.0405881638
 H         -5.0081807800        1.5422418493        0.0072295273
 C         -2.7988427038        1.2232439537       -0.0426437669
 C         -3.6061943281       -3.3173456767       -0.3466850830
 C         -4.4694395702       -3.6505403466        0.6962461657
 C         -5.4568156847       -4.6102125259        0.5347959183
 C         -5.5933056712       -5.2514629549       -0.6845108841
 H         -6.3603024680       -5.9997228530       -0.8128570746
 C         -4.7523543162       -4.9417055189       -1.7390792297
 C         -3.7686334934       -3.9833429104       -1.5613420214
 N          0.0732662285        2.0436789398       -0.1013724229
 N          1.9994873173       -0.0889282088        0.0680823584
 C         -2.3419047733        2.5246997055       -0.0560866097
 C         -0.9740357388        2.9013004835       -0.1720147969
 C         -0.5171214325        4.2228319342       -0.4001198268
 H         -1.1414209023        5.0874290699       -0.5143226749
 C          0.8530844736        4.1597478048       -0.4488653944
 H          1.5495375611        4.9608209733       -0.5959219181
 C          1.2033164274        2.7979048496       -0.2497551831
 C          2.5160317491        2.3032456053       -0.1832640891
 C          2.8614728478        0.9674563886       -0.0100440118
 C          4.2189477860        0.4981826896        0.0482238619
 H          5.0847285303        1.1308043690        0.0190285763
 C          4.1669496977       -0.8491761048        0.1458536355
 H          4.9832650505       -1.5405379039        0.2098906648
 C          2.7750391122       -1.2189642888        0.1354413896
 C          3.6113005798        3.2904224043       -0.3295620501
 C          4.2095413491        3.8759354908        0.7832062022
 C          5.2233683625        4.8112681234        0.6464617715
 C          5.6472014640        5.1726151773       -0.6207426511
 H          6.4323931857        5.9041188605       -0.7335768896
 C          5.0712779834        4.6070365963       -1.7454414325
 C          4.0614261207        3.6719202900       -1.5913217999
 Fe        -0.0235062610        0.0085828232        0.3424256420
 C         -3.3096815966        3.6327599017        0.0840153665
 C         -3.3442953975        4.3610000371        1.2759436667
 C         -4.1893479788        4.0068623163       -0.9308358529
 C         -4.2340855085        5.4055647011        1.4589062656
 C         -5.0794159737        5.0562427136       -0.7645901240
 H         -4.2440885906        5.9388886309        2.3947430592
 C         -5.0993997923        5.7492941165        0.4340225410
 H         -5.7451233261        5.3238383770       -1.5696742032
 H         -5.7961724816        6.5595880514        0.5674253478
 C          3.3252731209       -3.6104165739        0.1108389406
 C          3.6008009233       -4.3861146633        1.2356660368
 C          4.0161478719       -3.9025880798       -1.0657511672
 C          4.5456156931       -5.4021279472        1.1990436020
 C          4.9568279972       -4.9174789709       -1.1214974786
 H          4.7401379928       -5.9791327312        2.0894034476
 C          5.2230869143       -5.6596245723        0.0196930310
 H          5.4720941523       -5.1239994661       -2.0461860041
 H          5.9604984991       -6.4499518039       -0.0117397963
 H         -6.1039138044       -4.8511600902        1.3620666433
 H         -4.8510203320       -5.4361362001       -2.6918318350
 H          5.6678241537        5.2472510429        1.5258530550
 H          5.3976369382        4.8861418575       -2.7348220235
 Cl         2.7407477165       -4.0687060628        2.7049162070
 Cl         3.6797164229       -2.9716120571       -2.4768720975
 Cl        -2.2639090067        3.9154130821        2.5493783297
 Cl        -4.1427797805        3.1552297391       -2.4333371558
 Cl         3.6559008602        3.4154523415        2.3528464966
 Cl         3.3329284439        2.9472243967       -2.9789649273
 Cl        -4.2737962353       -2.8642473025        2.2226881530
 Cl        -2.7065485169       -3.5963032709       -2.8707665428
 Cl        -0.1234775196        0.0855095689        2.4729582155
  78
       -160.31224150
 N         -0.0838024740       -2.0587191466       -0.1718926162
 N         -1.9975264912        0.0766382663       -0.0967864671
 C          2.3100376071       -2.5415156455       -0.1549247739
 C          0.9749812929       -2.9131535958       -0.1418944658
 C          0.5057319436       -4.2744283090       -0.1128885717
 H          1.1409404189       -5.1387811022       -0.0916988053
 C         -0.8463132230       -4.2250697224       -0.1099607635
 H         -1.5460465335       -5.0389182145       -0.0933056777
 C         -1.2136632698       -2.8335582259       -0.1497780827
 C         -2.5048066884       -2.3499979935       -0.1865160459
 C         -2.8509615926       -0.9769718645       -0.2705438828
 C         -4.1530203130       -0.5116244152       -0.5606696901
 H         -5.0078571639       -1.1290357601       -0.7567361967
 C         -4.0900488166        0.8623521688       -0.5543578653
 H         -4.8863028080        1.5509035213       -0.7610688598
 C         -2.7537263780        1.2076772237       -0.2407044341
 C         -3.6311426683       -3.3074270369       -0.0813860554
 C         -4.2157028178       -3.5366891899        1.1635092022
 C         -5.2830783755       -4.4092506438        1.3090425541
 C         -5.7804538062       -5.0641335642        0.1958800842
 H         -6.6137484499       -5.7414720742        0.3029787851
 C         -5.2211672023       -4.8553592030       -1.0538465244
 C         -4.1511391143       -3.9836863216       -1.1824649827
 N          0.0988832150        2.0433616654       -0.0045253321
 N          2.0155262162       -0.0862870483       -0.0765059172
 C         -2.2927044111        2.5361797723       -0.0694243658
 C         -0.9576326787        2.8963026113        0.0775791304
 C         -0.4831468209        4.2418868665        0.2802305960
 H         -1.1111626857        5.0998801904        0.4218714061
 C          0.8683881568        4.1890918428        0.2597551668
 H          1.5663442724        4.9961948901        0.3694425302
 C          1.2316395450        2.8080170199        0.0803741193
 C          2.5237703873        2.3369720082       -0.0414520950
 C          2.8805609921        0.9704651755       -0.1448042928
 C          4.2088082411        0.5095433397       -0.2930728583
 H          5.0787729060        1.1316497467       -0.3710584566
 C          4.1497931174       -0.8628761561       -0.3099073386
 H          4.9634960522       -1.5557790087       -0.4048188345
 C          2.7840536164       -1.2120263056       -0.1767951789
 C          3.6221688999        3.3292745412       -0.1323519801
 C          4.1981009960        3.9064049581        0.9963099294
 C          5.2119783593        4.8428157436        0.8883567045
 C          5.6610400775        5.2191268519       -0.3658682117
 H          6.4510117217        5.9427774488       -0.4570392782
 C          5.1130146554        4.6574574585       -1.5064273252
 C          4.1036207552        3.7214179317       -1.3804129657
 Fe         0.0061472750       -0.0225040846        0.2786966868
 C         -3.3110563150        3.6015938296       -0.0831172906
 C         -4.2892770388        3.6780174919        0.9113899782
 C         -3.3477174142        4.5635833885       -1.0971587211
 C         -5.2672572815        4.6588146582        0.8934808276
 C         -4.3180776300        5.5494183578       -1.1262251330
 H         -6.0086441549        4.6823407172        1.6746681634
 C         -5.2791043283        5.5905536823       -0.1294896770
 H         -4.3247458431        6.2654800104       -1.9364525828
 H         -6.0430387983        6.3525474070       -0.1546501877
 C          3.3333704086       -3.6126080446       -0.1311835008
 C          3.8462439072       -4.0672617280        1.0819965120
 C          3.8154877530       -4.1831375312       -1.3051501810
 C          4.8112331373       -5.0605139560        1.1245097209
 C          4.7801853620       -5.1770923324       -1.2790470579
 H          5.1917641992       -5.3968714789        2.0755696828
 C          5.2729536772       -5.6089198005       -0.0595513487
 H          5.1370569679       -5.6012891689       -2.2034184467
 H          6.0239623176       -6.3833843945       -0.0342281882
 H         -5.7118611642       -4.5688676886        2.2852273458
 H         -5.6085647967       -5.3581268782       -1.9260664022
 H          5.6366023445        5.2748303504        1.7808925156
 H          5.4590686432        4.9401983711       -2.4879602917
 Cl         3.2430907115       -3.3648604032        2.5369357261
 Cl         3.1868461428       -3.6229543784       -2.8133790583
 Cl        -4.2613981896        2.5320354809        2.2042000159
 Cl        -2.1850012258        4.4885652306       -2.3749624642
 Cl         3.6265283444        3.4243442060        2.5551730867
 Cl         3.4033301151        3.0143193984       -2.7942476765
 Cl        -3.5733451774       -2.7092295993        2.5379774572
 Cl        -3.4421035442       -3.7082766600       -2.7337540421
 Cl        -0.0031152077       -0.1227438896        2.4110678666
  78
       -160.31226893
 N         -0.0980347609       -2.0559464941        0.2361267756
 N         -2.0200881233        0.0839051564        0.0858252334
 C          2.2974198536       -2.5482253683        0.2476846880
 C          0.9668311458       -2.9157459712        0.2696020414
 C          0.4932107024       -4.2725753154        0.2142394306
 H          1.1226646586       -5.1403969933        0.2336225377
 C         -0.8558870352       -4.2154168534        0.1234317736
 H         -1.5456794879       -5.0325510061        0.0562044677
 C         -1.2171313027       -2.8227182794        0.1367019952
 C         -2.5152698942       -2.3415982410        0.0016532135
 C         -2.8764732336       -0.9785329322       -0.0020031415
 C         -4.2144575976       -0.5170277033       -0.0896344894
 H         -5.0821751770       -1.1423092008       -0.1574247349
 C         -4.1625535695        0.8547827095       -0.0653140928
 H         -4.9844654498        1.5399496467       -0.1165808970
 C         -2.7966806780        1.2052136120        0.0334518650
 C         -3.5953478168       -3.3244916171       -0.2301726255
 C         -4.0702248804       -4.1588092400        0.7807483623
 C         -5.0759188959       -5.0826099927        0.5447272714
 C         -5.6238013948       -5.1830509874       -0.7222007929
 H         -6.4038252764       -5.9019885470       -0.9133021632
 C         -5.1748716627       -4.3690441609       -1.7494912672
 C         -4.1695132271       -3.4529993085       -1.4967157685
 N          0.0736066675        2.0317661975       -0.0991540837
 N          2.0011561011       -0.0904570408        0.1472143178
 C         -2.3176568224        2.5402649966       -0.0190594674
 C         -0.9849122122        2.8973205372       -0.1053040550
 C         -0.5028244693        4.2504454392       -0.2094248712
 H         -1.1268666437        5.1218982808       -0.2227273392
 C          0.8470288131        4.1816276626       -0.2805657034
 H          1.5526777678        4.9877388399       -0.3556541784
 C          1.1994047192        2.7902761212       -0.1974415282
 C          2.5045576240        2.3124700651       -0.1609335060
 C          2.8663460533        0.9611769645        0.0109747169
 C          4.2041624391        0.4936809492        0.0044485050
 H          5.0817807314        1.1018409045       -0.0912848540
 C          4.1449155636       -0.8714174550        0.1293140452
 H          4.9645220974       -1.5613439319        0.1703689204
 C          2.7742192495       -1.2138143207        0.1985004479
 C          3.6052311480        3.2800982038       -0.3562834243
 C          4.4191350982        3.6873016075        0.7002118323
 C          5.4709904588        4.5676209798        0.5036788121
 C          5.7238295192        5.0517537585       -0.7682280132
 H          6.5463900587        5.7305022972       -0.9297459590
 C          4.9305630580        4.6702200220       -1.8361533229
 C          3.8780487484        3.7960450791       -1.6223135060
 Fe        -0.0141109993        0.0195163143        0.4557943282
 C         -3.3271444777        3.6187664614       -0.0639111208
 C         -4.0273232093        3.9983217941        1.0808482550
 C         -3.6026072462        4.2975890648       -1.2498404631
 C         -4.9545796664        5.0274507169        1.0500046100
 C         -4.5340729901        5.3216909118       -1.2973223319
 H         -5.4683452082        5.3053132590        1.9552529566
 C         -5.2024581983        5.6861613343       -0.1416036563
 H         -4.7269433137        5.8233443610       -2.2317876390
 H         -5.9229528972        6.4882513120       -0.1714861801
 C          3.3208750164       -3.6111155970        0.1196957825
 C          3.7273179827       -4.3942919257        1.1973575590
 C          3.9187836502       -3.8432376799       -1.1206231118
 C          4.7095297827       -5.3621605566        1.0515857955
 C          4.9041108826       -4.8020074153       -1.2803633260
 H          5.0116586961       -5.9534274130        1.9013563318
 C          5.2977607284       -5.5556499869       -0.1871202127
 H          5.3522060920       -4.9543070481       -2.2494016036
 H          6.0685418588       -6.3026251207       -0.3046183482
 H         -5.4239041430       -5.7104317098        1.3488012898
 H         -5.5967044961       -4.4449173891       -2.7385058625
 H          6.0810973365        4.8634964796        1.3413019021
 H          5.1247969565        5.0366848430       -2.8301489688
 Cl         2.9967009005       -4.1252517424        2.7389256479
 Cl         3.3932929751       -2.9096234955       -2.4788237271
 Cl        -3.6975311073        3.1708261824        2.5609053294
 Cl        -2.7693951727        3.8326945104       -2.6890853967
 Cl         4.0858793468        3.0771556337        2.2820006672
 Cl         2.8887309590        3.3055589384       -2.9515942348
 Cl        -3.3964999194       -4.0123748880        2.3679451607
 Cl        -3.5831795951       -2.4501214510       -2.7771464008
 Cl        -0.0327753496        0.2139740565        2.5837307048
  78
       -160.31220139
 N         -0.0895157404       -2.0728998439       -0.3269908374
 N         -2.0137808381        0.0660580153       -0.1903396246
 C          2.2961069901       -2.5718588395       -0.1539486236
 C          0.9727414937       -2.9388869814       -0.2314453739
 C          0.4876184736       -4.2956231236       -0.2383036321
 H          1.1167539732       -5.1639220683       -0.1883477997
 C         -0.8589316939       -4.2331471218       -0.3443013740
 H         -1.5661807609       -5.0393903374       -0.3842962660
 C         -1.2114418473       -2.8364291670       -0.3697845661
 C         -2.5163266436       -2.3524030300       -0.3565067479
 C         -2.8756583543       -0.9936027994       -0.2881987279
 C         -4.2151406238       -0.5267560906       -0.2955667986
 H         -5.0884801303       -1.1444066381       -0.3756494957
 C         -4.1578284256        0.8415297003       -0.1906738234
 H         -4.9811533867        1.5286948434       -0.1549998857
 C         -2.7891331392        1.1863173717       -0.1354480078
 C         -3.6362398886       -3.3224720150       -0.3263485671
 C         -4.2511307096       -3.6441072497        0.8835513919
 C         -5.3374680018       -4.5024108715        0.9312788301
 C         -5.8261022223       -5.0482875851       -0.2438813504
 H         -6.6794734121       -5.7079415223       -0.2120716283
 C         -5.2318879615       -4.7527805667       -1.4586507252
 C         -4.1417923843       -3.8964172337       -1.4896226903
 N          0.0871813081        2.0235949593       -0.2325056637
 N          2.0090856296       -0.1114781806       -0.2364055666
 C         -2.3018746096        2.5193421070       -0.0413587137
 C         -0.9745283237        2.8815748634       -0.0941694992
 C         -0.4902110937        4.2378029057       -0.0350349758
 H         -1.1142706022        5.1048901040        0.0629412280
 C          0.8574425766        4.1782357873       -0.1252742532
 H          1.5559208268        4.9917343960       -0.0986277591
 C          1.2084890598        2.7875115867       -0.2465162859
 C          2.5156358920        2.3077099157       -0.3237513835
 C          2.8706368964        0.9462697479       -0.3598335954
 C          4.1997249722        0.4707976828       -0.5019249757
 H          5.0670219622        1.0849141494       -0.6442123374
 C          4.1396840765       -0.8993284970       -0.4273952777
 H          4.9501054218       -1.5989417168       -0.4917754646
 C          2.7766987678       -1.2349066257       -0.2627107950
 C          3.6138288724        3.2943849318       -0.2865884238
 C          4.4321107291        3.4009209693        0.8414430354
 C          5.4489004591        4.3394841265        0.9059734836
 C          5.6677741444        5.1856042506       -0.1675699592
 H          6.4584874024        5.9181048957       -0.1185055298
 C          4.8790209293        5.0986222312       -1.3020144698
 C          3.8615989363        4.1597985621       -1.3503661966
 Fe         0.0009240108       -0.0336258746        0.1143462574
 C         -3.3045962038        3.5980360088        0.1123133524
 C         -3.5162049608        4.1977074937        1.3542090982
 C         -4.0453157865        4.0594823014       -0.9718912780
 C         -4.4399296782        5.2183395987        1.5093164084
 C         -4.9656242241        5.0859241878       -0.8321088600
 H         -4.5897118036        5.6603152481        2.4821317186
 C         -5.1595825402        5.6601027223        0.4116543410
 H         -5.5141561612        5.4309373175       -1.6955639731
 H         -5.8747307118        6.4592718762        0.5282297232
 C          3.3188360284       -3.6020663558        0.1440975129
 C          3.6284130973       -3.8640529323        1.4784397750
 C          4.0218173918       -4.2934674170       -0.8382269724
 C          4.6035814898       -4.7856668956        1.8246181107
 C          5.0035124456       -5.2146716227       -0.5107230465
 H          4.8202512452       -4.9661341861        2.8650689611
 C          5.2876594555       -5.4548012531        0.8240841434
 H          5.5409723941       -5.7306437129       -1.2907751034
 H          6.0538215855       -6.1677555721        1.0866446656
 H         -5.7956800373       -4.7297923990        1.8797909704
 H         -5.6093768171       -5.1707893197       -2.3779454052
 H          6.0549641363        4.4049568851        1.7959073986
 H          5.0448866099        5.7501063565       -2.1447640299
 Cl         2.7672500141       -2.9967880560        2.7049543747
 Cl         3.6530569655       -3.9668333063       -2.4962321730
 Cl        -2.6041107532        3.6399606954        2.7123525994
 Cl        -3.7844873218        3.3397407831       -2.5216413743
 Cl         4.1403228212        2.3612633351        2.1907135061
 Cl         2.8816416903        4.0386856971       -2.7685620213
 Cl        -3.6279527178       -2.9455145952        2.3360273650
 Cl        -3.3948466965       -3.4999414787       -2.9965794013
 Cl         0.0272641606       -0.0387564023        2.2461845553
  78
       -160.31219230
 N         -0.1002516411       -2.0455543920       -0.1374718660
 N         -2.0207506256        0.0815282187       -0.0012604328
 C          2.3071240968       -2.5233626113       -0.1672041250
 C          0.9549755139       -2.9015028713       -0.2384468121
 C          0.4886878606       -4.2391786622       -0.3804239436
 H          1.1148832403       -5.1020860333       -0.4970222997
 C         -0.8757917975       -4.1818056986       -0.3531958201
 H         -1.5728361586       -4.9918195356       -0.4477305067
 C         -1.2276969319       -2.8113375555       -0.1749982636
 C         -2.5403251471       -2.3258355442       -0.0644230297
 C         -2.8885774732       -0.9716333508        0.0078938246
 C         -4.2364169170       -0.4948410575        0.0453825264
 H         -5.1126518772       -1.1108196582        0.0956300082
 C         -4.1768705609        0.8625543696        0.0020311338
 H         -4.9947338920        1.5556945047       -0.0092522350
 C         -2.7916788887        1.2186664486       -0.0191535628
 C         -3.6209278281       -3.3331325368       -0.0416896949
 C         -3.7667819804       -4.1946998233        1.0491288186
 C         -4.7425350147       -5.1775943278        1.0704464972
 C         -5.5982598545       -5.3120521091       -0.0094756012
 H         -6.3538904230       -6.0823699558       -0.0013018034
 C         -5.4863218723       -4.4683324038       -1.1011849849
 C         -4.5053229992       -3.4901350075       -1.1091293779
 N          0.0918539254        2.0486787630       -0.0730808437
 N          2.0109537099       -0.0757686815       -0.0707173336
 C         -2.3229314114        2.5259870192       -0.0762202998
 C         -0.9677596842        2.9046719207       -0.0534088969
 C         -0.5089120111        4.2489572764        0.0244515329
 H         -1.1396736214        5.1148782551        0.0791895728
 C          0.8554313003        4.1971282657        0.0492295927
 H          1.5464008651        5.0128523335        0.1256904070
 C          1.2153875222        2.8185388580       -0.0340474543
 C          2.5322079613        2.3324346071       -0.0665823059
 C          2.8814994127        0.9753298981       -0.0952392577
 C          4.2234335651        0.4928593522       -0.1793822618
 H          5.1004530564        1.1061010498       -0.2404914182
 C          4.1581073121       -0.8652747555       -0.1755812089
 H          4.9678949103       -1.5659352459       -0.2246349425
 C          2.7733442518       -1.2142007949       -0.1170867129
 C          3.6146162449        3.3341166108       -0.0909138377
 C          4.5021592874        3.4798220045        0.9768350955
 C          5.4970096389        4.4431151206        0.9682925767
 C          5.6163359473        5.2914461813       -0.1177539728
 H          6.3808367848        6.0509493186       -0.1246387975
 C          4.7550863322        5.1730908360       -1.1960688242
 C          3.7715811398        4.2001120727       -1.1787899596
 Fe         0.0005008078       -0.0046118747        0.2844149427
 C         -3.3100624060        3.6172954158       -0.2329110282
 C         -4.1253199478        4.0492925373        0.8115002751
 C         -3.4404710369        4.2565601560       -1.4669339895
 C         -5.0403726714        5.0753665065        0.6340307188
 C         -4.3516536460        5.2798863891       -1.6600500003
 H         -5.6557497382        5.3898666042        1.4613069610
 C         -5.1495378609        5.6849865039       -0.6033501687
 H         -4.4311991018        5.7480880130       -2.6275479855
 H         -5.8610797026        6.4827086715       -0.7468434247
 C          3.3067388324       -3.6135971366       -0.0906352706
 C          3.8232887918       -3.9858728580        1.1500933963
 C          3.7415411654       -4.3091907853       -1.2154285435
 C          4.7365431386       -5.0197706718        1.2692010781
 C          4.6565438097       -5.3439779135       -1.1123482231
 H          5.1136988417       -5.2877366498        2.2432125319
 C          5.1487393044       -5.6944694644        0.1332901648
 H          4.9781122340       -5.8616443022       -2.0014631777
 H          5.8646538730       -6.4982427809        0.2168955808
 H         -4.8238087089       -5.8276225922        1.9249478194
 H         -6.1485838052       -4.5672044584       -1.9462457301
 H          6.1628938539        4.5277949766        1.8119836520
 H          4.8420213666        5.8271816651       -2.0486894289
 Cl         3.2850183870       -3.1394750909        2.5562308127
 Cl         3.1237003777       -3.8502161394       -2.7619936668
 Cl        -3.9652672338        3.2964658245        2.3580520713
 Cl        -2.4474499178        3.7340124697       -2.7807764671
 Cl         4.3210767547        2.4600193731        2.3620415672
 Cl         2.7280345346        4.0313608897       -2.5454443951
 Cl        -2.7091110944       -4.0115495777        2.4025014457
 Cl        -4.3465538530       -2.4629337797       -2.4904496345
 Cl         0.0562580361       -0.0484272525        2.4194416579
  78
       -160.31213475
 N         -0.0619466330       -2.0179777372       -0.3071416331
 N         -2.0084840004        0.1012626591       -0.1545485568
 C          2.3235917392       -2.5053561463       -0.0502800574
 C          0.9890851057       -2.8716032298       -0.2320606025
 C          0.5278479782       -4.2271857286       -0.3800908454
 H          1.1620465052       -5.0923780490       -0.3889123504
 C         -0.8181018315       -4.1729506863       -0.5109764205
 H         -1.5071948898       -4.9844112500       -0.6444674057
 C         -1.1910245311       -2.7845537032       -0.4332624996
 C         -2.4870378523       -2.3157053081       -0.4028262450
 C         -2.8653666612       -0.9531023527       -0.2669778786
 C         -4.2039099781       -0.5060962235       -0.1978800287
 H         -5.0715306600       -1.1316142539       -0.2598528071
 C         -4.1570744660        0.8579975824       -0.0377153634
 H         -4.9807154053        1.5383144703        0.0536651778
 C         -2.7872888169        1.2192283219       -0.0234428560
 C         -3.5809243149       -3.3153311543       -0.3888558067
 C         -3.9459523315       -3.9249804885        0.8106852946
 C         -4.9664094385       -4.8602140693        0.8610621400
 C         -5.6349393500       -5.1977509699       -0.3030833290
 H         -6.4304916821       -5.9257002777       -0.2699854504
 C         -5.2923641515       -4.6108580475       -1.5090757211
 C         -4.2708343346       -3.6750876207       -1.5425604372
 N          0.0748629772        2.0750103156       -0.1643285106
 N          2.0181200766       -0.0592411449       -0.1727930310
 C         -2.3148743533        2.5434606052        0.0431122782
 C         -0.9807432944        2.9246716026       -0.0668804300
 C         -0.5178756989        4.2855827723       -0.1237008872
 H         -1.1524346802        5.1489464039       -0.0673892453
 C          0.8278586508        4.2381751991       -0.2652236005
 H          1.5191682310        5.0542824593       -0.3498384513
 C          1.2009363703        2.8472230522       -0.2679273540
 C          2.4944678523        2.3717839948       -0.3183925452
 C          2.8711160954        1.0033747578       -0.2282868785
 C          4.2101396253        0.5595155215       -0.1324243753
 H          5.0785668302        1.1888335398       -0.1426734576
 C          4.1662891239       -0.8077388878       -0.0041214039
 H          4.9958136027       -1.4767209247        0.1115553004
 C          2.8000984635       -1.1789451743       -0.0587181425
 C          3.6127109167        3.3374027729       -0.4249038403
 C          4.1044719749        4.0097826807        0.6926263321
 C          5.1992356524        4.8530044301        0.6004853715
 C          5.8117336412        5.0424059892       -0.6261812262
 H          6.6724362121        5.6884402265       -0.7018068685
 C          5.3313235832        4.4063391341       -1.7584792090
 C          4.2410325463        3.5601071750       -1.6482311822
 Fe         0.0062340639        0.0144774437        0.1552492368
 C         -3.3289236688        3.6097991012        0.2177159011
 C         -3.7198843319        4.0039878870        1.4952382080
 C         -3.9241294864        4.2376384346       -0.8732291294
 C         -4.6746048137        4.9913554664        1.6816756580
 C         -4.8781363969        5.2271297514       -0.7034875915
 H         -4.9593323303        5.2748272460        2.6817730880
 C         -5.2488965854        5.5975901826        0.5781464458
 H         -5.3222231489        5.6965121909       -1.5663722486
 H         -5.9931252115        6.3659958915        0.7178634969
 C          3.2864509701       -3.5963146974        0.2027874235
 C          3.2181940611       -4.3040175474        1.4067371288
 C          4.2679782091       -3.9709500903       -0.7129759645
 C          4.0993348599       -5.3311430409        1.6919318938
 C          5.1597000511       -4.9948103543       -0.4385182944
 H          4.0196370836       -5.8541046144        2.6310588454
 C          5.0715065778       -5.6693569580        0.7664430427
 H          5.9079328861       -5.2593461705       -1.1677991147
 H          5.7622334773       -6.4666401159        0.9850764287
 H         -5.2284962111       -5.3136401866        1.8031258825
 H         -5.8084098007       -4.8725827881       -2.4187352605
 H          5.5674636181        5.3465010892        1.4853298749
 H          5.7982248179        4.5560655092       -2.7186290898
 Cl         2.0144762874       -3.8623272913        2.5664868195
 Cl         4.3445173584       -3.1613610563       -2.2372456307
 Cl        -2.9855377582        3.2310101737        2.8545757903
 Cl        -3.4499191673        3.7538030803       -2.4614602727
 Cl         3.3307853006        3.7558003190        2.2162046355
 Cl         3.6320225064        2.7511657304       -3.0459977453
 Cl        -3.0962454684       -3.4843517529        2.2498671406
 Cl        -3.8244563041       -2.9334882224       -3.0367415114
 Cl         0.0060433140       -0.0817000373        2.2870137584
  78
       -160.31217979
 N         -0.0977465845       -2.0712628161       -0.2752672006
 N         -2.0060409884        0.0695748099       -0.1648041773
 C          2.2701020865       -2.5738455398        0.0219661218
 C          0.9503925177       -2.9424357990       -0.1197740420
 C          0.4563369286       -4.2951908535       -0.1442480283
 H          1.0643292876       -5.1724525839       -0.0414323550
 C         -0.8774904588       -4.2224590499       -0.3509914881
 H         -1.5759804220       -5.0291912683       -0.4551557592
 C         -1.2222929266       -2.8239200698       -0.3792549222
 C         -2.5249439494       -2.3302871521       -0.4486798647
 C         -2.8765638448       -0.9717136456       -0.3269248712
 C         -4.2122242840       -0.4914921843       -0.3033617745
 H         -5.0945717993       -1.0938035437       -0.3940356484
 C         -4.1408645223        0.8680561312       -0.1259970813
 H         -4.9512499653        1.5675890172       -0.0595259064
 C         -2.7676769650        1.1951240376       -0.0510841819
 C         -3.6310950674       -3.2972474994       -0.6145504882
 C         -4.0305287275       -4.1348995828        0.4272751642
 C         -5.0769208351       -5.0301700556        0.2741750605
 C         -5.7437499516       -5.0972623811       -0.9370537732
 H         -6.5614669184       -5.7894232527       -1.0629443170
 C         -5.3717754458       -4.2791924460       -1.9892947756
 C         -4.3242411908       -3.3884774986       -1.8215127108
 N          0.1104923532        2.0193524129       -0.1950490670
 N          2.0138080300       -0.1090834610       -0.1570294144
 C         -2.2685940733        2.5172211346        0.0750433161
 C         -0.9430017881        2.8799113755       -0.0160605226
 C         -0.4518765778        4.2319525478        0.0446073592
 H         -1.0677198235        5.0992139493        0.1827977458
 C          0.8897249418        4.1697289455       -0.1071012343
 H          1.5948475671        4.9784606779       -0.1017613756
 C          1.2326840147        2.7782245654       -0.2522371327
 C          2.5358336002        2.2938557857       -0.3856068294
 C          2.8830016231        0.9280270143       -0.3638156573
 C          4.1983371396        0.4237742538       -0.5272636604
 H          5.0707011749        1.0109854034       -0.7345875870
 C          4.1219934374       -0.9395825416       -0.3709998292
 H          4.9181697032       -1.6574496027       -0.4326438136
 C          2.7628860656       -1.2448561116       -0.1442918988
 C          3.6216092097        3.2806906081       -0.5362596939
 C          4.6114958271        3.4454600753        0.4354446068
 C          5.6283782511        4.3734569719        0.2816110133
 C          5.6679296287        5.1663384505       -0.8527979133
 H          6.4537830179        5.8933915367       -0.9758291812
 C          4.6984250126        5.0332394729       -1.8313222438
 C          3.6915563520        4.0970473995       -1.6687644213
 Fe         0.0032369583       -0.0330146746        0.1688466317
 C         -3.2624555161        3.5903506433        0.3131826452
 C         -3.6338240596        3.9213062417        1.6133640509
 C         -3.8391383763        4.2993855875       -0.7378178414
 C         -4.5386594926        4.9411952552        1.8646309965
 C         -4.7484880428        5.3175093877       -0.5020217928
 H         -4.8011827705        5.1850587377        2.8806520749
 C         -5.0885826983        5.6365482475        0.8022476291
 H         -5.1782082895        5.8534118116       -1.3325504896
 H         -5.7863905232        6.4381393565        0.9887555958
 C          3.2681968223       -3.5732877128        0.4533726888
 C          3.7443972439       -3.4851908151        1.7663004466
 C          3.7703294075       -4.5890631702       -0.3548236088
 C          4.6767703187       -4.3823478744        2.2575394475
 C          4.7079634601       -5.4925580420        0.1232955266
 H          5.0160702053       -4.2917927971        3.2765605143
 C          5.1555792367       -5.3846496823        1.4289783384
 H          5.0818248323       -6.2687523033       -0.5250844590
 H          5.8832514172       -6.0856144290        1.8078213673
 H         -5.3638325823       -5.6612129205        1.0994943217
 H         -5.8835051808       -4.3247013357       -2.9368768789
 H          6.3751243921        4.4755050833        1.0515630358
 H          4.7188345838        5.6464423325       -2.7180322613
 Cl         3.1108735742       -2.2403023938        2.7899163679
 Cl         3.2350102578       -4.7015025912       -1.9978719016
 Cl        -2.9287799229        3.0354539984        2.9199662592
 Cl        -3.3949691054        3.8885143547       -2.3532075950
 Cl         4.5408223459        2.4983225357        1.8789736419
 Cl         2.5051345875        3.9122713355       -2.9104972751
 Cl        -3.2111738678       -4.0230010843        1.9463298575
 Cl        -3.8475810611       -2.3734143390       -3.1335257002
 Cl        -0.0095370929       -0.0719224787        2.3031759091
  78
       -160.31204332
 N         -0.0490645395       -2.0219226406       -0.1052239781
 N         -1.9813462234        0.0878236080       -0.0425818905
 C          2.3592519377       -2.4734475912        0.2094555526
 C          1.0151147278       -2.8583680034       -0.1001127016
 C          0.6179457436       -4.1577395652       -0.4952186722
 H          1.2676896538       -5.0052126209       -0.5958864855
 C         -0.7349631131       -4.0989046104       -0.7341341502
 H         -1.3734784695       -4.8917854591       -1.0727888514
 C         -1.1398925106       -2.7663012587       -0.4551762717
 C         -2.4642202297       -2.2880021540       -0.4521647496
 C         -2.8295763269       -0.9666405794       -0.1792123039
 C         -4.1839072143       -0.5242878374        0.0181542915
 H         -5.0448662063       -1.1599559433       -0.0096597949
 C         -4.1384623623        0.8023913519        0.2759984287
 H         -4.9557478041        1.4676478792        0.4754759979
 C         -2.7564826910        1.1971576546        0.2033117243
 C         -3.5514395788       -3.2494420698       -0.7142864378
 C         -3.8357134122       -4.3000960284        0.1626491945
 C         -4.8839440087       -5.1725391832       -0.0742282267
 C         -5.6677885102       -5.0117105114       -1.2043175293
 H         -6.4886552170       -5.6854828975       -1.3906799238
 C         -5.4037731834       -3.9914431877       -2.0999655075
 C         -4.3551468282       -3.1226737300       -1.8501913811
 N          0.0821882939        2.0537183122       -0.1098515918
 N          2.0261281349       -0.0697750586       -0.0818315641
 C         -2.3111233531        2.5010402124        0.2320214673
 C         -0.9730807249        2.9011798520       -0.0497010498
 C         -0.5558208024        4.2210160805       -0.3362562461
 H         -1.1927992068        5.0811155891       -0.3595734827
 C          0.7906073174        4.1590059994       -0.5987938461
 H          1.4440133032        4.9616163524       -0.8823322143
 C          1.1793952606        2.8052582174       -0.4204932234
 C          2.4952579936        2.3140995551       -0.4688086713
 C          2.8651603584        0.9913927147       -0.2164515623
 C          4.2238989612        0.5638464737       -0.0110984204
 H          5.0803572397        1.2083623630       -0.0511312855
 C          4.1866879122       -0.7574992590        0.2782598826
 H          5.0115926088       -1.4031742791        0.5120325237
 C          2.8111846223       -1.1721420353        0.1749570241
 C          3.5755611648        3.2704426890       -0.7922486903
 C          3.9673969851        4.2786065427        0.0884588473
 C          4.9763463104        5.1694354196       -0.2412466237
 C          5.6079515034        5.0622831086       -1.4686620543
 H          6.3930430228        5.7552114604       -1.7297924122
 C          5.2406786229        4.0721164972       -2.3626851616
 C          4.2352944039        3.1841517058       -2.0194730210
 Fe         0.0258592313        0.0155684234        0.3134046617
 C         -3.2930364662        3.5692816340        0.5246042416
 C         -3.6214876884        3.8690496601        1.8462621128
 C         -3.9163398995        4.2955444539       -0.4865925836
 C         -4.5398101807        4.8602438786        2.1505916267
 C         -4.8387669333        5.2858424955       -0.1986440549
 H         -4.7761962458        5.0692329352        3.1809402227
 C         -5.1445909690        5.5622560018        1.1233833334
 H         -5.3107007002        5.8258705233       -1.0019087914
 H         -5.8633385517        6.3276862463        1.3512098943
 C          3.2769137722       -3.5753064342        0.5501839706
 C          3.0607373303       -4.2970007711        1.7289960739
 C          4.3402777682       -3.9676507666       -0.2623875948
 C          3.8778000995       -5.3573204308        2.0884051870
 C          5.1701171422       -5.0232175212        0.0891857810
 H          3.6853350209       -5.8907254449        3.0053133787
 C          4.9361006182       -5.7121567236        1.2671186055
 H          5.9832254226       -5.3009406420       -0.5622544382
 H          5.5795107118       -6.5301931713        1.5459312043
 H         -5.0776069643       -5.9652532328        0.6244940937
 H         -6.0033301998       -3.8625734202       -2.9875245740
 H          5.2597021848        5.9360119824        0.4624562415
 H          5.7222270614        3.9834519161       -3.3235820053
 Cl         1.7429603181       -3.8351212222        2.7511777441
 Cl         4.5966934245       -3.1576881139       -1.7709862485
 Cl        -2.8540596036        2.9725912988        3.1086759168
 Cl        -3.5338811700        3.9182515119       -2.1299798632
 Cl         3.1936644470        4.3867964861        1.6281107824
 Cl         3.7640118693        1.9586980268       -3.1389015219
 Cl        -2.8884855882       -4.4791578255        1.5964589087
 Cl        -4.0134711496       -1.8627329389       -2.9819641622
 Cl         0.0515113912        0.0253105457        2.4466909136
  78
       -160.31202845
 N         -0.1009623246       -2.0482024973        0.0070543552
 N         -2.0208574143        0.0935840399       -0.1065491118
 C          2.3084084862       -2.5262297581        0.1684676720
 C          0.9467210770       -2.9109930553        0.1214770703
 C          0.4798144552       -4.2474842175        0.1057101056
 H          1.0899677560       -5.1248974473        0.1777372879
 C         -0.8856538832       -4.1850509880       -0.0285681863
 H         -1.5763970359       -5.0052360054       -0.0634895240
 C         -1.2243563227       -2.8109206733       -0.0985236491
 C         -2.5394695522       -2.3087990535       -0.2425550722
 C         -2.8814129455       -0.9621250312       -0.2223361264
 C         -4.2330398277       -0.4750194919       -0.3002434413
 H         -5.1007524445       -1.0924713446       -0.4214461022
 C         -4.1793418473        0.8703290053       -0.1679020702
 H         -4.9937904038        1.5672959558       -0.1537452454
 C         -2.7901490897        1.2280852269       -0.0734217190
 C         -3.6071715736       -3.3146890657       -0.4218058201
 C         -4.5603022779       -3.5734211064        0.5639677213
 C         -5.5346545105       -4.5429123142        0.3894645754
 C         -5.5604067086       -5.2812837194       -0.7816085497
 H         -6.3118624529       -6.0438638960       -0.9209943371
 C         -4.6321858208       -5.0447472319       -1.7806488584
 C         -3.6685848112       -4.0678538591       -1.5957827770
 N          0.0817428444        2.0456277812       -0.1594382486
 N          1.9965018458       -0.0950647550       -0.0344440133
 C         -2.3261754383        2.5313530565       -0.0195650626
 C         -0.9654495517        2.9121982114       -0.1236222915
 C         -0.5048474820        4.2424936644       -0.2734756844
 H         -1.1241843220        5.1182129695       -0.2908495938
 C          0.8620136887        4.1720326272       -0.3984272484
 H          1.5511451803        4.9825769866       -0.5302449089
 C          1.2058081543        2.8008670091       -0.3104903130
 C          2.5217357934        2.2936884483       -0.3068159780
 C          2.8614093089        0.9567327669       -0.1628636742
 C          4.2176138606        0.4813644313       -0.1150198356
 H          5.0846861735        1.1082598758       -0.1934576235
 C          4.1600165202       -0.8607360387        0.0474673294
 H          4.9703306309       -1.5577201176        0.1388415898
 C          2.7677578919       -1.2223147279        0.0776824322
 C          3.6117945080        3.2875899194       -0.4476461687
 C          4.2562262326        3.8082636394        0.6732968787
 C          5.2553315065        4.7605860849        0.5516879617
 C          5.6223750009        5.2038630645       -0.7073746701
 H          6.3994357079        5.9456754247       -0.8111910425
 C          5.0025012716        4.7021163909       -1.8381723108
 C          4.0041528775        3.7507320929       -1.7004771462
 Fe        -0.0172883995        0.0140138774        0.2927150908
 C         -3.2948016509        3.6287756390        0.1982293669
 C         -3.3789587667        4.2040856848        1.4665641190
 C         -4.1182304224        4.1322761776       -0.8043159449
 C         -4.2610629197        5.2386229834        1.7271933874
 C         -5.0049834142        5.1674422514       -0.5582582547
 H         -4.3099602071        5.6604423490        2.7174551244
 C         -5.0713067656        5.7146072083        0.7111975688
 H         -5.6304700576        5.5357914755       -1.3545556139
 H         -5.7683602095        6.5146853145        0.9119402958
 C          3.3061518008       -3.6179717694        0.2149322484
 C          3.5434649566       -4.3344424187        1.3864207349
 C          4.0236823843       -3.9788523816       -0.9250444993
 C          4.4658214324       -5.3644729042        1.4248842719
 C          4.9431170266       -5.0091967932       -0.9041087265
 H          4.6328300808       -5.8963626694        2.3478509689
 C          5.1619092890       -5.6952679432        0.2769663261
 H          5.4769215400       -5.2674347745       -1.8037215211
 H          5.8863119271       -6.4937165194        0.3053397942
 H         -6.2538188642       -4.7239326156        1.1740298766
 H         -4.6542628421       -5.6078997217       -2.7016253642
 H          5.7328496457        5.1472546480        1.4375327665
 H          5.2831051179        5.0416328094       -2.8225317330
 Cl         2.6734653497       -3.9007919372        2.8134434752
 Cl         3.7326524244       -3.1280281355       -2.3977255218
 Cl        -2.3709828296        3.5852883600        2.7239743197
 Cl        -4.0143705903        3.4512407363       -2.3897567060
 Cl         3.7799469156        3.2471480408        2.2338566434
 Cl         3.2212978952        3.1094796895       -3.0980000052
 Cl        -4.4984869069       -2.6827176411        2.0447005610
 Cl        -2.5328238603       -3.7447357475       -2.8548703247
 Cl        -0.0605838762        0.1316652191        2.4232772343
  78
       -160.31199260
 N         -0.0465405489       -2.0612705500        0.0476381019
 N         -1.9481185526        0.0451480244       -0.1678237893
 C          2.3499505224       -2.5246196625       -0.0294575527
 C          1.0195965590       -2.8977398266        0.1454430054
 C          0.5696742451       -4.2336489024        0.4280650058
 H          1.2187179948       -5.0750641428        0.5747284156
 C         -0.7804766913       -4.1857495357        0.5093945098
 H         -1.4592192124       -4.9817272562        0.7445236863
 C         -1.1696958940       -2.8300639404        0.2092481479
 C         -2.4559900744       -2.3772052462        0.0015609038
 C         -2.7665310939       -1.0242603830       -0.3486237288
 C         -4.0128434262       -0.6058025298       -0.8695938133
 H         -4.8227965065       -1.2524571446       -1.1467936745
 C         -3.9680388188        0.7649214530       -0.9453840489
 H         -4.7332576382        1.4308006302       -1.2939321618
 C         -2.6858306757        1.1544168830       -0.4874362074
 C         -3.6108084579       -3.2809676002        0.1122736872
 C         -4.6374367315       -2.9932660700        1.0234404081
 C         -5.7804393154       -3.7699415105        1.1002750331
 C         -5.9141407424       -4.8716854053        0.2726133832
 H         -6.8051217808       -5.4772225571        0.3242666591
 C         -4.9115975610       -5.1954330799       -0.6263380970
 C         -3.7803074674       -4.4004823854       -0.7072111338
 N          0.1165576184        2.0395435112       -0.0994513344
 N          2.0480847386       -0.0734714997        0.0738941964
 C         -2.2699961960        2.4900180063       -0.3252720880
 C         -0.9536205624        2.8808050759       -0.1095649734
 C         -0.5111852968        4.2360354754        0.0877854902
 H         -1.1582389906        5.0898140422        0.1439635342
 C          0.8362986131        4.1992858414        0.1891789129
 H          1.5127051684        5.0166025157        0.3470606343
 C          1.2306514733        2.8173786178        0.0586142806
 C          2.5312756500        2.3576849590        0.0576469299
 C          2.8982709836        0.9826131599       -0.0313732175
 C          4.2178527851        0.5319963155       -0.2761674844
 H          5.0759136652        1.1607339989       -0.4101816925
 C          4.1658009234       -0.8378584660       -0.3180134484
 H          4.9740969074       -1.5224736518       -0.4859154780
 C          2.8127088403       -1.2014840388       -0.0945920903
 C          3.6292861491        3.3428363397        0.0725802324
 C          4.5138384681        3.4293552365        1.1495099619
 C          5.5559863266        4.3418681748        1.1587036132
 C          5.7321396307        5.1862856688        0.0762656286
 H          6.5439530481        5.8966736088        0.0778722320
 C          4.8747938352        5.1236885338       -1.0084917247
 C          3.8351838976        4.2093648810       -1.0032604200
 Fe         0.0261046040        0.0026280512        0.3426337721
 C         -3.3305272866        3.5163038795       -0.3349934665
 C         -4.2667875355        3.5559239810        0.7016880501
 C         -3.4484864764        4.4597977415       -1.3545623053
 C         -5.2742801366        4.5048123250        0.7251139359
 C         -4.4568097714        5.4089751507       -1.3475999996
 H         -5.9755137192        4.5171300633        1.5440294083
 C         -5.3652251656        5.4268486394       -0.3034477601
 H         -4.5267992343        6.1211655558       -2.1538096860
 H         -6.1516405392        6.1664841066       -0.2902582757
 C          3.3356115544       -3.6033838654       -0.2752832283
 C          4.1840537382       -4.0982756836        0.7102018180
 C          3.4370680518       -4.1419909932       -1.5580188378
 C          5.1021206441       -5.0998239337        0.4302885743
 C          4.3540557898       -5.1347960043       -1.8544377137
 H          5.7453378618       -5.4695925484        1.2122195370
 C          5.1837462595       -5.6110317756       -0.8536379998
 H          4.4145625952       -5.5227101185       -2.8583681862
 H          5.8995847139       -6.3858933363       -1.0758590800
 H         -6.5546549274       -3.5069188431        1.8030300032
 H         -5.0079280346       -6.0490616596       -1.2774211893
 H          6.2175332072        4.3855221346        2.0086597218
 H          5.0079264411        5.7718562214       -1.8595823067
 Cl         4.0726610879       -3.4442839847        2.3034355007
 Cl         2.3960489089       -3.5355451401       -2.7934866167
 Cl        -4.1402031585        2.4095317635        1.9873152233
 Cl        -2.3245777486        4.4146751279       -2.6665063106
 Cl         4.2745222964        2.3866414469        2.5044596301
 Cl         2.7902846691        4.1133963660       -2.3775411467
 Cl        -4.4570428884       -1.6573445722        2.0945092682
 Cl        -2.5901366111       -4.7728026739       -1.9087302279
 Cl        -0.1196140357        0.0918707651        2.4696367204
  78
       -160.31188593
 N         -0.0667713128       -2.0272836020       -0.2654474436
 N         -1.9974143855        0.0943149983       -0.0943670002
 C          2.3460050369       -2.4904998970       -0.0961297167
 C          0.9874706983       -2.8751230774       -0.2965229962
 C          0.5472821662       -4.1966979382       -0.5564051924
 H          1.1843030655       -5.0542415050       -0.6559321628
 C         -0.8202481923       -4.1412332291       -0.6610270568
 H         -1.5027042523       -4.9455257508       -0.8568356089
 C         -1.1889696941       -2.7853733245       -0.4549717376
 C         -2.5016319228       -2.2987815784       -0.3759249055
 C         -2.8523365347       -0.9656159932       -0.1727034312
 C         -4.2069666500       -0.5137982034       -0.0071485286
 H         -5.0718825570       -1.1491778630       -0.0165624812
 C         -4.1589814527        0.8267705433        0.1700112977
 H         -4.9759670959        1.5020114964        0.3354779209
 C         -2.7734104198        1.2122369861        0.0898400899
 C         -3.6042313332       -3.2849938517       -0.4517295095
 C         -3.9673075532       -4.0328956808        0.6663144737
 C         -5.0187776257       -4.9343010142        0.6186891901
 C         -5.7160372548       -5.1008881197       -0.5656612055
 H         -6.5375464989       -5.7987232983       -0.6078515825
 C         -5.3711063595       -4.3794064532       -1.6954972311
 C         -4.3222486146       -3.4771082098       -1.6298054670
 N          0.0770843740        2.0685350383       -0.1410248616
 N          2.0147038589       -0.0685847393       -0.2982160291
 C         -2.3262843569        2.5183274740        0.1281349911
 C         -0.9734987031        2.9199585802       -0.0367270002
 C         -0.5331090506        4.2608964744       -0.1674224263
 H         -1.1644696190        5.1273559704       -0.1258972346
 C          0.8251694423        4.2115323599       -0.3555335747
 H          1.5054648642        5.0300344421       -0.4966678256
 C          1.1921971582        2.8391968859       -0.3248443794
 C          2.5012103029        2.3452045694       -0.4238337035
 C          2.8615089508        0.9980388769       -0.3557846179
 C          4.2208671843        0.5478285728       -0.2356669330
 H          5.0850547710        1.1832643003       -0.2552956421
 C          4.1815451158       -0.7929891352       -0.0583121059
 H          5.0065737349       -1.4591993476        0.1016100978
 C          2.7994242371       -1.1865137067       -0.1348335650
 C          3.6203196438        3.3114167159       -0.5040764270
 C          4.0464950555        4.0122790485        0.6225841459
 C          5.1645664938        4.8306368941        0.5789849617
 C          5.8678455169        4.9627173223       -0.6053425152
 H          6.7505172220        5.5818084144       -0.6381524190
 C          5.4504123731        4.3027788027       -1.7492174236
 C          4.3337043386        3.4878916559       -1.6889051707
 Fe         0.0262580627        0.0082585336        0.1660276452
 C         -3.3434626910        3.5794016013        0.3047070859
 C         -3.5255008994        4.1943715446        1.5421476662
 C         -4.1764501169        3.9640723279       -0.7443938337
 C         -4.5162558451        5.1434940816        1.7355788747
 C         -5.1674047009        4.9157641480       -0.5683244069
 H         -4.6446131251        5.5916319610        2.7075033175
 C         -5.3361769020        5.4958756596        0.6773079894
 H         -5.7978838324        5.1896457195       -1.3986404154
 H         -6.1146838101        6.2282775315        0.8245535369
 C          3.2886611935       -3.5709384174        0.2501076866
 C          3.1374752030       -4.2232399459        1.4780844382
 C          4.3445190468       -3.9707522887       -0.5678163274
 C          4.0212739767       -5.2066986089        1.8883734687
 C          5.2383387733       -4.9518701971       -0.1677074953
 H          3.8812239268       -5.6796844130        2.8458355749
 C          5.0766196708       -5.5602396439        1.0649231161
 H          6.0478087814       -5.2315598187       -0.8221831992
 H          5.7743776902       -6.3173999427        1.3816984710
 H         -5.2852439887       -5.4911654106        1.5017378432
 H         -5.9080703372       -4.5072412739       -2.6215493059
 H          5.4829381934        5.3446036642        1.4719019259
 H          5.9866829649        4.4081149318       -2.6778316334
 Cl         1.8406896029       -3.7498156739        2.5209880250
 Cl         4.5213151653       -3.2449386899       -2.1282409163
 Cl        -2.5015119587        3.7249389886        2.8515339915
 Cl        -3.9566008346        3.2273342117       -2.2915230123
 Cl         3.1811583804        3.8113848896        2.1044433158
 Cl         3.7978663081        2.6526840523       -3.1072523659
 Cl        -3.0872021072       -3.8012420035        2.1340640432
 Cl        -3.8785889826       -2.5601377364       -3.0249623045
 Cl         0.1568051648       -0.0668885279        2.2949401912
  78
       -160.31184585
 N         -0.0629658676       -2.0008637782       -0.0977477830
 N         -1.9985065904        0.1155829853        0.0366160322
 C          2.3503013278       -2.4850574173        0.0619108293
 C          0.9957276246       -2.8380993708       -0.1976438260
 C          0.5651004902       -4.1262443987       -0.6098889606
 H          1.2066359647       -4.9654677044       -0.7955652159
 C         -0.7988937602       -4.0656986599       -0.7207731149
 H         -1.4704002495       -4.8460169355       -1.0214698413
 C         -1.1793810253       -2.7407232167       -0.3702379735
 C         -2.5003205146       -2.2744190063       -0.2697012765
 C         -2.8578900463       -0.9433393172       -0.0414208004
 C         -4.2081148084       -0.4830496740        0.0959502222
 H         -5.0777880104       -1.1110528378        0.1025729853
 C         -4.1585927754        0.8659296506        0.2190272709
 H         -4.9806993319        1.5464830533        0.3246363645
 C         -2.7726241182        1.2411621683        0.1686315451
 C         -3.5649331184       -3.2891907864       -0.3932872921
 C         -3.6826501446       -4.3150980383        0.5509683900
 C         -4.6358988565       -5.3100866467        0.4216016387
 C         -5.5015259286       -5.2891005644       -0.6590687994
 H         -6.2427918735       -6.0656821101       -0.7672495367
 C         -5.4197160383       -4.2810052105       -1.6044536863
 C         -4.4560827594       -3.2962418281       -1.4676882620
 N          0.0874259429        2.0801007612       -0.0173932485
 N          2.0235415207       -0.0592259646       -0.0007713902
 C         -2.3191628419        2.5480451795        0.1420855454
 C         -0.9628740162        2.9377877400        0.0101781808
 C         -0.5076923354        4.2756997458       -0.1337210833
 H         -1.1316610878        5.1479113856       -0.1234539387
 C          0.8533298658        4.2144992067       -0.2753853819
 H          1.5401200196        5.0272039929       -0.4119711561
 C          1.2123683585        2.8415399543       -0.1880027024
 C          2.5188632258        2.3438420779       -0.2278628870
 C          2.8765381538        1.0050349296       -0.0454467998
 C          4.2266823915        0.5555805554        0.1223342704
 H          5.0896377636        1.1938197403        0.1439244390
 C          4.1800347420       -0.7896393903        0.2866996679
 H          4.9979776353       -1.4570536599        0.4742007515
 C          2.8047508311       -1.1805062375        0.1515218769
 C          3.6131132879        3.3046677710       -0.5065465145
 C          4.1780406042        4.1130722724        0.4772064723
 C          5.1995493132        5.0015725641        0.1785719179
 C          5.6672632717        5.0928815815       -1.1214632068
 H          6.4601474294        5.7851654687       -1.3606687942
 C          5.1229880858        4.3038094423       -2.1216635002
 C          4.1062993513        3.4181246464       -1.8060714771
 Fe         0.0154197282        0.0308055384        0.3605317624
 C         -3.3314145883        3.6275846594        0.1915223492
 C         -3.9786162777        3.9576319359        1.3828662957
 C         -3.6822999352        4.3334577774       -0.9569708888
 C         -4.9369628984        4.9569341106        1.4270897060
 C         -4.6380048798        5.3361327993       -0.9287626578
 H         -5.4212580110        5.1901133218        2.3617725846
 C         -5.2618762393        5.6414225994        0.2684147470
 H         -4.8902167327        5.8598491579       -1.8358476011
 H         -6.0098680239        6.4177386154        0.2993204204
 C          3.2810846336       -3.6115726769        0.2410744503
 C          3.0873177347       -4.5019293274        1.3035476891
 C          4.3473689043       -3.8717643797       -0.6225518394
 C          3.9226999776       -5.5869152251        1.5064279607
 C          5.1998864792       -4.9446984512       -0.4234913505
 H          3.7387382221       -6.2574313923        2.3299245397
 C          4.9839177264       -5.7989204323        0.6452686976
 H          6.0152889241       -5.1080766520       -1.1084926815
 H          5.6437926526       -6.6371959525        0.7995126585
 H         -4.6930642622       -6.0928785398        1.1615199210
 H         -6.0872350417       -4.2588129015       -2.4506732852
 H          5.6210709297        5.6122476972        0.9605495390
 H          5.4790722519        4.3700517201       -3.1377842159
 Cl         1.7884166990       -4.2182779020        2.4083239267
 Cl         4.5824010641       -2.8618577350       -2.0098826316
 Cl        -3.5527612846        3.1017069256        2.8201784735
 Cl        -2.9155614530        3.9197519719       -2.4504231406
 Cl         3.5871032468        3.9851658005        2.0977300513
 Cl         3.4095908655        2.4273313746       -3.0390775068
 Cl        -2.6260460838       -4.3281800798        1.9171033181
 Cl        -4.3240358571       -2.0706590934       -2.6812085167
 Cl         0.0341967817       -0.0024128121        2.4941913440
  78
       -160.31184277
 N         -0.1022366825       -2.0617689208       -0.2983135239
 N         -1.9751649335        0.1067072867       -0.1937553461
 C          2.2384041455       -2.5798388167        0.1080896169
 C          0.9101007534       -2.9304080506        0.0376016220
 C          0.3571985892       -4.2511010355        0.2215954267
 H          0.9211522155       -5.1173414941        0.5136503863
 C         -0.9617451933       -4.1679133109       -0.0667601543
 H         -1.6922372376       -4.9537581092       -0.0476330189
 C         -1.2460942507       -2.7869578410       -0.3637979664
 C         -2.5195076742       -2.2642342323       -0.6062555225
 C         -2.8264866774       -0.8899424160       -0.5942108258
 C         -4.1010242705       -0.3320739153       -0.8828498158
 H         -4.9488779398       -0.8724725412       -1.2565080221
 C         -4.0218678309        1.0088332413       -0.5976347397
 H         -4.7947229126        1.7475542790       -0.6886513780
 C         -2.6990851366        1.2541859812       -0.1627174376
 C         -3.6346308033       -3.2063746196       -0.8113795022
 C         -4.7154645979       -3.2660601713        0.0731644116
 C         -5.7805792139       -4.1256200413       -0.1398822914
 C         -5.7771276516       -4.9591060395       -1.2452196054
 H         -6.6049572830       -5.6286635973       -1.4179519918
 C         -4.7117138960       -4.9430394106       -2.1289416268
 C         -3.6560441913       -4.0734633561       -1.9083495793
 N          0.1437643263        2.0191907985       -0.1394788468
 N          2.0150039301       -0.1333301301       -0.2152204839
 C         -2.2013703664        2.5366122675        0.2354087288
 C         -0.8655600273        2.8714279909        0.2365661969
 C         -0.3023983778        4.1698726763        0.5222051483
 H         -0.8542987152        5.0108328660        0.8921338849
 C          1.0154681123        4.1005100983        0.2286143938
 H          1.7551848354        4.8736763987        0.3067034545
 C          1.2867914217        2.7434104729       -0.1780962637
 C          2.5491909768        2.2471053030       -0.5186771481
 C          2.8642101251        0.8772836619       -0.5841840834
 C          4.1339184104        0.3292587890       -0.9121596152
 H          4.9754026430        0.8848383291       -1.2771921079
 C          4.0558125824       -1.0212356195       -0.6699584754
 H          4.8248374574       -1.7590760927       -0.7947552001
 C          2.7362556565       -1.2804085798       -0.2371977626
 C          3.6097440364        3.2299682877       -0.8086017270
 C          4.7786161032        3.3260390738       -0.0483054444
 C          5.7658125413        4.2490737134       -0.3547482595
 C          5.5948881287        5.1065618222       -1.4264889883
 H          6.3639361617        5.8237336366       -1.6677024672
 C          4.4431838241        5.0472787902       -2.1921563977
 C          3.4657785709        4.1186841593       -1.8795503857
 Fe         0.0203260234       -0.0365501707        0.1847496396
 C         -3.2117770191        3.5308514159        0.6364771626
 C         -4.0237884420        3.2824434117        1.7474323726
 C         -3.4126400278        4.7292577172       -0.0556828541
 C         -4.9750265940        4.1962209926        2.1698002036
 C         -4.3541601507        5.6561359221        0.3602040641
 H         -5.5830363700        3.9684645562        3.0304652783
 C         -5.1291766627        5.3879783861        1.4764343369
 H         -4.4828448570        6.5741269896       -0.1919487758
 H         -5.8639970620        6.1066973535        1.8037954931
 C          3.2430892817       -3.5285723919        0.6220923571
 C          3.8680045018       -3.2320933465        1.8387119802
 C          3.6113849531       -4.7077737075       -0.0247058352
 C          4.7971704303       -4.0917895909        2.4032446406
 C          4.5427862596       -5.5748515477        0.5287661698
 H          5.2490500222       -3.8394405518        3.3489268851
 C          5.1261253608       -5.2654329504        1.7452910438
 H          4.8067364808       -6.4802331091        0.0049866270
 H          5.8421377482       -5.9455076843        2.1847913639
 H         -6.5990095113       -4.1408180265        0.5611492858
 H         -4.6986063854       -5.5923012119       -2.9932551889
 H          6.6545648589        4.2981350936        0.2539827429
 H          4.3025383850        5.7087529223       -3.0342802938
 Cl         3.4274308705       -1.7818032760        2.6709140334
 Cl         2.9223621928       -5.0742851643       -1.5678316517
 Cl        -3.8242504862        1.8010117126        2.6215759473
 Cl        -2.5092045036        5.0411008700       -1.4976518088
 Cl         4.9782079617        2.3066953324        1.3411668616
 Cl         2.0375791248        4.0469008107       -2.8573154399
 Cl        -4.7067054346       -2.2781247507        1.4906240121
 Cl        -2.3485272666       -4.0347512852       -3.0352004699
 Cl         0.0162554765       -0.1372043595        2.3157860306
  78
       -160.31183379
 N         -0.0488624387       -2.0899952010       -0.0156310797
 N         -1.9650366067        0.0328958060        0.1801381971
 C          2.3743339702       -2.5444333763        0.0828250266
 C          1.0097106004       -2.9282024754       -0.0996553782
 C          0.5749666785       -4.2338352492       -0.4369188777
 H          1.2134448092       -5.0841209796       -0.5774419805
 C         -0.7905626594       -4.1729737356       -0.5655971955
 H         -1.4608324855       -4.9684240869       -0.8263546862
 C         -1.1690107837       -2.8353546283       -0.2726846397
 C         -2.4794717070       -2.3450415024       -0.1774605819
 C         -2.8107062296       -1.0300463430        0.1696327608
 C         -4.1343196823       -0.6026405686        0.5283618282
 H         -4.9809786311       -1.2531902681        0.6347719189
 C         -4.0788205529        0.7352748793        0.7303970100
 H         -4.8691585340        1.3908007212        1.0415650033
 C         -2.7319487300        1.1464278640        0.4364683932
 C         -3.6090542532       -3.2254546899       -0.5422833662
 C         -4.0065939635       -4.3279705559        0.2121944009
 C         -5.0837511244       -5.1122543614       -0.1702167708
 C         -5.7814745811       -4.8013556434       -1.3245740941
 H         -6.6207928338       -5.4085209618       -1.6249902944
 C         -5.4121590258       -3.7128922106       -2.0961838200
 C         -4.3380586338       -2.9363031265       -1.7001683698
 N          0.0753871207        1.9807641634       -0.1102359201
 N          2.0362784123       -0.1319318490       -0.1510395072
 C         -2.3157642793        2.4501704206        0.2568352656
 C         -0.9923325108        2.8136741180       -0.1354587776
 C         -0.6026269467        4.0939436848       -0.6012753251
 H         -1.2563755030        4.9314446231       -0.7478335291
 C          0.7499722736        4.0350042592       -0.8243202554
 H          1.3886776996        4.8148973020       -1.1911791029
 C          1.1614060774        2.7166106796       -0.4930716125
 C          2.4918168945        2.2585069710       -0.4708637502
 C          2.8768752117        0.9373120917       -0.2557417299
 C          4.2383620176        0.5009412307       -0.1003973666
 H          5.0926217068        1.1495854026       -0.1312279389
 C          4.2077199323       -0.8358966513        0.1047485376
 H          5.0345518271       -1.4968402261        0.2769701988
 C          2.8257500847       -1.2415694686        0.0386491552
 C          3.5271374570        3.3042540885       -0.6098073442
 C          3.6993467652        4.2541780997        0.4014449981
 C          4.6105961555        5.2885793349        0.2738662036
 C          5.3618470886        5.3950742148       -0.8853971321
 H          6.0632969435        6.2083877607       -0.9966173104
 C          5.2218197629        4.4648967369       -1.8999033423
 C          4.3148939293        3.4256772290       -1.7520406947
 Fe         0.0644185611       -0.0459570642        0.3704237194
 C         -3.2898801409        3.5490941969        0.3730900042
 C         -3.1203359610        4.5567391931        1.3263316361
 C         -4.3860693923        3.6554113755       -0.4880297366
 C         -4.0057614537        5.6171416694        1.4273700213
 C         -5.2823389881        4.7058002023       -0.3918524393
 H         -3.8403469205        6.3774738499        2.1738292569
 C         -5.0879994479        5.6845723416        0.5680800188
 H         -6.1164319965        4.7570664535       -1.0728231235
 H         -5.7825927609        6.5069875698        0.6400341263
 C          3.3323848498       -3.6415101756        0.3186803690
 C          3.2702472952       -4.3603514686        1.5152818809
 C          4.3054971071       -4.0134799763       -0.6088192033
 C          4.1513199934       -5.3932028580        1.7862144597
 C          5.1907851652       -5.0474285930       -0.3525258759
 H          4.0818383198       -5.9196557267        2.7242877847
 C          5.1120433870       -5.7314011899        0.8484221493
 H          5.9296443503       -5.3118011617       -1.0917588764
 H          5.8025787069       -6.5333918350        1.0534506757
 H         -5.3736247217       -5.9538686163        0.4374710859
 H         -5.9474490643       -3.4610713190       -2.9975829806
 H          4.7215739312        6.0018720296        1.0738241117
 H          5.8021672476        4.5441890533       -2.8058647132
 Cl         2.0773854085       -3.9148412960        2.6846940663
 Cl         4.3812975274       -3.1858663611       -2.1255898202
 Cl        -1.7832965651        4.4559590345        2.4180343136
 Cl        -4.6051804634        2.4813169145       -1.7404457856
 Cl         2.7583459589        4.1146897065        1.8441635349
 Cl         4.1268289242        2.2689123932       -3.0235462839
 Cl        -3.1560425787       -4.6926314586        1.6716876876
 Cl        -3.8709977295       -1.5819196696       -2.6699619315
 Cl         0.2683270732       -0.0023769775        2.4936718382
  78
       -160.31182561
 N         -0.0983655789       -2.0053422812       -0.2680424752
 N         -2.0192996249        0.0978736860       -0.1310941305
 C          2.2938669836       -2.4790813932       -0.4576045743
 C          0.9598935007       -2.8526628506       -0.4421615411
 C          0.4865921829       -4.2081849239       -0.4931846994
 H          1.1098139642       -5.0683450411       -0.6465258235
 C         -0.8546267484       -4.1638861489       -0.3064944727
 H         -1.5480789662       -4.9820147695       -0.2845000245
 C         -1.2099309973       -2.7787444676       -0.1485836134
 C         -2.5049159803       -2.3130553697        0.0615170327
 C         -2.8814212136       -0.9475936598        0.0403132404
 C         -4.2134457020       -0.4695283305        0.1066819626
 H         -5.0848298742       -1.0704710690        0.2726434072
 C         -4.1558463234        0.8883874156       -0.0862992080
 H         -4.9736758741        1.5825925358       -0.1117365714
 C         -2.7869027949        1.2243818627       -0.2275601797
 C         -3.5586373471       -3.3161871794        0.3016471212
 C         -3.5565603526       -4.0723406918        1.4766542266
 C         -4.5510479944       -4.9993502501        1.7423784538
 C         -5.5741341028       -5.1844187908        0.8271831243
 H         -6.3560487928       -5.8985129923        1.0350750228
 C         -5.5938575761       -4.4672775442       -0.3567928083
 C         -4.5867594198       -3.5516396290       -0.6123697709
 N          0.0881462718        2.0799579894       -0.2186714466
 N          2.0051856445       -0.0390397255       -0.1647487339
 C         -2.3080843866        2.5430676589       -0.3967875073
 C         -0.9763302934        2.9250717200       -0.3642078943
 C         -0.5091285960        4.2838936331       -0.3812833570
 H         -1.1352746567        5.1449981688       -0.5098743269
 C          0.8305129359        4.2440361749       -0.1778264932
 H          1.5125911470        5.0682569662       -0.1036138630
 C          1.2004650877        2.8574737011       -0.0969390741
 C          2.4952633561        2.3748799386        0.0586506024
 C          2.8645525719        1.0103236954       -0.0481679341
 C          4.2031593738        0.5569263888       -0.1538344911
 H          5.0796087840        1.1712574643       -0.1063827780
 C          4.1445636564       -0.8027670579       -0.3429048391
 H          4.9623195161       -1.4843158630       -0.4777344510
 C          2.7752168775       -1.1578600674       -0.3387889969
 C          3.5960054335        3.3178114586        0.3381871900
 C          4.1942955289        3.3143320041        1.6012153933
 C          5.2500290096        4.1577633953        1.9020025080
 C          5.7284198664        5.0205864400        0.9306166248
 H          6.5556512675        5.6748986360        1.1570030373
 C          5.1598928694        5.0451595299       -0.3313063531
 C          4.1032728952        4.1968202930       -0.6174366251
 Fe        -0.0037929920        0.0315629762        0.1700907290
 C         -3.3403454093        3.5915490886       -0.5740281281
 C         -3.7842285233        4.3773763611        0.4880821745
 C         -3.9282122973        3.7912910022       -1.8219074773
 C         -4.7818492792        5.3244068922        0.3150108009
 C         -4.9189700697        4.7402286789       -2.0143132897
 H         -5.1126500817        5.9199938245        1.1543955770
 C         -5.3449249570        5.5010397074       -0.9379144931
 H         -5.3475714900        4.8759265823       -2.9946193584
 H         -6.1185756108        6.2495962458       -1.0734657862
 C          3.3041638704       -3.5637743513       -0.4528636824
 C          3.7608508185       -4.0596907004        0.7688665045
 C          3.8089921651       -4.1307819060       -1.6188190749
 C          4.6891970492       -5.0858747714        0.8293683550
 C          4.7413151355       -5.1563958324       -1.5763920079
 H          5.0230864927       -5.4513817821        1.7871054997
 C          5.1755425825       -5.6284979979       -0.3491792725
 H          5.1169754236       -5.5792455101       -2.4944587509
 H          5.8995695962       -6.4279051675       -0.3094930105
 H         -4.5176342645       -5.5630609270        2.6612272302
 H         -6.3771026240       -4.6178221942       -1.0822362026
 H          5.6911641322        4.1347263095        2.8850533528
 H          5.5352909944        5.7094021886       -1.0925149244
 Cl         3.1286878965       -3.3676659570        2.2218902970
 Cl         3.2519443349       -3.5304356452       -3.1423862751
 Cl        -3.0802777548        4.1399715649        2.0491375303
 Cl        -3.3865063422        2.8269254115       -3.1493285517
 Cl         3.5791952156        2.2357749791        2.8039344627
 Cl         3.4220139164        4.1881979257       -2.2066171460
 Cl        -2.2876007710       -3.8292367761        2.6300395013
 Cl        -4.5708007901       -2.7103412616       -2.1254748834
 Cl         0.0135656034       -0.0034273780        2.3035541573
  78
       -160.31180528
 N         -0.0786885706       -2.0566386593        0.0850902445
 N         -2.0191641523        0.0736771059        0.1273727585
 C          2.3187418628       -2.5407425339        0.0394862214
 C          0.9825804858       -2.9092981227        0.0140539384
 C          0.5110694636       -4.2597538636       -0.1395861703
 H          1.1407806377       -5.1229169449       -0.2303292960
 C         -0.8423194286       -4.2052898970       -0.1454167051
 H         -1.5387898470       -5.0171936275       -0.2321610315
 C         -1.2053697325       -2.8231462598       -0.0081171954
 C         -2.5088900196       -2.3482065507        0.0429272341
 C         -2.8782056069       -0.9923245506        0.1509971430
 C         -4.2184226669       -0.5337131470        0.2036875453
 H         -5.0917216749       -1.1547799096        0.2372573420
 C         -4.1672830843        0.8369633648        0.2000537615
 H         -4.9896486369        1.5240302012        0.2442278900
 C         -2.7984151875        1.1937524242        0.1195658050
 C         -3.6162056853       -3.3188772869       -0.1112978682
 C         -4.3965648233       -3.7219568830        0.9707141386
 C         -5.4674840622       -4.5860371512        0.8031744982
 C         -5.7739339623       -5.0549584495       -0.4614369404
 H         -6.6114375765       -5.7206695689       -0.5995369460
 C         -5.0112538182       -4.6810901968       -1.5549809634
 C         -3.9423965404       -3.8202989901       -1.3704398346
 N          0.0681208240        2.0346679980        0.0178794078
 N          2.0068388694       -0.0892784142        0.1478840820
 C         -2.3289317154        2.5229596705       -0.0253751387
 C         -0.9908544275        2.8864578671       -0.0985179861
 C         -0.5145739712        4.2247990152       -0.3264023749
 H         -1.1419879746        5.0804648452       -0.4816050286
 C          0.8393935374        4.1687765336       -0.3118538228
 H          1.5384348254        4.9726173327       -0.4398342403
 C          1.1971920971        2.7960124062       -0.0929351826
 C          2.4995179489        2.3277389622        0.0100354316
 C          2.8662294398        0.9764926616        0.1513198194
 C          4.2076128410        0.5200503343        0.2006484266
 H          5.0778940045        1.1463068017        0.2221262639
 C          4.1564960193       -0.8502418866        0.2013058262
 H          4.9777820208       -1.5383258393        0.2396941287
 C          2.7861425774       -1.2077096541        0.1457182194
 C          3.6098420296        3.3014104543       -0.1090927433
 C          4.2507419882        3.8104435740        1.0179757410
 C          5.3166561097        4.6883637730        0.9021169344
 C          5.7555207100        5.0612620027       -0.3568648768
 H          6.5919010664        5.7356357336       -0.4514200932
 C          5.1348084807        4.5746643130       -1.4944821744
 C          4.0686342996        3.7009167453       -1.3619708037
 Fe        -0.0077742082       -0.0037030950        0.4612819517
 C         -3.3425600800        3.5871945858       -0.1670772430
 C         -3.5062584982        4.5750474085        0.8072500621
 C         -4.1642809214        3.6531850753       -1.2941008778
 C         -4.4425804246        5.5859109239        0.6653463789
 C         -5.1103294492        4.6527645993       -1.4462032364
 H         -4.5356569045        6.3365308721        1.4350073991
 C         -5.2437982247        5.6185710880       -0.4636327666
 H         -5.7273425867        4.6738169333       -2.3300851576
 H         -5.9734500117        6.4040308508       -0.5788947968
 C          3.3503825274       -3.5819244405       -0.1545957010
 C          3.6816691926       -4.5024449799        0.8385659609
 C          4.0460748244       -3.6560556393       -1.3629458536
 C          4.6758424699       -5.4478990365        0.6443240779
 C          5.0389787202       -4.5974965529       -1.5735023065
 H          4.9188292083       -6.1351749957        1.4383941278
 C          5.3534905965       -5.4882402185       -0.5618314364
 H          5.5522144114       -4.6218935064       -2.5197256202
 H          6.1364469395       -6.2050413550       -0.7091310460
 H         -6.0553890515       -4.8790709805        1.6579812821
 H         -5.2403056866       -5.0399038932       -2.5443851304
 H          5.7966727143        5.0655464188        1.7899784464
 H          5.4739217993        4.8606568497       -2.4773370881
 Cl         2.8433724621       -4.4347226392        2.3501056230
 Cl         3.6390479131       -2.5494600960       -2.6264071716
 Cl        -2.5296670385        4.5130257712        2.2334967737
 Cl        -3.9664861091        2.4778222313       -2.5464421247
 Cl         3.6891192611        3.3177027383        2.5759886589
 Cl         3.2890947717        3.0663789051       -2.7669638111
 Cl        -4.0006924900       -3.1265406623        2.5429502346
 Cl        -2.9854787249       -3.3336334064       -2.7278321831
 Cl        -0.0253893732        0.0336514754        2.5942208439
  78
       -160.31175913
 N         -0.0903914566       -2.0466385134       -0.3441277612
 N         -2.0248583820        0.0604391913       -0.2761298636
 C          2.3044278622       -2.4982633756       -0.5409762243
 C          0.9708879153       -2.8854448256       -0.4265706166
 C          0.5278740604       -4.2500509595       -0.2713439592
 H          1.1713151490       -5.1076570790       -0.3085732281
 C         -0.8039885961       -4.2073243951       -0.0417194409
 H         -1.4775687183       -5.0244664315        0.1311595703
 C         -1.1963996634       -2.8221291376       -0.0978139116
 C         -2.4834159275       -2.3522042198        0.0293881615
 C         -2.8739503859       -0.9991591686       -0.2023855453
 C         -4.2019574137       -0.5766879761       -0.4328381955
 H         -5.0671114041       -1.2083731828       -0.4299858109
 C         -4.1497557642        0.7734628604       -0.6783181185
 H         -4.9640162947        1.4272899521       -0.9215589254
 C         -2.7924221438        1.1624312976       -0.5426152872
 C         -3.5347715763       -3.2730700165        0.5183605178
 C         -3.6126008114       -3.4969908501        1.8953037726
 C         -4.6021060990       -4.2973282399        2.4397886569
 C         -5.5323670528       -4.8877324148        1.6019130337
 H         -6.3146974211       -5.5011714281        2.0213902577
 C         -5.4669022194       -4.7010303348        0.2319938987
 C         -4.4654049952       -3.9023307895       -0.3009734798
 N          0.0640246252        2.0404833879       -0.2942960413
 N          1.9903015408       -0.0698425445       -0.2112138029
 C         -2.3268228562        2.4911961738       -0.5878627599
 C         -0.9982493208        2.8745111407       -0.3953254379
 C         -0.5773213866        4.2311506165       -0.1491570536
 H         -1.2231685649        5.0869512675       -0.1664441050
 C          0.7419816876        4.1896263895        0.1446648492
 H          1.3850815689        5.0037144336        0.4180658876
 C          1.1572959580        2.8150398475        0.0162881127
 C          2.4472406849        2.3443993481        0.1288542486
 C          2.8351434051        0.9929872271       -0.1291366943
 C          4.1627824122        0.5818343442       -0.3775308085
 H          5.0213206970        1.2246195915       -0.3920338136
 C          4.1196366715       -0.7735682918       -0.6065470793
 H          4.9398872889       -1.4232568541       -0.8421428322
 C          2.7644723414       -1.1669568043       -0.4767892662
 C          3.5272428733        3.2621663645        0.5367114251
 C          4.1746069241        3.0556393288        1.7594691045
 C          5.1840117119        3.8982294068        2.1931400841
 C          5.5621128136        4.9714619203        1.4034476179
 H          6.3432210859        5.6346158772        1.7403903795
 C          4.9501362503        5.1941421299        0.1824184416
 C          3.9462497113        4.3396826672       -0.2449362390
 Fe        -0.0224500253       -0.0077534036        0.0939180653
 C         -3.3282424660        3.5596143971       -0.7716308967
 C         -4.3083088841        3.8198856186        0.1898034016
 C         -3.3268617146        4.3514907287       -1.9210302909
 C         -5.2625676190        4.8048319083       -0.0015769340
 C         -4.2751973804        5.3400754999       -2.1246451301
 H         -6.0064915105        4.9789133892        0.7586218050
 C         -5.2461815929        5.5573436382       -1.1635338023
 H         -4.2500658699        5.9261167347       -3.0292444253
 H         -5.9919430127        6.3209528067       -1.3179892001
 C          3.3337367261       -3.5548561384       -0.6226129877
 C          4.1686685315       -3.8219639153        0.4646334204
 C          3.5116874653       -4.3136852381       -1.7784561867
 C          5.1472526334       -4.7991445176        0.3992759425
 C          4.4909344167       -5.2901537231       -1.8605254580
 H          5.7716590070       -4.9832700472        1.2587907747
 C          5.3071741530       -5.5263610683       -0.7681735471
 H          4.6086769923       -5.8504982174       -2.7740737224
 H          6.0730533149       -6.2837058496       -0.8249187664
 H         -4.6412142309       -4.4460235813        3.5066807846
 H         -6.1852396924       -5.1677741991       -0.4232663132
 H          5.6601618583        3.7123398176        3.1422180425
 H          5.2470145975        6.0211424513       -0.4428815958
 Cl         3.9470799589       -2.9246457976        1.9244716708
 Cl         2.4950092824       -4.0046188152       -3.1406284149
 Cl        -4.3025609304        2.9180321225        1.6611032515
 Cl        -2.1246981704        4.0710983026       -3.1280680482
 Cl         3.6704629445        1.7381482250        2.7551994434
 Cl         3.2328326913        4.5872603997       -1.7989345067
 Cl        -2.4429104437       -2.7362016171        2.9208724239
 Cl        -4.3580406183       -3.6791884908       -2.0108617808
 Cl        -0.0503358329       -0.0339630159        2.2272298568
  78
       -160.31171345
 N         -0.0655191562       -2.0589994603       -0.2022293621
 N         -1.9847517770        0.0944031523       -0.1289211178
 C          2.3234533497       -2.5600727315       -0.1120038490
 C          0.9846164864       -2.9239411655       -0.1417304296
 C          0.5016293679       -4.2790197230       -0.1514844484
 H          1.1258838083       -5.1511729963       -0.1255249069
 C         -0.8501382914       -4.2147132899       -0.1985453409
 H         -1.5551558274       -5.0231064281       -0.2220376155
 C         -1.2013712038       -2.8208965999       -0.2257066037
 C         -2.4910995400       -2.3274330318       -0.2694279844
 C         -2.8387321293       -0.9568460807       -0.3178514277
 C         -4.1512182964       -0.4854699457       -0.5508490175
 H         -5.0074538277       -1.1014275245       -0.7455542584
 C         -4.0924697535        0.8855019632       -0.4951741241
 H         -4.8942754799        1.5816577431       -0.6444118159
 C         -2.7469896016        1.2247356903       -0.2075530356
 C         -3.6123218065       -3.2900000042       -0.1600210385
 C         -4.1328727655       -3.5723044947        1.1028328567
 C         -5.1805697827       -4.4629417751        1.2669825990
 C         -5.7247940605       -5.0798081315        0.1533741532
 H         -6.5431199938       -5.7733634973        0.2720266451
 C         -5.2309294181       -4.8158453437       -1.1125332786
 C         -4.1782679577       -3.9257349508       -1.2598826927
 N          0.1052312735        2.0424134133       -0.0007311374
 N          2.0287918569       -0.1054515638       -0.0758709817
 C         -2.2839930853        2.5503417633       -0.0261205377
 C         -0.9442863091        2.9030870933        0.1003391826
 C         -0.4570946165        4.2425054287        0.2959547855
 H         -1.0730552555        5.1069654697        0.4492949281
 C          0.8945592363        4.1803166429        0.2503654620
 H          1.5983134277        4.9839232536        0.3502549676
 C          1.2437845997        2.7983250024        0.0656347687
 C          2.5337089616        2.3176644079       -0.0739255235
 C          2.8906946140        0.9533703489       -0.1573230571
 C          4.2230003326        0.4916272599       -0.2810449066
 H          5.0903096913        1.1175654831       -0.3615771428
 C          4.1682100156       -0.8802214714       -0.2635824869
 H          4.9845794589       -1.5721205291       -0.3313153030
 C          2.8006260756       -1.2311583199       -0.1459278117
 C          3.6100704189        3.3268335806       -0.2152159184
 C          4.1947952198        3.9562328296        0.8805719758
 C          5.1455102743        4.9516708837        0.7147962453
 C          5.5245588608        5.3257487469       -0.5638100711
 H          6.2562863312        6.1079208517       -0.6976872227
 C          4.9719658245        4.7072565158       -1.6714335223
 C          4.0215955251        3.7147158024       -1.4889115464
 Fe         0.0158612550       -0.0256652333        0.2592612230
 C         -3.2985064262        3.6189473215       -0.0082085837
 C         -4.2675576306        3.6790567331        0.9981276692
 C         -3.3463749936        4.5980768101       -1.0039913103
 C         -5.2406696796        4.6631748447        1.0098446197
 C         -4.3095333292        5.5931197606       -0.9989988165
 H         -5.9739135406        4.6755673498        1.7999749208
 C         -5.2575696456        5.6196588975        0.0087771968
 H         -4.3149274835        6.3312263207       -1.7848312847
 H         -6.0139132550        6.3876371378        0.0127053421
 C          3.3289316870       -3.6454611962       -0.0405869250
 C          3.6416685541       -4.2334201981        1.1845456449
 C          3.9821165726       -4.1144794616       -1.1772757678
 C          4.5781362823       -5.2496099141        1.2758966196
 C          4.9210980532       -5.1305972134       -1.1017713351
 H          4.8013000051       -5.6852436097        2.2363168378
 C          5.2147442570       -5.6916279198        0.1288290717
 H          5.4101546760       -5.4749031006       -1.9988496588
 H          5.9452269631       -6.4834398428        0.1945892080
 H         -5.5591209735       -4.6648517692        2.2558530934
 H         -5.6545833839       -5.2920725469       -1.9823064468
 H          5.5750139463        5.4276589335        1.5802836202
 H          5.2609530069        4.9909603315       -2.6704334051
 Cl         2.8346635354       -3.6608475371        2.6002697790
 Cl         3.5937883743       -3.4082782072       -2.7037538005
 Cl        -4.2249445870        2.5131906492        2.2742764258
 Cl        -2.2049614032        4.5432916103       -2.3010307528
 Cl         3.7047227889        3.4761099722        2.4675501559
 Cl         3.3029337404        2.9459460722       -2.8577167954
 Cl        -3.4318035886       -2.7836171248        2.4723275347
 Cl        -3.5474716252       -3.5813533306       -2.8315167338
 Cl        -0.0228929948       -0.1460344004        2.3894141599
  78
       -160.31167822
 N         -0.0941450670       -2.0539954744        0.0142737061
 N         -2.0199650808        0.0661469408        0.0327822963
 C          2.3131316426       -2.5035718259       -0.1703678076
 C          0.9641324409       -2.8994643734       -0.1319349688
 C          0.5004650523       -4.2416339743       -0.2294844864
 H          1.1209626517       -5.1056393665       -0.3691223402
 C         -0.8627378302       -4.1955115174       -0.1158597203
 H         -1.5548883226       -5.0152101186       -0.1444029312
 C         -1.2148125869       -2.8252154673        0.0338816912
 C         -2.5323331646       -2.3371311955        0.1204889104
 C         -2.8864585950       -0.9910669624        0.0867957004
 C         -4.2375891220       -0.5159785966        0.0240299574
 H         -5.1102814401       -1.1364081512        0.0777351203
 C         -4.1752903040        0.8317844461       -0.1242654413
 H         -4.9887252365        1.5237470081       -0.2203824842
 C         -2.7899646905        1.1925517925       -0.1016528825
 C         -3.6144136477       -3.3441535849        0.1797364270
 C         -3.8745653432       -4.0334422083        1.3632768993
 C         -4.8793195526       -4.9842144902        1.4403741948
 C         -5.6353667152       -5.2644377485        0.3163849786
 H         -6.4196372342       -6.0032503920        0.3653790306
 C         -5.3957342386       -4.6022408909       -0.8762187286
 C         -4.3911843053       -3.6515400632       -0.9367565866
 N          0.0824388914        2.0463397050        0.0670253355
 N          2.0046654956       -0.0690722602        0.0911014552
 C         -2.3241068611        2.4995494739       -0.1755610591
 C         -0.9809296544        2.8930843836       -0.0254758026
 C         -0.5387400664        4.2415847777        0.0767977364
 H         -1.1733326882        5.1071634382        0.0568359540
 C          0.8210591650        4.1963460040        0.2264530523
 H          1.4995470185        5.0182071838        0.3550217236
 C          1.1925037848        2.8241650619        0.1849199768
 C          2.5189149221        2.3384786725        0.1845315169
 C          2.8702171464        0.9909026845        0.1191048913
 C          4.2168175313        0.5216873280       -0.0160211962
 H          5.0887358828        1.1453815426       -0.0379118676
 C          4.1563065762       -0.8302018765       -0.1251497776
 H          4.9699861726       -1.5206465623       -0.2392346638
 C          2.7724531369       -1.1928925263       -0.0703196356
 C          3.5939361805        3.3501121450        0.1143877067
 C          4.4957144888        3.5500415387        1.1599471528
 C          5.4824587880        4.5210125400        1.0896541119
 C          5.5795004989        5.3129220701       -0.0424351488
 H          6.3378757225        6.0760756292       -0.0991654377
 C          4.7056499231        5.1343072900       -1.1003709904
 C          3.7278625337        4.1581249496       -1.0189280291
 Fe        -0.0124775741       -0.0083316460        0.4099428876
 C         -3.2879658831        3.5826851069       -0.4843241903
 C         -4.0810680722        4.1891111187        0.4869112370
 C         -3.3887168010        4.0470269975       -1.7947448241
 C         -4.9418473414        5.2305455695        0.1680938692
 C         -4.2466062798        5.0835605477       -2.1303174487
 H         -5.5366110177        5.6885357173        0.9423519969
 C         -5.0185600753        5.6731403229       -1.1423273578
 H         -4.3051170233        5.4179327847       -3.1555245032
 H         -5.6806871185        6.4870381099       -1.3968089103
 C          3.3148978571       -3.5827766382       -0.3289517859
 C          3.6458845817       -4.4215813915        0.7345934970
 C          3.9415306335       -3.8088452213       -1.5537470207
 C          4.5605379358       -5.4512363056        0.5849524003
 C          4.8576267899       -4.8345349782       -1.7196115136
 H          4.7959679776       -6.0820837115        1.4269316691
 C          5.1602211143       -5.6543299339       -0.6457489400
 H          5.3238219919       -4.9843350932       -2.6776805108
 H          5.8710074739       -6.4561965339       -0.7683292993
 H         -5.0592227982       -5.4938566651        2.3731203917
 H         -5.9766663553       -4.8197582684       -1.7582187120
 H          6.1577128584        4.6533881088        1.9188133455
 H          4.7740516646        5.7418439633       -1.9880851316
 Cl         2.8948999256       -4.1427242917        2.2635897225
 Cl         3.5472923350       -2.7885952032       -2.8906402281
 Cl        -3.9653798559        3.6300138989        2.1183045816
 Cl        -2.4164816463        3.2981879489       -3.0151818397
 Cl         4.3475348484        2.5850234294        2.5869818363
 Cl         2.6630958827        3.9176158725       -2.3590496123
 Cl        -2.9220992157       -3.6625692634        2.7577853542
 Cl        -4.0726634646       -2.8305754042       -2.4243242722
 Cl        -0.0813784500       -0.0625972465        2.5439512606
  78
       -160.31167193
 N         -0.0736071155       -2.0652207773        0.0833810120
 N         -2.0157347067        0.0704376696        0.1456505620
 C          2.3426011589       -2.5354883170        0.2324042393
 C          0.9788819810       -2.9229539998        0.0819753070
 C          0.5334135620       -4.2444498074       -0.1585350037
 H          1.1551470442       -5.1158866253       -0.2218101237
 C         -0.8312710536       -4.1784856116       -0.3040047432
 H         -1.5122945934       -4.9865651469       -0.4881493477
 C         -1.1906708710       -2.8154268827       -0.1514284417
 C         -2.5064295803       -2.3164555102       -0.1832296641
 C         -2.8661595007       -0.9889727206        0.0328271659
 C         -4.2259373060       -0.5316863377        0.1414897081
 H         -5.0899238708       -1.1626237747        0.0764890614
 C         -4.1830496795        0.8027531162        0.3538119696
 H         -5.0018010495        1.4766197647        0.5134751349
 C         -2.7986456706        1.1918827815        0.2878955917
 C         -3.5734623161       -3.2818815886       -0.5296691348
 C         -4.4553361120       -3.8024724915        0.4142810161
 C         -5.4527013017       -4.6961973681        0.0564920767
 C         -5.5736970073       -5.0863682803       -1.2661237059
 H         -6.3483292883       -5.7810939108       -1.5503743328
 C         -4.7073713208       -4.5931383631       -2.2268402521
 C         -3.7177813548       -3.6998192137       -1.8535859104
 N          0.0595184966        2.0109914512       -0.0054165989
 N          2.0008990538       -0.1126468435        0.0684304373
 C         -2.3507301281        2.4946914496        0.2170062228
 C         -0.9991047756        2.8547759883       -0.0682143165
 C         -0.5854950753        4.1298194712       -0.5167751061
 H         -1.2262874359        4.9737587820       -0.6816244953
 C          0.7743211725        4.0564809139       -0.7039519491
 H          1.4287743433        4.8296482052       -1.0557503580
 C          1.1593100264        2.7368291893       -0.3592793435
 C          2.4847262345        2.2625394154       -0.3156694015
 C          2.8512019019        0.9474438158       -0.0566110650
 C          4.2104886122        0.5016701377        0.0970916703
 H          5.0702067779        1.1433155101        0.0635338496
 C          4.1706938043       -0.8349505703        0.2984146347
 H          4.9874609349       -1.5094602337        0.4703097633
 C          2.7856412860       -1.2284535603        0.2352860750
 C          3.5339393437        3.2738360974       -0.5618843052
 C          3.8062923359        4.2672237623        0.3785760597
 C          4.7275731482        5.2700579484        0.1215752563
 C          5.3850737255        5.2937581779       -1.0971195771
 H          6.0893620035        6.0834336711       -1.3109347340
 C          5.1435658184        4.3161561757       -2.0466866336
 C          4.2288394667        3.3119816811       -1.7700987434
 Fe         0.0004506514       -0.0187734607        0.4646148169
 C         -3.2899998282        3.6242618870        0.3451150687
 C         -3.1521581226        4.5179994787        1.4118140548
 C         -4.2860620177        3.8931249759       -0.5939786583
 C         -3.9795416433        5.6197539375        1.5478048474
 C         -5.1255402068        4.9875535400       -0.4670198880
 H         -3.8417882944        6.2894271520        2.3818810479
 C         -4.9685269669        5.8477293244        0.6063870444
 H         -5.8827556978        5.1646180008       -1.2137048483
 H         -5.6158867793        6.7048316980        0.7039087479
 C          3.3297453237       -3.6325431854        0.2544414051
 C          3.3895319836       -4.5277490405        1.3251634770
 C          4.1984054145       -3.8480723441       -0.8165971966
 C          4.2751299465       -5.5925021699        1.3313751927
 C          5.0891978415       -4.9095990257       -0.8235813346
 H          4.2937927850       -6.2655580211        2.1733195731
 C          5.1220170809       -5.7801199674        0.2521735445
 H          5.7407653890       -5.0494863597       -1.6712770491
 H          5.8113548328       -6.6090406376        0.2454281064
 H         -6.1213187966       -5.0794077194        0.8093996620
 H         -4.7909616271       -4.8942896888       -3.2593334572
 H          4.9158111571        6.0241325722        0.8678701826
 H          5.6470034332        4.3329881860       -3.0003571447
 Cl         2.3397071904       -4.2744660674        2.6732772663
 Cl         4.1361778847       -2.7922052331       -2.1865359905
 Cl        -1.9189438284        4.2249276916        2.5878695601
 Cl        -4.4416420458        2.8713403176       -1.9813074831
 Cl         2.9754641802        4.2274296210        1.8924688542
 Cl         3.9042454546        2.0951557147       -2.9529664690
 Cl        -4.2779676436       -3.3280030607        2.0678015814
 Cl        -2.6395074230       -3.0687659789       -3.0475042373
 Cl         0.0428001071        0.0437189276        2.5942454274
  78
       -160.31160459
 N         -0.1220024953       -2.1011791416       -0.1546262424
 N         -2.0400750088        0.0309848148        0.0193205948
 C          2.2697073480       -2.5462825475       -0.2813789153
 C          0.9500605270       -2.9411921249       -0.1146549361
 C          0.5022646622       -4.2944264971        0.0853476123
 H          1.1515298801       -5.1455392671        0.1613574671
 C         -0.8471926952       -4.2553107586        0.1608310820
 H         -1.5259727950       -5.0701079517        0.3220504488
 C         -1.2401033981       -2.8762294471       -0.0079590343
 C         -2.5354979039       -2.4017219611       -0.0488161217
 C         -2.8759460676       -1.0192234063       -0.1899032769
 C         -4.1618545519       -0.5599098999       -0.5629230876
 H         -5.0006961056       -1.1833440157       -0.8066151315
 C         -4.1069903263        0.8115384750       -0.5618791207
 H         -4.8933723514        1.5004676206       -0.8010703722
 C         -2.7880404161        1.1674019399       -0.1805967682
 C         -3.6682066805       -3.3395695172        0.0303761501
 C         -4.5877145316       -3.2515733038        1.0817605912
 C         -5.6864918098       -4.0907519698        1.1575302294
 C         -5.8852382634       -5.0445756175        0.1742283906
 H         -6.7416543830       -5.6983309454        0.2259197369
 C         -4.9930282441       -5.1604212900       -0.8785452254
 C         -3.8997973283       -4.3126403594       -0.9450732228
 N          0.0548778065        1.9923008103        0.1244614783
 N          1.9542890059       -0.0984072307       -0.1376698564
 C         -2.3313799379        2.4824909902        0.0010189558
 C         -1.0055957985        2.8248166405        0.2728796102
 C         -0.5495313600        4.1365623700        0.6474727672
 H         -1.1913721056        4.9663971016        0.8726254195
 C          0.8023898098        4.0874927363        0.6804625553
 H          1.4893250301        4.8689140387        0.9415331778
 C          1.1810057293        2.7507719065        0.2954517472
 C          2.4606297989        2.3200925347        0.0096614730
 C          2.7783627409        0.9690994032       -0.3221925928
 C          4.0318283915        0.5406232338       -0.8200696143
 H          4.8471434978        1.1802132654       -1.0964521587
 C          3.9870507918       -0.8305938077       -0.8747578795
 H          4.7584489953       -1.5013908780       -1.2009970206
 C          2.6942058702       -1.2114543443       -0.4375607776
 C          3.5578943405        3.2996137096       -0.0162425989
 C          4.6774142278        3.1629679825        0.8122745645
 C          5.7312091720        4.0603453060        0.7645528380
 C          5.6764119288        5.1324819042       -0.1097666684
 H          6.4932255787        5.8360261826       -0.1499670147
 C          4.5786569974        5.3039182793       -0.9367734679
 C          3.5394465292        4.3902605650       -0.8924934259
 Fe        -0.0280847592       -0.0781377217        0.3469297917
 C         -3.2628442715        3.6068374635       -0.2149229851
 C         -4.3411273977        3.8771368121        0.6272476239
 C         -3.0545596930        4.4675642600       -1.2974773123
 C         -5.1727154522        4.9644048080        0.4072215725
 C         -3.8795962086        5.5540126536       -1.5305514525
 H         -5.9916263755        5.1538287765        1.0821279099
 C         -4.9367088187        5.7997671295       -0.6710306303
 H         -3.6889384567        6.1949876084       -2.3763325479
 H         -5.5790583248        6.6490442453       -0.8435612234
 C          3.3582561363       -3.5472228578       -0.2360902999
 C          4.1492322945       -3.6350157233        0.9104620249
 C          3.6812684852       -4.3600441856       -1.3194494610
 C          5.2302885197       -4.4989746275        0.9734750568
 C          4.7688053982       -5.2189334467       -1.2751944705
 H          5.8233721425       -4.5458119746        1.8723284599
 C          5.5393942006       -5.2808386749       -0.1266850858
 H          5.0108673794       -5.8217469705       -2.1360044208
 H          6.3923955564       -5.9408386566       -0.0902726885
 H         -6.3751038918       -3.9930690898        1.9818131268
 H         -5.1442850830       -5.8953207551       -1.6532833649
 H          6.5821005126        3.9165023154        1.4126079408
 H          4.5257524143        6.1338289251       -1.6231580659
 Cl         3.7515789642       -2.6396768341        2.2651155702
 Cl         2.7223363580       -4.2510705141       -2.7512290822
 Cl        -4.6136985398        2.8530708324        1.9903846085
 Cl        -1.7485238091        4.1556556619       -2.3864891075
 Cl         4.7310833619        1.8607383005        1.9459965842
 Cl         2.2158353480        4.5889589842       -1.9888785010
 Cl        -4.3249550135       -2.0833215510        2.3253332734
 Cl        -2.8285444171       -4.4319176441       -2.2967801559
 Cl         0.0590525681       -0.2553859517        2.4714086563
  78
       -160.31160010
 N         -0.0542078451       -2.0596623117       -0.1894238631
 N         -1.9642884490        0.0604887420       -0.0952164748
 C          2.3481366589       -2.5117760242       -0.4499062068
 C          0.9958123610       -2.9011903593       -0.4177361129
 C          0.5252066164       -4.2380202769       -0.5193689618
 H          1.1393699107       -5.0963273092       -0.7083621062
 C         -0.8319343034       -4.1956752994       -0.3179629331
 H         -1.5282036923       -5.0112706406       -0.3136753156
 C         -1.1667295770       -2.8341463205       -0.1161951340
 C         -2.4752519402       -2.3319746411        0.1171554017
 C         -2.8178800385       -0.9940444572        0.1141268446
 C         -4.1699065642       -0.5060291783        0.1923687672
 H         -5.0337841657       -1.1189619643        0.3628437114
 C         -4.1214264501        0.8315534902       -0.0215412095
 H         -4.9403390449        1.5277235816       -0.0462708077
 C         -2.7364673371        1.1792944121       -0.1987895535
 C         -3.5767190888       -3.2978318795        0.3328842340
 C         -4.0371588960       -3.5547209185        1.6245284588
 C         -5.1270215344       -4.3804022395        1.8500603919
 C         -5.7719319209       -4.9633202767        0.7723279360
 H         -6.6321924059       -5.5933561539        0.9421468394
 C         -5.3262693095       -4.7411462722       -0.5197752728
 C         -4.2328125688       -3.9131768320       -0.7293486740
 N          0.1228400410        2.0203438590       -0.2103600514
 N          2.0541633229       -0.0857046643       -0.1762041959
 C         -2.2798073814        2.4778710851       -0.4227755986
 C         -0.9262054566        2.8581308873       -0.4632904821
 C         -0.4448558846        4.1769329499       -0.6694995520
 H         -1.0488660358        5.0274636754       -0.9187742434
 C          0.9151870938        4.1316824298       -0.4845137417
 H          1.6150044903        4.9407842530       -0.5543395856
 C          1.2392097651        2.7847497929       -0.1922698159
 C          2.5599272044        2.2993565010        0.0492145287
 C          2.9200312646        0.9657845547        0.0070801480
 C          4.2723597542        0.4709719418        0.0465236939
 H          5.1447386946        1.0737063296        0.2054648883
 C          4.2110184854       -0.8634273520       -0.1766957512
 H          5.0226805584       -1.5642331749       -0.2388532732
 C          2.8179875236       -1.2111752148       -0.2864337726
 C          3.5563132384        3.3390398873        0.3765730537
 C          3.4434568526        4.0028392106        1.6028540418
 C          4.3077312001        5.0257726098        1.9547783086
 C          5.3030081809        5.4124056906        1.0704817613
 H          5.9773808100        6.2189274831        1.3354946326
 C          5.4469696131        4.7689953221       -0.1466365996
 C          4.5745838505        3.7399870083       -0.4857246942
 Fe         0.0512573914       -0.0173513770        0.2122474327
 C         -3.2956737125        3.5464582963       -0.5261591802
 C         -3.4614602318        4.4785038505        0.4990902428
 C         -4.1436930241        3.6405882362       -1.6299055388
 C         -4.4456604981        5.4503865177        0.4369185917
 C         -5.1278499417        4.6106974729       -1.7085464322
 H         -4.5537409024        6.1473991282        1.2508238139
 C         -5.2788640660        5.5092653154       -0.6664866775
 H         -5.7654694718        4.6546720203       -2.5749479744
 H         -6.0534205233        6.2598684211       -0.7153686679
 C          3.3359560348       -3.6100005809       -0.5878425852
 C          3.8483796843       -4.2521481772        0.5368136678
 C          3.7356271451       -4.0641837060       -1.8424596054
 C          4.7272052397       -5.3173400853        0.4199047005
 C          4.6092621990       -5.1304612612       -1.9750260646
 H          5.1043390892       -5.7972542569        1.3081447260
 C          5.0990601690       -5.7537789806       -0.8398062761
 H          4.8976959950       -5.4684927553       -2.9572389254
 H          5.7738989578       -6.5899361156       -0.9398248061
 H         -5.4705756550       -4.5493681107        2.8583726100
 H         -5.8229908368       -5.1909421445       -1.3639057152
 H          4.1947471128        5.5144269435        2.9087605390
 H          6.2191020406        5.0662381900       -0.8409646352
 Cl         3.3550801737       -3.6976484962        2.0953106617
 Cl         3.1126164503       -3.2734624005       -3.2432441510
 Cl        -2.4447960118        4.3794284142        1.8916473031
 Cl        -3.9391128159        2.5194725621       -2.9300820403
 Cl         2.1960092483        3.5092378391        2.6969446513
 Cl         4.7466863883        2.9548253266       -2.0208624546
 Cl        -3.2236495397       -2.8036466725        2.9487866286
 Cl        -3.6791160187       -3.6013798282       -2.3369194918
 Cl         0.1228234967        0.0073416285        2.3453147242
  78
       -160.31158693
 N         -0.0854540243       -2.0564131973       -0.2296871109
 N         -2.0141807200        0.0771998997       -0.1870220005
 C          2.3094200256       -2.5128091793        0.1133755878
 C          0.9622320620       -2.9115504903       -0.1332235447
 C          0.5287912268       -4.2422584855       -0.3311476381
 H          1.1616852518       -5.1085946386       -0.3189738973
 C         -0.8274210277       -4.1826004747       -0.5536407596
 H         -1.4973036483       -4.9994110242       -0.7388772250
 C         -1.1951995414       -2.8155614107       -0.4722539715
 C         -2.5099573483       -2.3131355284       -0.5108379030
 C         -2.8640104356       -0.9807365985       -0.3122978953
 C         -4.2226680001       -0.5276083170       -0.1489635039
 H         -5.0885585687       -1.1560187793       -0.2221631939
 C         -4.1730627853        0.7928082361        0.1342612966
 H         -4.9902271427        1.4512747091        0.3556495909
 C         -2.7878208880        1.1863732310        0.0577167978
 C         -3.6137210647       -3.2810700580       -0.7086057222
 C         -4.3962520263       -3.7087989768        0.3628964133
 C         -5.4665596512       -4.5684185314        0.1759928732
 C         -5.7657331683       -5.0121494139       -1.1004622928
 H         -6.6065611119       -5.6712066122       -1.2542360319
 C         -4.9975711966       -4.6177112330       -2.1822864190
 C         -3.9272881683       -3.7607193907       -1.9788551661
 N          0.0746716001        2.0282522279       -0.1891757137
 N          1.9975065496       -0.1015075100       -0.1959556856
 C         -2.3277005522        2.4832512340        0.1362792816
 C         -0.9808486208        2.8739947808       -0.1466241775
 C         -0.5675169635        4.1885186981       -0.4584896452
 H         -1.2019499318        5.0528283550       -0.5200034716
 C          0.7889887515        4.1300101102       -0.6830102156
 H          1.4445159557        4.9326008839       -0.9588271737
 C          1.1756983251        2.7798627108       -0.4845500270
 C          2.4949332925        2.2867010429       -0.5011236675
 C          2.8495616177        0.9550884272       -0.2930818889
 C          4.2048892298        0.5066684864       -0.0931239775
 H          5.0658121625        1.1477443610       -0.1058302296
 C          4.1521875839       -0.8225365754        0.1449143548
 H          4.9597853782       -1.4988057717        0.3501144693
 C          2.7661379490       -1.2142991808        0.0465959250
 C          3.5789615925        3.2740483538       -0.6789258875
 C          3.8785442172        4.2032781498        0.3193082978
 C          4.8802427559        5.1447022957        0.1466962210
 C          5.5976127280        5.1691951493       -1.0376408317
 H          6.3721046253        5.9073920934       -1.1778079896
 C          5.3286839125        4.2559006832       -2.0416415731
 C          4.3293250412        3.3141867182       -1.8540306039
 Fe        -0.0079515361       -0.0175951567        0.1833589942
 C         -3.2432681776        3.5640181665        0.5449836825
 C         -3.0350670258        4.1800692649        1.7845396076
 C         -4.3120381046        4.0076817904       -0.2303906543
 C         -3.8856917596        5.1699930540        2.2457211147
 C         -5.1696441006        4.9995503293        0.2211688792
 H         -3.7114272960        5.6154515224        3.2120582086
 C         -4.9574415139        5.5699732732        1.4639305082
 H         -5.9896232781        5.3187606042       -0.4026741545
 H         -5.6276278070        6.3345891740        1.8256516297
 C          3.2809358585       -3.5760277261        0.4567041941
 C          3.3448127670       -4.0509023487        1.7665385407
 C          4.1637486980       -4.1083926643       -0.4783163621
 C          4.2726739627       -5.0115748756        2.1368958051
 C          5.0886341414       -5.0802189518       -0.1255547298
 H          4.3147159636       -5.3487634784        3.1602205108
 C          5.1403308373       -5.5215079225        1.1854423567
 H          5.7556401822       -5.4771384483       -0.8750660003
 H          5.8651601167       -6.2685274899        1.4709411795
 H         -6.0582334349       -4.8767847241        1.0229499900
 H         -5.2259546897       -4.9595053898       -3.1785884632
 H          5.0919114239        5.8476513290        0.9359887037
 H          5.8812184935        4.2678474889       -2.9679967209
 Cl         2.2545074469       -3.3921855602        2.9339394098
 Cl         4.0904825984       -3.5354056740       -2.1048400594
 Cl        -1.7087738044        3.6566922729        2.7610742014
 Cl        -4.5488095791        3.3314576768       -1.8048021390
 Cl         2.9895909407        4.1544234233        1.7972592975
 Cl         3.9736377256        2.1814861371       -3.1044950417
 Cl        -4.0098066844       -3.1403375103        1.9507327612
 Cl        -2.9710712412       -3.2425725445       -3.3191119072
 Cl        -0.0069965374       -0.0525866278        2.3165846938
  78
       -160.31153465
 N         -0.1027130359       -2.0396283189       -0.1108930876
 N         -2.0337698099        0.0566790372        0.0615853731
 C          2.2847778756       -2.4553099938       -0.4551142310
 C          0.9558698106       -2.8622701400       -0.2981629421
 C          0.5255298556       -4.2346184332       -0.2241326986
 H          1.1668980858       -5.0875137887       -0.3367446743
 C         -0.7991121775       -4.2191841096        0.0545364777
 H         -1.4581431356       -5.0531821589        0.1980001928
 C         -1.2012714071       -2.8364581590        0.0981986761
 C         -2.4886466393       -2.3725444915        0.2569620371
 C         -2.8765885369       -1.0108979050        0.0970924902
 C         -4.1994681615       -0.6004206381       -0.1855406079
 H         -5.0548631408       -1.2462816709       -0.2232336128
 C         -4.1481154825        0.7497896310       -0.4338022443
 H         -4.9614966336        1.3885720085       -0.7155257168
 C         -2.7993465925        1.1512290412       -0.2493494066
 C         -3.5617181873       -3.3422071449        0.5626389698
 C         -4.0557945158       -3.4197037681        1.8650742420
 C         -5.0354374727       -4.3386244667        2.2106841134
 C         -5.5427501392       -5.1873822043        1.2423408358
 H         -6.2959076365       -5.9107400495        1.5035052427
 C         -5.0863725429       -5.1183610316       -0.0640946015
 C         -4.1001240038       -4.2007109012       -0.3931809084
 N          0.0438107436        2.0306911972        0.0998276701
 N          1.9793176529       -0.0618175126        0.0847574363
 C         -2.3251919508        2.4714355030       -0.3502606644
 C         -1.0064172613        2.8615122047       -0.0839477763
 C         -0.5813782751        4.2264153282        0.0838160613
 H         -1.2230605432        5.0820650065        0.0063395553
 C          0.7381776248        4.1957623680        0.3857051535
 H          1.3880552364        5.0207993508        0.6018701837
 C          1.1420688072        2.8145966591        0.3483742478
 C          2.4390239911        2.3534858735        0.4209919635
 C          2.8242882115        1.0020055004        0.1921929311
 C          4.1507366490        0.6017551077       -0.0919303773
 H          5.0107162733        1.2423817750       -0.0855476742
 C          4.1027774936       -0.7353363844       -0.4006576469
 H          4.9170743078       -1.3685546998       -0.6889313324
 C          2.7478727005       -1.1397338221       -0.2682276579
 C          3.5301105362        3.3348397004        0.5988909235
 C          4.2638456520        3.3794825649        1.7848779444
 C          5.2921247153        4.2923466831        1.9633086312
 C          5.6062280353        5.1734857413        0.9415197903
 H          6.4128471807        5.8714664152        1.0708291824
 C          4.9006988830        5.1493506378       -0.2492746695
 C          3.8723348023        4.2344369532       -0.4119282456
 Fe        -0.0298730188       -0.0259214823        0.4266122223
 C         -3.2331940674        3.5272305787       -0.8365878614
 C         -4.3526544336        3.9823073546       -0.1377286242
 C         -2.9612570036        4.1293623840       -2.0694452588
 C         -5.1723857399        4.9756385393       -0.6494655706
 C         -3.7644558831        5.1291420253       -2.5882575545
 H         -6.0297331393        5.2994641181       -0.0816857283
 C         -4.8743089139        5.5468116070       -1.8751624647
 H         -3.5186608574        5.5685055589       -3.5417487098
 H         -5.5072028152        6.3229935489       -2.2750075747
 C          3.2688608145       -3.4922257356       -0.8232504191
 C          4.2836475872       -3.9003727144        0.0463301265
 C          3.2054810491       -4.1064226621       -2.0754388248
 C          5.2076616566       -4.8626298799       -0.3260356022
 C          4.1223305130       -5.0712413294       -2.4585143879
 H          5.9816370780       -5.1546364485        0.3648780944
 C          5.1252032303       -5.4421434521       -1.5806554294
 H          4.0470695080       -5.5186480349       -3.4360358205
 H          5.8448681733       -6.1897235134       -1.8746644932
 H         -5.3884179664       -4.3848439242        3.2283604793
 H         -5.4859279461       -5.7672479878       -0.8257870416
 H          5.8377609721        4.3075646332        2.8927502490
 H          5.1468776262        5.8187563540       -1.0522175033
 Cl         4.3613120051       -3.2116446888        1.6253195484
 Cl         1.9705001569       -3.6263831412       -3.1831882049
 Cl        -4.6962339900        3.3213341700        1.4224146920
 Cl        -1.5963878003        3.5950463404       -2.9863728701
 Cl         3.8495379101        2.2760423876        3.0527591620
 Cl         3.0171041706        4.1752238586       -1.9134772375
 Cl        -3.3988689924       -2.3545775837        3.0558411116
 Cl        -3.5391804943       -4.0831626846       -2.0267972025
 Cl        -0.0430799510       -0.1653690130        2.5551273017
  78
       -160.31148163
 N         -0.1143661988       -2.1046080876       -0.1287243167
 N         -2.0319269431        0.0301182745        0.0057266794
 C          2.2770693639       -2.5516640102       -0.2475693271
 C          0.9575521457       -2.9441723173       -0.0730868050
 C          0.5083891816       -4.2943756752        0.1417022432
 H          1.1571317123       -5.1442117434        0.2335820922
 C         -0.8419382714       -4.2543861395        0.2096638237
 H         -1.5216817434       -5.0669293182        0.3800378002
 C         -1.2338516576       -2.8776306545        0.0181001934
 C         -2.5283157923       -2.4028827009       -0.0473461118
 C         -2.8632732902       -1.0210760510       -0.2120048396
 C         -4.1410267615       -0.5626800004       -0.6115982933
 H         -4.9741352802       -1.1862670156       -0.8695794054
 C         -4.0883875777        0.8083212807       -0.6111687926
 H         -4.8715472258        1.4958690133       -0.8643464554
 C         -2.7775339904        1.1658107833       -0.2064842852
 C         -3.6671186329       -3.3322048117        0.0356358915
 C         -4.6082203340       -3.2052018592        1.0635649954
 C         -5.7193955408       -4.0267159521        1.1382766717
 C         -5.9091804717       -5.0064924675        0.1789068536
 H         -6.7760852809       -5.6464669715        0.2289864213
 C         -4.9950301564       -5.1639244637       -0.8488384853
 C         -3.8900866962       -4.3311852717       -0.9160245686
 N          0.0602672032        1.9909850231        0.1108723198
 N          1.9619291570       -0.1031747677       -0.1205562392
 C         -2.3257123273        2.4811985782       -0.0179538871
 C         -1.0009989245        2.8241795219        0.2572068458
 C         -0.5449381066        4.1351801962        0.6340511354
 H         -1.1857410120        4.9663735374        0.8579534554
 C          0.8068021219        4.0858181470        0.6690459205
 H          1.4927415490        4.8673149123        0.9335529253
 C          1.1861698590        2.7489605717        0.2840751456
 C          2.4671688192        2.3170956391        0.0023609645
 C          2.7833093067        0.9632573862       -0.3197026686
 C          4.0352579654        0.5312297035       -0.8184890861
 H          4.8481237002        1.1693423944       -1.1052206257
 C          3.9926936460       -0.8399428455       -0.8569143700
 H          4.7632913098       -1.5134271443       -1.1769893773
 C          2.7015228817       -1.2190638864       -0.4124047008
 C          3.5608418858        3.2993279712       -0.0259990662
 C          4.6895954216        3.1633596164        0.7888633791
 C          5.7324087827        4.0732838796        0.7453704536
 C          5.6558477198        5.1621451702       -0.1057008382
 H          6.4620894407        5.8791954911       -0.1385536496
 C          4.5503332017        5.3328846346       -0.9201273579
 C          3.5252634590        4.4039213790       -0.8846281329
 Fe        -0.0230900661       -0.0769388838        0.3525951221
 C         -3.2646052418        3.6008921218       -0.2206858361
 C         -4.3542142246        3.8390026474        0.6172194778
 C         -3.0595953184        4.4869248061       -1.2828323243
 C         -5.1998683489        4.9177531965        0.4114761416
 C         -3.8977637005        5.5660263017       -1.5003921531
 H         -6.0282624291        5.0799851012        1.0816194460
 C         -4.9662771240        5.7784629536       -0.6466502805
 H         -3.7090735821        6.2272056128       -2.3307075541
 H         -5.6195061285        6.6212642514       -0.8083075633
 C          3.3625843837       -3.5577446348       -0.2271124414
 C          4.1503679217       -3.6909910812        0.9164247939
 C          3.6869969629       -4.3286216422       -1.3394290197
 C          5.2302309303       -4.5573671518        0.9485734167
 C          4.7720393208       -5.1901531052       -1.3263936881
 H          5.8214164194       -4.6393429350        1.8461930645
 C          5.5410671441       -5.2958321157       -0.1801215609
 H          5.0137476327       -5.7593635326       -2.2093264412
 H          6.3931759560       -5.9572167034       -0.1676504191
 H         -6.4242348184       -3.8945606069        1.9416453956
 H         -5.1392190123       -5.9198035805       -1.6064456303
 H          6.5912279251        3.9276011188        1.3829622245
 H          4.4794082860        6.1769287703       -1.5873710771
 Cl         3.7515009505       -2.7457370810        2.3058339777
 Cl         2.7270851452       -4.1666604513       -2.7660731936
 Cl        -4.6252308254        2.7855405812        1.9583327211
 Cl        -1.7429550583        4.2149788323       -2.3699163582
 Cl         4.7703704249        1.8480045110        1.9058647592
 Cl         2.1964694420        4.6019783906       -1.9759568432
 Cl        -4.3581674945       -2.0064214489        2.2822341570
 Cl        -2.7967848712       -4.4992021814       -2.2450074544
 Cl         0.0407988249       -0.2345878743        2.4794469209
  78
       -160.31147313
 N         -0.1026016581       -2.0334733125        0.0687361944
 N         -1.9999914269        0.0951720756        0.1939383583
 C          2.2807399531       -2.5167295205       -0.1951308383
 C          0.9490378768       -2.8822528830       -0.1528569199
 C          0.4563445924       -4.2236813521       -0.3218113368
 H          1.0714889256       -5.0808941689       -0.5207210551
 C         -0.8899433901       -4.1691290233       -0.1809334189
 H         -1.5967132612       -4.9738043899       -0.2479319169
 C         -1.2300050650       -2.7942146491        0.0689146562
 C         -2.5278707675       -2.3136048943        0.2407861473
 C         -2.8729787268       -0.9521941599        0.3358496850
 C         -4.1963200062       -0.4602409746        0.4670705540
 H         -5.0711136694       -1.0591406419        0.6288274902
 C         -4.1243504182        0.9053561405        0.3386831824
 H         -4.9278662906        1.6154378459        0.3874063864
 C         -2.7597507749        1.2248181122        0.1492922473
 C         -3.6395212910       -3.2863595282        0.1930295576
 C         -3.8710999901       -4.1879515264        1.2324126866
 C         -4.9163602818       -5.0963115885        1.1814541070
 C         -5.7498417298       -5.1169471528        0.0756752010
 H         -6.5639171896       -5.8231441070        0.0308950314
 C         -5.5394643542       -4.2424194628       -0.9768218919
 C         -4.4934703876       -3.3380298737       -0.9099403020
 N          0.1060075866        2.0545568026        0.0910514457
 N          2.0180047186       -0.0770933292        0.1138550236
 C         -2.2777221867        2.5361359645       -0.1187349146
 C         -0.9457830021        2.9023908700       -0.1274803022
 C         -0.4508538441        4.2364752531       -0.3374911795
 H         -1.0608923174        5.0910783591       -0.5551638563
 C          0.8953022848        4.1840799298       -0.1915281790
 H          1.6066221237        4.9836651931       -0.2655363742
 C          1.2353475515        2.8108407148        0.0601549093
 C          2.5370588194        2.3314442702        0.1907352453
 C          2.8933969349        0.9728273636        0.2048395362
 C          4.2283425565        0.4925043390        0.1770203894
 H          5.1075709087        1.1029969652        0.2449175738
 C          4.1538302851       -0.8691282761        0.0288530760
 H          4.9624036808       -1.5698653297       -0.0374342135
 C          2.7762653920       -1.2004153827       -0.0129832101
 C          3.6359390241        3.3239300460        0.2205787113
 C          4.0434502223        3.8943612523        1.4242952349
 C          5.0620544132        4.8344896482        1.4669980817
 C          5.6848117906        5.2136250680        0.2900477053
 H          6.4739981910        5.9491675988        0.3162841980
 C          5.3034783698        4.6606250728       -0.9211287721
 C          4.2868173987        3.7193620258       -0.9456852359
 Fe         0.0149078669        0.0072660841        0.4880705014
 C         -3.3048247075        3.5259791659       -0.5074235512
 C         -3.6898573385        4.5948192496        0.3013074077
 C         -3.9452117363        3.3824557625       -1.7413852054
 C         -4.6765165017        5.4841721348       -0.0995229301
 C         -4.9284255356        4.2640541277       -2.1567517587
 H         -4.9602979641        6.2967374453        0.5508242409
 C         -5.2935606412        5.3123077363       -1.3279713916
 H         -5.3971999858        4.1259630923       -3.1176620982
 H         -6.0665405286        5.9975246718       -1.6430831917
 C          3.2968202591       -3.5600046573       -0.4673610522
 C          3.8481001667       -4.3318337209        0.5524659282
 C          3.7580109473       -3.7670578820       -1.7658018475
 C          4.8332169615       -5.2717805141        0.2897325453
 C          4.7392489700       -4.7028293561       -2.0449614694
 H          5.2479334230       -5.8498794016        1.0998022651
 C          5.2758490948       -5.4493542228       -1.0095465305
 H          5.0763289761       -4.8361136204       -3.0601167263
 H          6.0473311614       -6.1744698363       -1.2171490155
 H         -5.0706173351       -5.7766935963        2.0032853384
 H         -6.1745416162       -4.2589299026       -1.8470243417
 H          5.3580237763        5.2603271248        2.4124177489
 H          5.7859673852        4.9527491607       -1.8401749438
 Cl         3.2906329906       -4.0874054124        2.1655668190
 Cl         3.0773272276       -2.8205768684       -3.0420097078
 Cl        -2.9369835285        4.7884707538        1.8455259416
 Cl        -3.4736950050        2.0775589660       -2.7749212020
 Cl         3.2473400773        3.4027250656        2.8768141804
 Cl         3.7870200735        3.0188707323       -2.4450309226
 Cl        -2.8307583370       -4.1483183146        2.6112460586
 Cl        -4.2052804034       -2.2717407426       -2.2437056760
 Cl         0.0676823565       -0.0109943218        2.6221032308
  78
       -160.31146340
 N         -0.1067578459       -2.0436177750        0.1562205620
 N         -2.0207350932        0.0902040820        0.1393510722
 C          2.2895871081       -2.5315806603        0.0230115669
 C          0.9529546259       -2.9007422656        0.2366103575
 C          0.4835397981       -4.2264587860        0.4553621263
 H          1.0996965507       -5.0925153452        0.5973979643
 C         -0.8824101187       -4.1636538272        0.4563573943
 H         -1.5725436719       -4.9710001908        0.5905305381
 C         -1.2303561432       -2.8000304144        0.2447997833
 C         -2.5433300395       -2.3161911897        0.0614662970
 C         -2.8793352452       -0.9629986134       -0.0129521246
 C         -4.1995706071       -0.4779316127       -0.2864365815
 H         -5.0555560259       -1.0942928815       -0.4686393379
 C         -4.1338843377        0.8785835683       -0.2709465264
 H         -4.9234078934        1.5872954302       -0.4308856801
 C         -2.7733528818        1.2274920779       -0.0098978556
 C         -3.5838887975       -3.3313537452       -0.1813866388
 C         -4.6724829855       -3.5283381415        0.6701360784
 C         -5.6327852565       -4.4898133642        0.4079150639
 C         -5.5087465057       -5.2975003806       -0.7094379524
 H         -6.2478602298       -6.0552342468       -0.9139970973
 C         -4.4378699015       -5.1386874519       -1.5704588469
 C         -3.4936834140       -4.1596196059       -1.3067237490
 N          0.0859912720        2.0606974856        0.1376126760
 N          1.9889738414       -0.0809071731        0.0738541497
 C         -2.3126238267        2.5387580781        0.0571937111
 C         -0.9720963314        2.9194436160        0.2056598715
 C         -0.5044485048        4.2571294536        0.3515548202
 H         -1.1243975685        5.1282359441        0.4480846563
 C          0.8621871504        4.1948068191        0.3512978758
 H          1.5552254359        5.0062830688        0.4603927354
 C          1.2112944526        2.8234013565        0.1850045677
 C          2.5153256652        2.3278470870       -0.0026901168
 C          2.8351020125        0.9735986198       -0.1276611738
 C          4.1309619119        0.4954506219       -0.5036104052
 H          4.9686025403        1.1173201117       -0.7522557860
 C          4.0659117814       -0.8619813393       -0.5020391379
 H          4.8390722019       -1.5633692475       -0.7466553043
 C          2.7329260459       -1.2150164120       -0.1218873119
 C          3.5968765223        3.3211349473       -0.1334448473
 C          4.6226609978        3.4108465221        0.8119681092
 C          5.6168147036        4.3704366683        0.7109238523
 C          5.6001836766        5.2595490797       -0.3497320618
 H          6.3690625618        6.0120092990       -0.4304888717
 C          4.6069099959        5.1889129158       -1.3130108049
 C          3.6202923092        4.2259872288       -1.1993715985
 Fe        -0.0088740466        0.0094715975        0.4962360211
 C         -3.2930251562        3.6356058553       -0.1291650130
 C         -4.0506291307        4.1343711011        0.9249830478
 C         -3.4641880651        4.2055957990       -1.3895043169
 C         -4.9516669589        5.1682182341        0.7336303619
 C         -4.3694333530        5.2301122438       -1.5980857017
 H         -5.5193518146        5.5403198335        1.5704704668
 C         -5.1087728250        5.7083704356       -0.5302843299
 H         -4.4838467082        5.6449162858       -2.5859170013
 H         -5.8085568254        6.5108966219       -0.6843125747
 C          3.2720224760       -3.6232017325       -0.1250634230
 C          4.3105114723       -3.8046229354        0.7904409848
 C          3.1887659919       -4.5199079351       -1.1922333056
 C          5.2241645029       -4.8378320090        0.6524829629
 C          4.0918601651       -5.5589591075       -1.3400087309
 H          6.0124857937       -4.9489572009        1.3783126336
 C          5.1078121067       -5.7118568928       -0.4128262484
 H          3.9989570685       -6.2325836996       -2.1757204596
 H          5.8132376177       -6.5213949259       -0.5232647663
 H         -6.4637133481       -4.6048718920        1.0817159670
 H         -4.3287284876       -5.7588128489       -2.4469162366
 H          6.3869728642        4.4182144715        1.4650006633
 H          4.5941058752        5.8712511813       -2.1483944841
 Cl         4.4328599649       -2.7304374094        2.1363806504
 Cl         1.9471608074       -4.3105647988       -2.3761472213
 Cl        -3.8396167960        3.4425716588        2.4928451110
 Cl        -2.5255582432        3.5998084064       -2.7054407537
 Cl         4.6241746391        2.3195712409        2.1514540195
 Cl         2.4035187860        4.1127938140       -2.4239035035
 Cl        -4.8157959487       -2.5630459344        2.0963868375
 Cl        -2.1970567122       -3.9346629781       -2.4245901790
 Cl         0.0222314720        0.0261421838        2.6293824661
  78
       -160.31142546
 N         -0.0967910813       -2.0323945391       -0.1242787064
 N         -2.0186625849        0.1064803357       -0.1464742832
 C          2.2789546646       -2.5225854530        0.1899106046
 C          0.9479501701       -2.8906128779        0.0752663348
 C          0.4640993103       -4.2427405952        0.0681922043
 H          1.0725566766       -5.1142231694        0.2074665978
 C         -0.8712668152       -4.1819139100       -0.1545223632
 H         -1.5664340707       -4.9962577967       -0.2203327512
 C         -1.2164076041       -2.7901858810       -0.2655814451
 C         -2.5141358193       -2.3033511505       -0.4163497893
 C         -2.8766856035       -0.9384570249       -0.3527728319
 C         -4.2047128664       -0.4552697280       -0.4462222067
 H         -5.0751883367       -1.0502328387       -0.6395212942
 C         -4.1507126270        0.9024000052       -0.2428697534
 H         -4.9683347713        1.5941469150       -0.2257964260
 C         -2.7862637206        1.2343569913       -0.0798968659
 C         -3.5841056773       -3.3014932144       -0.6075734973
 C         -4.5558481230       -3.5447587652        0.3641602544
 C         -5.5318193529       -4.5120690996        0.1853881708
 C         -5.5480922483       -5.2642148847       -0.9763326876
 H         -6.3014817721       -6.0236896901       -1.1162733504
 C         -4.5989285380       -5.0490610378       -1.9613029918
 C         -3.6338873249       -4.0746193092       -1.7719413881
 N          0.0788189524        2.0522132723       -0.2525493823
 N          1.9984253779       -0.0851089907       -0.0966503039
 C         -2.2933432748        2.5560198881        0.0485620794
 C         -0.9647510853        2.9198402499       -0.1010351694
 C         -0.4813513789        4.2710838268       -0.1810732773
 H         -1.0973114184        5.1461169519       -0.1061701777
 C          0.8555643224        4.1994043029       -0.3930625164
 H          1.5533766290        5.0052435959       -0.5142450888
 C          1.2039379735        2.8044278406       -0.3993475030
 C          2.4999950026        2.3089620273       -0.4555835518
 C          2.8608221612        0.9548702042       -0.2941641566
 C          4.1990668938        0.4864445644       -0.2651168601
 H          5.0701596636        1.0976844995       -0.3982917717
 C          4.1407348064       -0.8655040941       -0.0350675278
 H          4.9569159588       -1.5552164611        0.0533208262
 C          2.7689827187       -1.2046176970        0.0507858622
 C          3.5981662473        3.2924333853       -0.6076068360
 C          4.1853412859        3.8864420733        0.5074964721
 C          5.1941174845        4.8285915582        0.3756505063
 C          5.6288192144        5.1848220224       -0.8887448133
 H          6.4047816002        5.9233289750       -0.9988334026
 C          5.0685586089        4.6070714165       -2.0150137906
 C          4.0600311754        3.6685773782       -1.8655148625
 Fe        -0.0136485822        0.0223728537        0.2166036428
 C         -3.2591332626        3.6175852925        0.4070148926
 C         -3.3279028004        4.0234690920        1.7401785203
 C         -4.1049675681        4.2385823191       -0.5053748657
 C         -4.2038999248        5.0115210360        2.1517932368
 C         -4.9928716503        5.2256196951       -0.1100976242
 H         -4.2309240143        5.3062481646        3.1863448869
 C         -5.0346174348        5.6071748468        1.2195462683
 H         -5.6378451619        5.6868128301       -0.8392085054
 H         -5.7203580370        6.3787612318        1.5301518781
 C          3.2648590857       -3.6098843751        0.3927673869
 C          3.5548491965       -4.0762229016        1.6724999848
 C          3.8963218155       -4.2241395065       -0.6847331830
 C          4.4295716309       -5.1272897767        1.8731122849
 C          4.7681668794       -5.2788979838       -0.5020102501
 H          4.6292334623       -5.4709211324        2.8745976093
 C          5.0259434385       -5.7273933337        0.7807224317
 H          5.2350171500       -5.7372125699       -1.3571924320
 H          5.6948019341       -6.5553220587        0.9316344869
 H         -6.2643312009       -4.6727867122        0.9589013901
 H         -4.6024765211       -5.6301373951       -2.8700590418
 H          5.6211840050        5.2728230265        1.2592051525
 H          5.3989235815        4.8827388861       -3.0042512761
 Cl         2.7968159412       -3.3090990515        3.0230778731
 Cl         3.5530955780       -3.6511648314       -2.2768592918
 Cl        -2.2894595930        3.2360438671        2.8839095803
 Cl        -4.0303846664        3.7695195062       -2.1676752482
 Cl         3.6208384591        3.4317438292        2.0750702848
 Cl         3.3405333327        2.9428957351       -3.2581598853
 Cl        -4.5120483396       -2.6475760039        1.8430241925
 Cl        -2.4677112231       -3.7908498565       -3.0144851592
 Cl        -0.0338990600        0.1019959271        2.3488199518
  78
       -160.31139890
 N         -0.0913774286       -2.0321736975        0.0233018614
 N         -2.0342699367        0.0911463584        0.0551176724
 C          2.2940629411       -2.5150888534        0.2787193006
 C          0.9706537968       -2.8836024478        0.0478224424
 C          0.5274479860       -4.2219790309       -0.2209570336
 H          1.1686374683       -5.0808332590       -0.2632968660
 C         -0.8123690623       -4.1618244272       -0.4131420046
 H         -1.4842430858       -4.9630642798       -0.6521753864
 C         -1.2019149032       -2.7867596828       -0.2338716134
 C         -2.5008462589       -2.3124575779       -0.2936764821
 C         -2.8860581102       -0.9574019512       -0.0950782405
 C         -4.2287403978       -0.5133563297       -0.0187479272
 H         -5.0989862493       -1.1352026006       -0.0908761481
 C         -4.1863102410        0.8447546725        0.1732836069
 H         -5.0141129671        1.5182115149        0.2812205222
 C         -2.8162658452        1.2121996480        0.1885042723
 C         -3.5830817947       -3.2760945343       -0.5822603584
 C         -3.9768498681       -4.2382963231        0.3482064683
 C         -4.9733227700       -5.1573508670        0.0590284131
 C         -5.5926778376       -5.1291612639       -1.1827073017
 H         -6.3598807127       -5.8484895992       -1.4171527052
 C         -5.2322783911       -4.1771971156       -2.1221272529
 C         -4.2407837903       -3.2579408861       -1.8131788209
 N          0.0598245384        2.0538058803        0.0892990175
 N          1.9812465435       -0.0730169690        0.2156084430
 C         -2.3414002770        2.5322422891        0.2003376013
 C         -1.0026425215        2.9014757909        0.0613881367
 C         -0.5529310599        4.2345295364       -0.2239286820
 H         -1.1922550830        5.0916649050       -0.3101384752
 C          0.7905939138        4.1700570871       -0.3913840579
 H          1.4626066207        4.9650665287       -0.6482185523
 C          1.1775961335        2.8046091966       -0.1530299851
 C          2.4760708859        2.3285579889       -0.1319528262
 C          2.8366413244        0.9798671536        0.1641178436
 C          4.1673870284        0.5421473692        0.3816931674
 H          5.0323588608        1.1752745973        0.4300909449
 C          4.1167431298       -0.8208687147        0.5254756089
 H          4.9327856417       -1.4959480008        0.6906356809
 C          2.7533346606       -1.1938817662        0.3887305608
 C          3.5925689304        3.2172292412       -0.5057305902
 C          3.9876797278        4.3218716690        0.2510556280
 C          5.0606464163        5.1121273473       -0.1304218468
 C          5.7671684052        4.8006298302       -1.2803325209
 H          6.6059395150        5.4118166022       -1.5745997183
 C          5.4031690676        3.7121244003       -2.0534532814
 C          4.3229047408        2.9380336413       -1.6668784276
 Fe        -0.0396803365        0.0046955250        0.4712536804
 C         -3.3406676167        3.6225269411        0.2617116394
 C         -3.5254681177        4.3473559193        1.4370473720
 C         -4.1073939353        3.9689964317       -0.8497328779
 C         -4.4483051764        5.3780286805        1.5104459162
 C         -5.0298720658        4.9998393526       -0.7920078574
 H         -4.5692650622        5.9176427387        2.4346800352
 C         -5.1986001162        5.6976760274        0.3926261953
 H         -5.6076427545        5.2488574463       -1.6673261499
 H         -5.9152961969        6.4985914544        0.4406389954
 C          3.3338493289       -3.5707624358        0.2801627073
 C          3.7944519122       -4.1404715790        1.4637925280
 C          3.9167131600       -3.9830650957       -0.9164466916
 C          4.8138060375       -5.0818061932        1.4568323145
 C          4.9318133850       -4.9240949072       -0.9401961170
 H          5.1586226066       -5.5012474727        2.3882627522
 C          5.3802954206       -5.4645633764        0.2544772081
 H          5.3656966537       -5.2189921211       -1.8821555324
 H          6.1784382234       -6.1909789803        0.2430572161
 H         -5.2526153454       -5.8900090631        0.7988009230
 H         -5.7107086992       -4.1427058631       -3.0874241129
 H          5.3325616841        5.9614275989        0.4729961171
 H          5.9437789104        3.4629461502       -2.9530297164
 Cl         3.0767970260       -3.6401598220        2.9517928282
 Cl         3.3477340132       -3.2817024137       -2.3914687550
 Cl        -2.5806646024        3.9290850395        2.8215112096
 Cl        -3.8729691509        3.0996262497       -2.3230352168
 Cl         3.1411294086        4.6941557127        1.7151902907
 Cl         3.8464321163        1.6069300111       -2.6596856678
 Cl        -3.2047928220       -4.2717978508        1.8918013008
 Cl        -3.7667318148       -2.0822517869       -2.9879181490
 Cl        -0.1345181435       -0.0365841267        2.6018217825
  78
       -160.31138969
 N         -0.0767927329       -2.0338208307       -0.0766739246
 N         -1.9860833984        0.1163966086        0.0614788173
 C          2.2953720225       -2.5540279089        0.1763837866
 C          0.9661021181       -2.9078733286        0.0820511869
 C          0.4659018693       -4.2584416522        0.0530983974
 H          1.0760777139       -5.1335160345        0.1626044067
 C         -0.8694859375       -4.1780935637       -0.1487254813
 H         -1.5751218458       -4.9830043877       -0.2245996967
 C         -1.2017686085       -2.7780140362       -0.2204087754
 C         -2.4908984380       -2.2711561419       -0.3721451372
 C         -2.8326113666       -0.9044215049       -0.2844235614
 C         -4.1311499157       -0.3895331863       -0.5224747173
 H         -4.9805360690       -0.9612279243       -0.8405591155
 C         -4.0717051143        0.9625896003       -0.2860482954
 H         -4.8668672782        1.6773748632       -0.3717930538
 C         -2.7375113771        1.2543169682        0.0772101656
 C         -3.5785334414       -3.2328882473       -0.6347983554
 C         -4.5992639804       -3.4581974003        0.2904720892
 C         -5.6204106097       -4.3584128716        0.0359676407
 C         -5.6305292499       -5.0578585602       -1.1566089121
 H         -6.4137622596       -5.7741645001       -1.3580101436
 C         -4.6287438342       -4.8616967548       -2.0921276910
 C         -3.6168972470       -3.9580048704       -1.8277191146
 N          0.1202119269        2.0526851127        0.1461353110
 N          2.0193424236       -0.1017365394        0.0387424073
 C         -2.2535913817        2.5685408131        0.3406264153
 C         -0.9175273345        2.9163607129        0.3741142580
 C         -0.4001719095        4.2554725642        0.5019276380
 H         -0.9848237430        5.1220726657        0.7476512039
 C          0.9279341195        4.1915376397        0.2500350344
 H          1.6423574640        4.9923652337        0.2397971266
 C          1.2474125230        2.8040379845        0.0405666259
 C          2.5177691519        2.3050331502       -0.2317047866
 C          2.8711338240        0.9429094591       -0.1936992292
 C          4.2009709029        0.4636779227       -0.3185015956
 H          5.0653284097        1.0721781477       -0.5003663859
 C          4.1503778524       -0.8962713515       -0.1382714138
 H          4.9607217904       -1.5985100449       -0.1598157224
 C          2.7868871966       -1.2269347983        0.0599893983
 C          3.5573608227        3.2624144881       -0.6751999161
 C          4.3776755931        3.9758173831        0.1940049181
 C          5.3222676673        4.8715733300       -0.2830517766
 C          5.4562323175        5.0604478665       -1.6481082491
 H          6.1895228550        5.7578216035       -2.0219712233
 C          4.6587033798        4.3606108987       -2.5373452026
 C          3.7199087160        3.4702636915       -2.0443754181
 Fe         0.0174496846       -0.0115277971        0.4223952356
 C         -3.2698728348        3.6319893566        0.4635770960
 C         -4.1577130573        3.6510923642        1.5410079187
 C         -3.3976030105        4.6394368729       -0.4968654550
 C         -5.1229696746        4.6380485487        1.6676233384
 C         -4.3511753344        5.6352484542       -0.3777330312
 H         -5.7897335539        4.6229425428        2.5153052407
 C         -5.2124410561        5.6303044310        0.7076764428
 H         -4.4235478504        6.3978368998       -1.1371769218
 H         -5.9573828096        6.4014224479        0.7999028835
 C          3.3000589351       -3.6286162645        0.3478902400
 C          3.7553249853       -3.9576078013        1.6230333238
 C          3.8155093404       -4.3304863795       -0.7384813092
 C          4.6937542694       -4.9602004973        1.8112071501
 C          4.7563298168       -5.3325872845       -0.5652077427
 H          5.0285378661       -5.1985272873        2.8079794541
 C          5.1886944354       -5.6418119725        0.7133755583
 H          5.1409275059       -5.8581681227       -1.4243205839
 H          5.9211583023       -6.4217833938        0.8516106887
 H         -6.3902130509       -4.5108438104        0.7753215794
 H         -4.6293067118       -5.4047392549       -3.0237959189
 H          5.9443999098        5.4092360107        0.4137851339
 H          4.7582508085        4.4978498860       -3.6028124302
 Cl         3.1155819869       -3.0899960377        2.9703461335
 Cl         3.2619608593       -3.9250178612       -2.3231011089
 Cl        -4.0287792001        2.4224291809        2.7487908238
 Cl        -2.3691700093        4.6207369803       -1.8883078451
 Cl         4.2030348268        3.7214647211        1.8957525907
 Cl         2.7108502139        2.5920424597       -3.1374375371
 Cl        -4.5680202514       -2.6155716083        1.7963513521
 Cl        -2.3850110070       -3.6968958201       -3.0109408550
 Cl         0.0304751819       -0.1454056610        2.5507928256
  78
       -160.31135337
 N         -0.1053548328       -2.0475282374       -0.2890903671
 N         -1.9796786531        0.1111640346       -0.1907569082
 C          2.2185956305       -2.5626195065        0.2048913776
 C          0.8944814324       -2.9181653815        0.0689132395
 C          0.3403183271       -4.2429839124        0.2008367100
 H          0.8888459540       -5.1079341966        0.5089569324
 C         -0.9649220937       -4.1602830936       -0.1453964349
 H         -1.6919894962       -4.9471999581       -0.1800834427
 C         -1.2438071727       -2.7718492432       -0.4148334304
 C         -2.5137847306       -2.2459848418       -0.6673281792
 C         -2.8355218178       -0.8765307555       -0.6010660223
 C         -4.1191107725       -0.3172004578       -0.8353373082
 H         -4.9757869990       -0.8493483155       -1.2007973686
 C         -4.0383438871        1.0155301983       -0.5035956241
 H         -4.8163667706        1.7529260410       -0.5518343574
 C         -2.7037616713        1.2547226835       -0.1073251168
 C         -3.6098440106       -3.1977014500       -0.9359997582
 C         -4.6705285281       -3.3696125029       -0.0437837581
 C         -5.6977106378       -4.2615727463       -0.3077599349
 C         -5.6783727241       -5.0035045425       -1.4761619973
 H         -6.4756755501       -5.7003902603       -1.6844183754
 C         -4.6381211630       -4.8600215489       -2.3783661860
 C         -3.6165899287       -3.9656224092       -2.1025443209
 N          0.1423743072        2.0239607246       -0.1972278199
 N          2.0125644897       -0.1247764010       -0.1922352845
 C         -2.1876308784        2.5358374952        0.2780673885
 C         -0.8566290411        2.8821273817        0.1976016915
 C         -0.2939534701        4.1948240322        0.4004510538
 H         -0.8348743052        5.0487727888        0.7591497945
 C          1.0081538762        4.1230040489        0.0391217506
 H          1.7412840869        4.9069259699        0.0444861479
 C          1.2779610315        2.7501204235       -0.3064412019
 C          2.5456260165        2.2405300509       -0.6162661519
 C          2.8697649892        0.8717147500       -0.5836179693
 C          4.1515365326        0.3135715460       -0.8338791459
 H          5.0051822245        0.8529425318       -1.1949340998
 C          4.0698672315       -1.0235428332       -0.5252763396
 H          4.8461977946       -1.7615467589       -0.5809539264
 C          2.7339279609       -1.2687865825       -0.1369195380
 C          3.6028584684        3.2152043134       -0.9416285545
 C          4.7423101904        3.3855804559       -0.1513845455
 C          5.7174936562        4.3139642743       -0.4812935687
 C          5.5617432809        5.1047465029       -1.6071697466
 H          6.3210724057        5.8288603788       -1.8606134974
 C          4.4393806442        4.9698101746       -2.4059509916
 C          3.4774385871        4.0313667441       -2.0716316467
 Fe         0.0155643320       -0.0207675845        0.1849255455
 C         -3.1800367221        3.5133987098        0.7567649800
 C         -3.8802749738        3.2464665475        1.9380112427
 C         -3.4791594422        4.6963268427        0.0804466675
 C         -4.8169435287        4.1337447889        2.4393600672
 C         -4.4119232676        5.5938277200        0.5735737236
 H         -5.3338001296        3.8984224593        3.3549143988
 C         -5.0729750680        5.3110771815        1.7561996759
 H         -4.6189788692        6.5008806991        0.0285873807
 H         -5.7957557473        6.0094624004        2.1431102740
 C          3.1929674424       -3.5197299961        0.7572533519
 C          3.7377496876       -3.2511091478        2.0178297673
 C          3.6031470730       -4.6821990841        0.1075856642
 C          4.6299947949       -4.1230394134        2.6202363525
 C          4.4973894724       -5.5624748585        0.6992658558
 H          5.0232945187       -3.8927470936        3.5985748815
 C          5.0003969514       -5.2828586609        1.9587966108
 H          4.7928798331       -6.4557609023        0.1712882966
 H          5.6883368916       -5.9708919118        2.4283196972
 H         -6.4999611931       -4.3703452946        0.4045244457
 H         -4.6152803200       -5.4302226832       -3.2926902478
 H          6.5864325263        4.4135723022        0.1482403634
 H          4.3065242637        5.5820667096       -3.2846245631
 Cl         3.2486043631       -1.8113348675        2.8427818631
 Cl         3.0097533075       -5.0123813260       -1.4825147328
 Cl        -3.5411458376        1.7810908853        2.7942814759
 Cl        -2.7096594881        5.0247191146       -1.4345236610
 Cl         4.9220412794        2.4568828924        1.2977020897
 Cl         2.0989618754        3.8401229956       -3.0943521862
 Cl        -4.6784093513       -2.4793739519        1.4370949931
 Cl        -2.3279136021       -3.7736923023       -3.2349255417
 Cl         0.0053518249       -0.0653554953        2.3176418670
  78
       -160.31142202
 N         -0.0793399282       -2.0145766451       -0.0587259458
 N         -1.9729533275        0.0981580403        0.1152372207
 C          2.3124423524       -2.4743293290       -0.3855567401
 C          0.9576331438       -2.8414487246       -0.3881584203
 C          0.4610393118       -4.1548728832       -0.6192213554
 H          1.0527348554       -5.0048281420       -0.8989210937
 C         -0.8916443788       -4.1099638164       -0.4031848726
 H         -1.5991462605       -4.9115207454       -0.4882868549
 C         -1.2034161816       -2.7724460732       -0.0471038190
 C         -2.5081481820       -2.2885623531        0.2487615619
 C         -2.8378990215       -0.9495563286        0.3420248889
 C         -4.1685722547       -0.4342893121        0.5251151140
 H         -5.0304457298       -1.0249638341        0.7733295501
 C         -4.1052128362        0.9030695040        0.3111920090
 H         -4.9052206993        1.6176658288        0.3489030476
 C         -2.7291510635        1.2227067746        0.0421997600
 C         -3.5878165233       -3.2884383169        0.3780767337
 C         -3.6107092300       -4.1782915749        1.4546775594
 C         -4.6292498041       -5.1067516206        1.5999165556
 C         -5.6439190725       -5.1562295120        0.6598587832
 H         -6.4451562278       -5.8700221037        0.7773267897
 C         -5.6422065354       -4.2956887805       -0.4280420082
 C         -4.6192529345       -3.3759278423       -0.5605260994
 N          0.1169076844        2.0515536459        0.0413361424
 N          2.0401111191       -0.0733105648        0.0454344614
 C         -2.2699103416        2.5104522522       -0.2826568634
 C         -0.9181418653        2.8837678437       -0.2952092758
 C         -0.4042970331        4.1775636917       -0.5942537356
 H         -0.9822380224        5.0185242571       -0.9259276664
 C          0.9478365959        4.1260343144       -0.3747825256
 H          1.6653060844        4.9165220714       -0.4891275333
 C          1.2480528599        2.7959930609        0.0156590951
 C          2.5608175547        2.3051475968        0.2753719433
 C          2.9098285746        0.9688124138        0.2635040546
 C          4.2528247475        0.4604227150        0.3281053768
 H          5.1263269249        1.0494958331        0.5312186989
 C          4.1861970322       -0.8675915340        0.0618615897
 H          4.9973546857       -1.5673614114       -0.0046892890
 C          2.7985090775       -1.1956795434       -0.0989778364
 C          3.5983955855        3.3330346243        0.4965946362
 C          3.5718245491        4.0959677073        1.6656827641
 C          4.5104197180        5.0879545499        1.9029162996
 C          5.4896401189        5.3368876705        0.9556263962
 H          6.2209708430        6.1106707542        1.1311879434
 C          5.5364731870        4.6028632941       -0.2175007921
 C          4.5959514127        3.6096762499       -0.4398132838
 Fe         0.0387073857        0.0060579156        0.4329304525
 C         -3.2917838148        3.4954595083       -0.6824233364
 C         -3.5410765097        4.6793920174        0.0144772670
 C         -4.0646740782        3.2503737127       -1.8251469120
 C         -4.5082050724        5.5788266667       -0.4086325613
 C         -5.0322717163        4.1401803116       -2.2572013810
 H         -4.6730692333        6.4832809386        0.1556761950
 C         -5.2526510761        5.3069458123       -1.5436922113
 H         -5.5998061923        3.9168858617       -3.1467541538
 H         -6.0039714234        6.0064347203       -1.8748002719
 C          3.2882850902       -3.5442164718       -0.6955624100
 C          4.0112956648       -4.1898386677        0.3060860264
 C          3.4845965162       -3.9605563244       -2.0118461477
 C          4.8918327241       -5.2175870831        0.0085858438
 C          4.3615009937       -4.9853163592       -2.3253578516
 H          5.4316473153       -5.7050301902        0.8042596375
 C          5.0593912980       -5.6122664391       -1.3071819053
 H          4.4866752275       -5.2845186826       -3.3533534975
 H          5.7367984304       -6.4179608745       -1.5435183405
 H         -4.6214424856       -5.7770261278        2.4448664178
 H         -6.4285138468       -4.3279567418       -1.1659394221
 H          4.4637526912        5.6579160474        2.8160511081
 H          6.2926418418        4.7973889390       -0.9624317513
 Cl         3.7753064126       -3.6984399947        1.9442499039
 Cl         2.6092993669       -3.1632438116       -3.2697804446
 Cl        -2.6486134021        5.0363558817        1.4551136069
 Cl        -3.7815265301        1.8164795423       -2.7497492307
 Cl         2.3473787960        3.7679486589        2.8379941562
 Cl         4.6294552921        2.7213986975       -1.9202093665
 Cl        -2.3606362008       -4.0745734571        2.6386835255
 Cl        -4.5896956387       -2.3445557654       -1.9502518187
 Cl         0.0839749016       -0.0428708787        2.5659979492
  78
       -160.31132902
 N         -0.1103308818       -2.0045498992       -0.0696558991
 N         -2.0070654634        0.0974395887        0.0742274620
 C          2.2716356124       -2.4457977526       -0.4684480205
 C          0.9244219432       -2.8302184256       -0.4160604897
 C          0.4327310229       -4.1479533641       -0.6174329313
 H          1.0235905531       -4.9936994350       -0.9114925835
 C         -0.9146454494       -4.1085909148       -0.3620674329
 H         -1.6176144229       -4.9169126652       -0.4169765109
 C         -1.2246595679       -2.7685949198       -0.0164716465
 C         -2.5350856659       -2.2838076565        0.2809328646
 C         -2.8757318691       -0.9440555229        0.2941788218
 C         -4.2150012106       -0.4278485774        0.4025243876
 H         -5.0844063029       -1.0111409721        0.6347590857
 C         -4.1480655187        0.8999750856        0.1392604795
 H         -4.9516122124        1.6107441722        0.1120301876
 C         -2.7632104684        1.2219503048       -0.0544893911
 C         -3.5683571366       -3.3098678164        0.5056358590
 C         -3.4807870033       -4.1492562267        1.6211711164
 C         -4.4178602884       -5.1400933197        1.8582912048
 C         -5.4691050886       -5.3090207240        0.9737615401
 H         -6.2027073859       -6.0786838830        1.1539528737
 C         -5.5793581666       -4.5009895462       -0.1453479565
 C         -4.6317686240       -3.5178003945       -0.3753895520
 N          0.0923966397        2.0713215781        0.0580308771
 N          2.0012390287       -0.0417448025       -0.0210949283
 C         -2.2922346039        2.5134315486       -0.3097679292
 C         -0.9501398329        2.9101118566       -0.2353412450
 C         -0.4610977513        4.2343559749       -0.3948568526
 H         -1.0552132770        5.0930765286       -0.6408968974
 C          0.8912864797        4.1863693811       -0.1649529455
 H          1.5945983089        4.9956279942       -0.1944562920
 C          1.2096845295        2.8312110731        0.1041342326
 C          2.5319920197        2.3287032934        0.2925764525
 C          2.8763317585        0.9934486963        0.1918560378
 C          4.2240629591        0.4852565156        0.1867670678
 H          5.1049357193        1.0698415915        0.3669014491
 C          4.1475408699       -0.8349441375       -0.1051063887
 H          4.9505649630       -1.5379676766       -0.2155458298
 C          2.7536482096       -1.1625022077       -0.2165645567
 C          3.5928885527        3.3249772091        0.5387543720
 C          3.6356911818        4.0054253244        1.7578423626
 C          4.6358205534        4.9216079768        2.0384751525
 C          5.6080434679        5.1796857835        1.0877566891
 H          6.3938446821        5.8869272564        1.3028992173
 C          5.5775832435        4.5414721024       -0.1400874757
 C          4.5733787607        3.6254046328       -0.4068508651
 Fe         0.0054489604        0.0195795728        0.4022136001
 C         -3.2882511815        3.5139689288       -0.7562936759
 C         -3.7746898568        4.5336925808        0.0567676811
 C         -3.7625211219        3.4426469826       -2.0675320570
 C         -4.6995833976        5.4522000592       -0.4169953151
 C         -4.6780432431        4.3576464004       -2.5578597370
 H         -5.0655565196        6.2280118970        0.2363117162
 C         -5.1433507556        5.3607360903       -1.7247684962
 H         -5.0160931776        4.2807453281       -3.5786451760
 H         -5.8588295980        6.0762540623       -2.0991795837
 C          3.2560962124       -3.5103635917       -0.7768456500
 C          3.8341461443       -4.2749923894        0.2337399216
 C          3.6100255486       -3.7889698734       -2.0942302086
 C          4.7363226421       -5.2857269888       -0.0575068345
 C          4.5072272553       -4.7987479597       -2.4021189366
 H          5.1694353040       -5.8617943118        0.7438373263
 C          5.0654905244       -5.5431421604       -1.3773381412
 H          4.7599210936       -4.9958455536       -3.4315576353
 H          5.7633651788       -6.3325881407       -1.6093870838
 H         -4.3183024417       -5.7673877645        2.7296079867
 H         -6.3886148549       -4.6361557198       -0.8439223155
 H          4.6483719272        5.4194946625        2.9942930230
 H          6.3219546097        4.7495835587       -0.8916683784
 Cl         3.3993111869       -3.9385699547        1.8705311687
 Cl         2.9019615148       -2.8461067575       -3.3552033129
 Cl        -3.2189686355        4.6310823910        1.6902840983
 Cl        -3.1713238066        2.1875924566       -3.0963822113
 Cl         2.4253217275        3.6603260175        2.9384857835
 Cl         4.5111107974        2.8605933988       -1.9548247043
 Cl        -2.1807262906       -3.9151205096        2.7345001666
 Cl        -4.7390262513       -2.5644666367       -1.8159052052
 Cl         0.0606410224       -0.0598380779        2.5334889023
  78
       -160.31132348
 N         -0.0740251599       -2.0761749647       -0.0934950693
 N         -2.0071748803        0.0623360684        0.0082191460
 C          2.3153176055       -2.5551625164        0.1579262991
 C          0.9776031736       -2.9369310814        0.0256553543
 C          0.5079549470       -4.2815533120       -0.0705056901
 H          1.1238073237       -5.1566132521       -0.0044098832
 C         -0.8395540390       -4.2177351070       -0.2734414412
 H         -1.5320909560       -5.0288656177       -0.3922072524
 C         -1.1912411640       -2.8335844893       -0.2662548170
 C         -2.5011871865       -2.3371337672       -0.3125697975
 C         -2.8662827408       -0.9976748281       -0.1123078752
 C         -4.2088460062       -0.5367324296       -0.0000667528
 H         -5.0871134884       -1.1498906553       -0.0605888778
 C         -4.1549824751        0.8111709944        0.2077126953
 H         -4.9731987507        1.4855378830        0.3650353019
 C         -2.7799916548        1.1777828378        0.1688351550
 C         -3.5980075009       -3.2914083232       -0.5907429631
 C         -4.4806420339       -3.7240122929        0.3974074658
 C         -5.5541108574       -4.5500035711        0.0979859755
 C         -5.7498373274       -4.9634268113       -1.2072243149
 H         -6.5912411418       -5.5951331786       -1.4482576686
 C         -4.8721598120       -4.5755257220       -2.2068737697
 C         -3.8081027207       -3.7475197010       -1.8923604885
 N          0.0761015437        2.0090868720       -0.1179629291
 N          2.0139723767       -0.1222607815       -0.0727797318
 C         -2.3055020748        2.5011728962        0.1941739245
 C         -0.9724018254        2.8731684351       -0.0117792754
 C         -0.5146873564        4.2122559270       -0.2107940541
 H         -1.1373941815        5.0854488877       -0.1975567140
 C          0.8280816175        4.1400443076       -0.4326718873
 H          1.5131392321        4.9427228318       -0.6260848486
 C          1.1873462134        2.7593489145       -0.3516451405
 C          2.4989894171        2.2706708675       -0.4105036715
 C          2.8691709009        0.9314199859       -0.2501419692
 C          4.2171158856        0.4662317154       -0.2230855510
 H          5.0819071392        1.0891491421       -0.3493181189
 C          4.1689514513       -0.8809406224       -0.0102473004
 H          4.9874332041       -1.5690743067        0.0743956590
 C          2.7896409365       -1.2367496009        0.0614898216
 C          3.5645585716        3.2867591199       -0.5830957079
 C          4.1574615492        3.8909111997        0.5230174925
 C          5.0944653849        4.9023341100        0.3742488980
 C          5.4480089395        5.3184386059       -0.8975724840
 H          6.1634513210        6.1169921232       -1.0212564633
 C          4.8854751265        4.7255149543       -2.0159292870
 C          3.9513518263        3.7149704499       -1.8510127991
 Fe         0.0098633977       -0.0311533047        0.2986202379
 C         -3.2728828929        3.6009883971        0.3824740465
 C         -3.2462523100        4.3640374650        1.5517972732
 C         -4.1995330790        3.9558128257       -0.5977908564
 C         -4.1043993845        5.4364476382        1.7370586711
 C         -5.0651587535        5.0226114600       -0.4261911950
 H         -4.0493727921        6.0051692635        2.6504646156
 C         -5.0085654717        5.7630110361        0.7431554432
 H         -5.7647587101        5.2707923806       -1.2086031566
 H         -5.6737036103        6.6018402371        0.8776390708
 C          3.3177868223       -3.6308422215        0.3443471488
 C          3.6218575046       -4.0953038816        1.6218957830
 C          3.9802920216       -4.2053596505       -0.7371636194
 C          4.5534469167       -5.1025781242        1.8169876642
 C          4.9186652926       -5.2094505748       -0.5578147332
 H          4.7666835604       -5.4456596342        2.8169738669
 C          5.1977241437       -5.6540366343        0.7228865660
 H          5.4191532695       -5.6320708642       -1.4148484881
 H          5.9256458476       -6.4362446773        0.8712995612
 H         -6.2276104382       -4.8528114726        0.8846989358
 H         -5.0146006407       -4.9000844227       -3.2247980419
 H          5.5278063174        5.3614502565        1.2482293123
 H          5.1574758254        5.0519284801       -3.0077474355
 Cl         2.8115016962       -3.3789235569        2.9704488895
 Cl         3.6064652538       -3.6407853044       -2.3262256320
 Cl        -2.1200236526        3.9408110377        2.7939627666
 Cl        -4.2336428886        3.0683803556       -2.0807230809
 Cl         3.6738262406        3.3746173061        2.0976964127
 Cl         3.2204203834        2.9741913045       -3.2278239071
 Cl        -4.2144312790       -3.2122203238        2.0268360589
 Cl        -2.7239044678       -3.2321141691       -3.1382364848
 Cl         0.0540252421       -0.0202931834        2.4322804666
  78
       -160.31134498
 N         -0.0852679183       -2.0595131305       -0.3115184127
 N         -2.0102249502        0.0848951011       -0.2258893250
 C          2.2878582859       -2.5571673357       -0.0066697079
 C          0.9555080083       -2.9233408731       -0.1523418950
 C          0.4753955767       -4.2773061893       -0.2081865291
 H          1.0968467621       -5.1499185627       -0.1273200562
 C         -0.8636940347       -4.2126306000       -0.4026903540
 H         -1.5641976849       -5.0225186505       -0.5039683779
 C         -1.2162056700       -2.8161348190       -0.4293312863
 C         -2.5106925106       -2.3283617535       -0.4625436500
 C         -2.8764304217       -0.9648023844       -0.3481597018
 C         -4.2114523393       -0.5003491460       -0.2950959497
 H         -5.0873383876       -1.1149868971       -0.3727893099
 C         -4.1508708690        0.8606980638       -0.1159078725
 H         -4.9737316094        1.5404311599       -0.0171125459
 C         -2.7782429094        1.2076602264       -0.0949055426
 C         -3.6201318590       -3.3107301861       -0.5241211999
 C         -4.1413545132       -3.8661262825        0.6427038764
 C         -5.1817002465       -4.7793922284        0.5997597516
 C         -5.7111067448       -5.1491137383       -0.6248047106
 H         -6.5213784816       -5.8588469387       -0.6599110756
 C         -5.2096820725       -4.6176390105       -1.8002387565
 C         -4.1715885694       -3.7021179728       -1.7402644570
 N          0.0858218689        2.0306570831       -0.3316196251
 N          2.0108055308       -0.1154940045       -0.2620555132
 C         -2.2852743092        2.5279664108        0.0061667042
 C         -0.9530619566        2.8926327313       -0.1496907910
 C         -0.4707184429        4.2460059921       -0.1858804712
 H         -1.0877387261        5.1174574484       -0.0817157395
 C          0.8677745689        4.1820934367       -0.3793035789
 H          1.5635233640        4.9952194004       -0.4526788483
 C          1.2159716518        2.7876011800       -0.4486260982
 C          2.5100257703        2.2972090131       -0.5157632222
 C          2.8722478535        0.9282528332       -0.4371611494
 C          4.2056946749        0.4565098785       -0.4657618396
 H          5.0767801882        1.0634610693       -0.6184511625
 C          4.1511214362       -0.9008608525       -0.2578925993
 H          4.9736925423       -1.5854286885       -0.2005215904
 C          2.7813232714       -1.2401022237       -0.1510809733
 C          3.6091094879        3.2852494109       -0.5425628304
 C          4.3882292590        3.5087999143        0.5948547198
 C          5.3966491027        4.4578020687        0.6025391652
 C          5.6429599547        5.2004465747       -0.5403776076
 H          6.4242199199        5.9445733332       -0.5364778996
 C          4.8918353394        4.9990617962       -1.6846521715
 C          3.8838469506        4.0478625144       -1.6763711432
 Fe         0.0038124455       -0.0126178646        0.0800745835
 C         -3.2551844338        3.6004154649        0.3173598951
 C         -3.2914845391        4.1398992752        1.6042745699
 C         -4.1552592041        4.0967820439       -0.6228227984
 C         -4.2031791171        5.1263801259        1.9445914555
 C         -5.0768053930        5.0762424638       -0.2946756160
 H         -4.2100626526        5.5213007028        2.9471370496
 C         -5.0972263361        5.5841541218        0.9932035599
 H         -5.7634614523        5.4360883970       -1.0432053912
 H         -5.8132128368        6.3441784083        1.2567143534
 C          3.2607750795       -3.5963546093        0.3962729091
 C          3.2913629915       -3.9934136055        1.7351421961
 C          4.1785108367       -4.1752337912       -0.4761756505
 C          4.2220527218       -4.9114250784        2.1952108137
 C          5.1188436097       -5.0926725834       -0.0304973447
 H          4.2286520371       -5.1882695675        3.2369585215
 C          5.1387815987       -5.4503073429        1.3071656182
 H          5.8248496408       -5.5202495102       -0.7237077847
 H          5.8767170072       -6.1549427498        1.6596805966
 H         -5.5692869165       -5.1917136816        1.5164197453
 H         -5.6156405121       -4.9041875166       -2.7565263710
 H          5.9730691475        4.6129787645        1.4999265737
 H          5.0790455865        5.5713951537       -2.5792317013
 Cl         2.1527549621       -3.2907657533        2.8314959225
 Cl         4.1343927662       -3.7354514481       -2.1481288679
 Cl        -2.1825889866        3.5422474330        2.7865794082
 Cl        -4.0991049001        3.4728927270       -2.2332012793
 Cl         4.0510890593        2.6033992855        2.0265439203
 Cl         2.9446251758        3.7863743067       -3.1019461863
 Cl        -3.4592428462       -3.3880360114        2.1565184248
 Cl        -3.5305001861       -3.0228327299       -3.1926504628
 Cl         0.0135971101        0.0137397058        2.2133026014
  78
       -160.31131330
 N         -0.0969786127       -2.0338723789       -0.2077300229
 N         -2.0365936539        0.0774888637       -0.1124836775
 C          2.2830425220       -2.4939735706       -0.5107974160
 C          0.9472498693       -2.8774847760       -0.3916603682
 C          0.4745687647       -4.2393546274       -0.3790172645
 H          1.0832766598       -5.1046414617       -0.5524282958
 C         -0.8464405713       -4.1955019321       -0.0901476176
 H         -1.5337907891       -5.0120539250        0.0200905570
 C         -1.2100266216       -2.8053214709        0.0011519278
 C         -2.4914462027       -2.3327758180        0.1879144069
 C         -2.8898453760       -0.9764312191        0.0058908824
 C         -4.2227238651       -0.5483062318       -0.1731452299
 H         -5.0908762452       -1.1746067683       -0.1325288178
 C         -4.1721537787        0.8000968790       -0.4377163701
 H         -4.9934618458        1.4567406296       -0.6487459602
 C         -2.8078639969        1.1787224971       -0.3737929192
 C         -3.5162886862       -3.3011217039        0.6385790982
 C         -3.5683591038       -3.6210168220        1.9958510491
 C         -4.4938357664       -4.5289436088        2.4857901387
 C         -5.3810565813       -5.1330579276        1.6116977744
 H         -6.1024060746       -5.8436378717        1.9850545608
 C         -5.3481901503       -4.8372479801        0.2595292926
 C         -4.4183774294       -3.9259824829       -0.2172569863
 N          0.0543812287        2.0472551834       -0.2132681402
 N          1.9798041556       -0.0645902343       -0.1418904540
 C         -2.3298844645        2.4959508676       -0.5216941827
 C         -0.9995143608        2.8845700388       -0.3694458453
 C         -0.5571827633        4.2504896319       -0.2464741059
 H         -1.1943942038        5.1098948538       -0.3313475078
 C          0.7651972011        4.2130789339        0.0367775689
 H          1.4255198792        5.0370002066        0.2260170957
 C          1.1592177415        2.8266315142        0.0237667470
 C          2.4447900581        2.3526646742        0.1655656331
 C          2.8296728447        0.9899472106       -0.0151486701
 C          4.1652097822        0.5594808121       -0.1668999358
 H          5.0329243881        1.1872146620       -0.1275970828
 C          4.1210691545       -0.7956147974       -0.3928839181
 H          4.9479278393       -1.4597944387       -0.5507066793
 C          2.7531895566       -1.1692895068       -0.3743845207
 C          3.5256177940        3.2978417035        0.5132994472
 C          4.0871670580        3.2494730599        1.7909367361
 C          5.0965758167        4.1193798838        2.1679670550
 C          5.5653297116        5.0517947593        1.2566006909
 H          6.3506536932        5.7351268555        1.5429666593
 C          5.0349644738        5.1184215309       -0.0202624350
 C          4.0209457907        4.2431841042       -0.3828091580
 Fe        -0.0251091857        0.0076916135        0.2118577362
 C         -3.3112524435        3.5587199752       -0.8321850480
 C         -4.2141262965        4.0461130885        0.1111037538
 C         -3.3438086702        4.1230362224       -2.1087710441
 C         -5.1165623138        5.0503700977       -0.2032377693
 C         -4.2429600869        5.1221894795       -2.4404011225
 H         -5.7986788890        5.4100933727        0.5511057763
 C         -5.1290315880        5.5827040541       -1.4809394288
 H         -4.2455602152        5.5280778795       -3.4387821108
 H         -5.8303741095        6.3638974311       -1.7305810292
 C          3.2902239721       -3.5536843664       -0.7200263525
 C          3.5897188509       -4.4794881164        0.2820177942
 C          3.9780671588       -3.6688872298       -1.9288992427
 C          4.5168090497       -5.4870564044        0.0818256614
 C          4.9201556213       -4.6629597079       -2.1392556839
 H          4.7156370671       -6.1913930886        0.8730399378
 C          5.1822634413       -5.5732287916       -1.1307976877
 H          5.4351801292       -4.7173054166       -3.0862859818
 H          5.9057037156       -6.3576314998       -1.2896595168
 H         -4.5092718657       -4.7563326635        3.5393580690
 H         -6.0309481832       -5.3088813156       -0.4297868812
 H          5.5013210493        4.0630330332        3.1642254403
 H          5.4018689127        5.8395106452       -0.7336835540
 Cl         2.7847432456       -4.3464346053        1.8106146670
 Cl         3.6141409801       -2.5591559570       -3.2029601190
 Cl        -4.1795247728        3.4057453019        1.7179059513
 Cl        -2.2382728238        3.5373459252       -3.3005425878
 Cl         3.4736426065        2.0927489333        2.9160789340
 Cl         3.3730547539        4.3032421345       -1.9838155661
 Cl        -2.4527396686       -2.8515518789        3.0697375975
 Cl        -4.3457860964       -3.5663369114       -1.9051755299
 Cl        -0.0112776199       -0.0014153543        2.3453849900
  78
       -160.31128071
 N         -0.0865027739       -2.0657153312       -0.2742030034
 N         -2.0009262465        0.0727596194       -0.1453829201
 C          2.2625679945       -2.5652825244        0.1478679396
 C          0.9518899503       -2.9375338784       -0.0686422397
 C          0.4606022683       -4.2886477549       -0.1562211280
 H          1.0623445729       -5.1676287572       -0.0351730151
 C         -0.8574368409       -4.2108666849       -0.4541407236
 H         -1.5446702383       -5.0159985673       -0.6267145719
 C         -1.2042138895       -2.8119071909       -0.4635821621
 C         -2.5035690205       -2.3136348711       -0.5461929532
 C         -2.8681996900       -0.9656959430       -0.3499157134
 C         -4.2029855335       -0.4957647426       -0.2599729294
 H         -5.0857862702       -1.0945918969       -0.3718642168
 C         -4.1345440667        0.8505429464        0.0055528773
 H         -4.9499410291        1.5338669475        0.1408977533
 C         -2.7611116256        1.1852648229        0.0520100740
 C         -3.5999614421       -3.2761107340       -0.7883615560
 C         -4.0348153842       -4.1587816263        0.1979786722
 C         -5.0592582011       -5.0611135976       -0.0392923835
 C         -5.6712524234       -5.0877097139       -1.2774768245
 H         -6.4704872040       -5.7850800009       -1.4616401636
 C         -5.2722114504       -4.2142101777       -2.2742715106
 C         -4.2461540281       -3.3195911994       -2.0223921607
 N          0.1031760199        2.0066968177       -0.2433659713
 N          2.0142875237       -0.1181867480       -0.1526678145
 C         -2.2543637377        2.5067071304        0.1763936780
 C         -0.9399769704        2.8715531494       -0.0341084932
 C         -0.4549775668        4.2236557552       -0.1029300291
 H         -1.0636091914        5.0982423542        0.0229457264
 C          0.8706685040        4.1548385664       -0.3680780404
 H          1.5639209607        4.9618289078       -0.4940899339
 C          1.2162600801        2.7580388266       -0.4271956900
 C          2.5195230071        2.2682648045       -0.5387973455
 C          2.8805608588        0.9117671135       -0.3991203406
 C          4.2059691936        0.4117410696       -0.4562371954
 H          5.0859610205        0.9863590480       -0.6658943910
 C          4.1343614968       -0.9373585772       -0.1986822741
 H          4.9414108005       -1.6434976376       -0.1610358966
 C          2.7682175120       -1.2444400943       -0.0249594161
 C          3.5939032309        3.2598465891       -0.7379990115
 C          4.5135959361        3.5598003343        0.2698764727
 C          5.4844205047        4.5297031585        0.0965096973
 C          5.5493197467        5.2236506726       -1.0985319741
 H          6.2962126762        5.9880016296       -1.2355228524
 C          4.6572293921        4.9482334859       -2.1199618458
 C          3.6945674423        3.9725338249       -1.9334236942
 Fe         0.0067979707       -0.0326609334        0.1777071199
 C         -3.2204000461        3.5779546250        0.5080950960
 C         -3.4503124387        3.9090826358        1.8422692582
 C         -3.9002822186        4.2929824968       -0.4727958885
 C         -4.3210069350        4.9268889059        2.1900311297
 C         -4.7761421536        5.3138916962       -0.1414926233
 H         -4.4731750035        5.1723750969        3.2302964139
 C         -4.9778759634        5.6262857240        1.1916368085
 H         -5.2892574966        5.8546304099       -0.9190584557
 H         -5.6519833595        6.4264686751        1.4514268445
 C          3.2316434773       -3.5697791790        0.6313833443
 C          3.6141455879       -3.5138199248        1.9743619252
 C          3.7914551644       -4.5656856728       -0.1634632313
 C          4.5064914301       -4.4264408303        2.5085740192
 C          4.6894855795       -5.4848700970        0.3562560936
 H          4.7731963326       -4.3606293155        3.5504063376
 C          5.0401625169       -5.4110824674        1.6930779327
 H          5.1065167812       -6.2457926643       -0.2842465133
 H          5.7362941630       -6.1216876202        2.1070862401
 H         -5.3736403788       -5.7286025695        0.7458732397
 H         -5.7452064694       -4.2152744911       -3.2376342661
 H          6.1713266068        4.7446318992        0.8981647023
 H          4.7014679086        5.4816793196       -3.0544428228
 Cl         2.9198284463       -2.2830828948        2.9758132539
 Cl         3.3695493992       -4.6321408593       -1.8410944969
 Cl        -2.6076309801        3.0173213419        3.0604217888
 Cl        -3.6254756805        3.8899271980       -2.1283957948
 Cl         4.3996945172        2.7326739936        1.7796610573
 Cl         2.5893208619        3.6162701381       -3.2110562678
 Cl        -3.2936298600       -4.0932806121        1.7568920460
 Cl        -3.7362086462       -2.2341083531       -3.2657941604
 Cl        -0.0070039470       -0.0888535950        2.3082499184
  78
       -160.31126395
 N         -0.0720768993       -2.0926311147        0.0459432943
 N         -2.0023630134        0.0284550611        0.1327591717
 C          2.3448872466       -2.5340914391        0.2170256006
 C          0.9943150362       -2.9309448586        0.0135319977
 C          0.5737397416       -4.2448603527       -0.3073824503
 H          1.2172954128       -5.0971013413       -0.3999626852
 C         -0.7841068219       -4.1875605928       -0.4962326828
 H         -1.4379464433       -4.9888928322       -0.7773944483
 C         -1.1769911947       -2.8449922994       -0.2420610055
 C         -2.4951334025       -2.3571258557       -0.2189918717
 C         -2.8428819889       -1.0352969860        0.0928736324
 C         -4.1811692109       -0.6114687474        0.4035383910
 H         -5.0285203467       -1.2658184532        0.4759302248
 C         -4.1364298491        0.7251343112        0.6167650296
 H         -4.9390200771        1.3783233265        0.8984271778
 C         -2.7805249007        1.1416100829        0.3726587874
 C         -3.5967882936       -3.2509899877       -0.6225210507
 C         -3.9734831162       -4.3897055037        0.0903651747
 C         -5.0003012524       -5.2125966080       -0.3466211911
 C         -5.6777606065       -4.9019714598       -1.5123957816
 H         -6.4766403091       -5.5390286983       -1.8588280386
 C         -5.3397117463       -3.7714585523       -2.2368990300
 C         -4.3119642137       -2.9596927859       -1.7907210025
 N          0.0553226025        1.9753034548       -0.0768971681
 N          2.0090274087       -0.1172758446       -0.0076806080
 C         -2.3500513392        2.4435510319        0.2263631155
 C         -1.0199785139        2.8014128779       -0.1452331968
 C         -0.6276360678        4.0695945739       -0.6374626223
 H         -1.2812340279        4.9005318328       -0.8193956206
 C          0.7281844179        4.0113119606       -0.8396740488
 H          1.3649495875        4.7847594287       -1.2222709648
 C          1.1428803962        2.7068342378       -0.4552664004
 C          2.4772193969        2.2591057429       -0.3945511209
 C          2.8543259828        0.9420975281       -0.1185240298
 C          4.2116264392        0.5032420640        0.0747065973
 H          5.0704635555        1.1464202943        0.0652086021
 C          4.1724784604       -0.8333491835        0.2809191579
 H          4.9896902905       -1.5060016965        0.4569673592
 C          2.7914876647       -1.2313554799        0.2014914218
 C          3.5242099403        3.2734044510       -0.6118971957
 C          3.6504846423        4.3736188441        0.2429241775
 C          4.5899242241        5.3650811747        0.0143241695
 C          5.4371506399        5.2664334675       -1.0760050342
 H          6.1667587780        6.0392714021       -1.2607659717
 C          5.3520873378        4.1808831719       -1.9298078999
 C          4.4015674629        3.2006787815       -1.6958899789
 Fe         0.0157020118       -0.0450268065        0.4233093162
 C         -3.2876319966        3.5691700637        0.3854631324
 C         -3.0454491437        4.5427750986        1.3597599270
 C         -4.3919597107        3.7585767661       -0.4493673828
 C         -3.8619855884        5.6532021330        1.4974107985
 C         -5.2247467148        4.8555430419       -0.3108721975
 H         -3.6337675458        6.3903807308        2.2524914166
 C         -4.9530497936        5.8048234383        0.6617086982
 H         -6.0700398709        4.9675925804       -0.9721833474
 H         -5.5925811552        6.6676313068        0.7613327632
 C          3.3414911778       -3.6195901183        0.3732574014
 C          3.6032831877       -4.1633491600        1.6285946407
 C          4.0348916039       -4.1303738690       -0.7214989333
 C          4.5308195788       -5.1805224676        1.7913104155
 C          4.9594666525       -5.1515223563       -0.5756665288
 H          4.7189865948       -5.5789405876        2.7750147890
 C          5.2028150824       -5.6701953506        0.6848993448
 H          5.4780679610       -5.5306155775       -1.4414855673
 H          5.9237105476       -6.4637615105        0.8048168759
 H         -5.2646715122       -6.0845507800        0.2299327871
 H         -5.8621363807       -3.5160301119       -3.1451376330
 H          4.6506974493        6.2030143370        0.6901427459
 H          6.0080226077        4.0903335492       -2.7803647364
 Cl         2.7490565786       -3.5311815575        2.9906612338
 Cl         3.7175204711       -3.4656638686       -2.2832559166
 Cl        -1.7027590102        4.3432217653        2.4292084315
 Cl        -4.6978874279        2.6314921317       -1.7314965802
 Cl         2.6332505068        4.4855621242        1.6346173984
 Cl         4.2699695224        1.8772339537       -2.8014837689
 Cl        -3.1710213621       -4.7551988095        1.5777465844
 Cl        -3.8824525858       -1.5657927242       -2.7200401164
 Cl         0.1110812292        0.0247023028        2.5538207638
  78
       -160.31121250
 N         -0.0621340549       -2.0647317817       -0.1369410392
 N         -1.9708562841        0.0481240173       -0.1449347591
 C          2.3278743129       -2.4972101397       -0.5009739261
 C          0.9885375645       -2.9050344297       -0.3689074009
 C          0.5322994531       -4.2498236152       -0.3538378426
 H          1.1447826393       -5.1160718518       -0.5120591830
 C         -0.8143274128       -4.2084978589       -0.0821133675
 H         -1.4883902566       -5.0360858762        0.0225473202
 C         -1.1630053092       -2.8401352301        0.0297443437
 C         -2.4762628744       -2.3298797662        0.2202677261
 C         -2.8283787492       -1.0005162972        0.0815543643
 C         -4.1844802064       -0.5188605102        0.0556334939
 H         -5.0525878168       -1.1333038879        0.2031901871
 C         -4.1292698819        0.8057592426       -0.2170017147
 H         -4.9444251404        1.4952100785       -0.3198961366
 C         -2.7376447941        1.1570103972       -0.3282062993
 C         -3.5561942357       -3.2923046228        0.5341484922
 C         -4.0442286266       -3.3871850987        1.8378631409
 C         -5.0833192925       -4.2473187134        2.1559737958
 C         -5.6448457866       -5.0338878469        1.1645883022
 H         -6.4600466190       -5.6997645112        1.4055379394
 C         -5.1729955630       -4.9694952633       -0.1353464919
 C         -4.1347856338       -4.1025823283       -0.4407313793
 N          0.1104166692        2.0210771751       -0.1620349201
 N          2.0343071895       -0.0789060010       -0.1577674220
 C         -2.2789213706        2.4607944839       -0.5195806031
 C         -0.9288696681        2.8574243511       -0.4554282813
 C         -0.4412056309        4.1814981295       -0.6047711158
 H         -1.0271339199        5.0392282061       -0.8718404449
 C          0.9090595811        4.1370069445       -0.3479033429
 H          1.6024813670        4.9551465541       -0.3617903573
 C          1.2252836097        2.7863400520       -0.0742694945
 C          2.5389504833        2.2917115785        0.1834407931
 C          2.9008377940        0.9628540761        0.0699720946
 C          4.2516586926        0.4640818671        0.0809625839
 H          5.1241562129        1.0581322077        0.2703069306
 C          4.1870026948       -0.8536222578       -0.2233990265
 H          4.9961841461       -1.5480887350       -0.3338585036
 C          2.7935875615       -1.1951913335       -0.3368218991
 C          3.5298052697        3.3081667583        0.5860021146
 C          3.3966395846        3.8996485305        1.8467667686
 C          4.2793036462        4.8774539651        2.2845198948
 C          5.3132477613        5.2783656454        1.4562689522
 H          6.0033663081        6.0377373719        1.7900261587
 C          5.4666584346        4.7140077491        0.1996257478
 C          4.5748234589        3.7420404334       -0.2267906275
 Fe         0.0315696923       -0.0188043177        0.2343616527
 C         -3.2800045543        3.5265584740       -0.7251247606
 C         -3.5110832624        4.4981403809        0.2518453155
 C         -4.0173832572        3.6097147650       -1.9064754702
 C         -4.4243136903        5.5211770655        0.0501548418
 C         -4.9397516754        4.6227470946       -2.1171320947
 H         -4.5755434617        6.2548921565        0.8251053971
 C         -5.1344422859        5.5800369290       -1.1364866588
 H         -5.4907792258        4.6562779755       -3.0427024973
 H         -5.8485412022        6.3702884558       -1.2959668987
 C          3.3183599981       -3.5591065988       -0.8036343211
 C          3.9973246571       -4.2442624403        0.2010447372
 C          3.5751308232       -3.9109440590       -2.1271003533
 C          4.9056528785       -5.2473969419       -0.1017258407
 C          4.4781110349       -4.9110865815       -2.4459423686
 H          5.4189551429       -5.7630987076        0.6940273757
 C          5.1393271131       -5.5753990916       -1.4268166217
 H          4.6581732467       -5.1633244290       -3.4789141735
 H          5.8439239534       -6.3565540164       -1.6683199610
 H         -5.4413563233       -4.2953006158        3.1707537000
 H         -5.6077894811       -5.5766045782       -0.9133934428
 H          4.1488358175        5.3126029306        3.2638906993
 H          6.2654535578        5.0314081584       -0.4535114503
 Cl         3.6875432362       -3.8166009732        1.8447202009
 Cl         2.7358877060       -3.0647100719       -3.3800463032
 Cl        -2.6640932178        4.3913824750        1.7515724547
 Cl        -3.7539253253        2.4284566285       -3.1398415577
 Cl         2.1238007469        3.3512277909        2.8843099446
 Cl         4.7487160281        3.0701808737       -1.8128412429
 Cl        -3.3303689510       -2.3953358076        3.0607132495
 Cl        -3.5582281948       -3.9850138733       -2.0642370961
 Cl         0.0379171927       -0.0041233618        2.3676322632
  78
       -160.31119237
 N         -0.0515364924       -2.0514363922        0.1884359703
 N         -1.9783718817        0.0561864044        0.0721587232
 C          2.3247993941       -2.5133643264       -0.1322972010
 C          1.0067101718       -2.8966082417        0.1067519918
 C          0.5641233526       -4.2540677473        0.2802848343
 H          1.2049010196       -5.1139865831        0.2763648520
 C         -0.7728963002       -4.2081391004        0.4852488399
 H         -1.4392597582       -5.0242074494        0.6866136624
 C         -1.1673180521       -2.8279818749        0.3664837556
 C         -2.4669068035       -2.3687925591        0.3039024944
 C         -2.8271662661       -1.0103630343        0.0618094086
 C         -4.1328675217       -0.5959840516       -0.2841466795
 H         -4.9860866988       -1.2368394323       -0.3896161721
 C         -4.0766631419        0.7621214493       -0.4765587418
 H         -4.8751940663        1.4166353508       -0.7651312422
 C         -2.7351176965        1.1554848328       -0.2376732268
 C         -3.5743785870       -3.3417452402        0.3698283131
 C         -4.4972345739       -3.3049897348        1.4184520227
 C         -5.5596134521       -4.1910916328        1.4805390721
 C         -5.7141868981       -5.1407635339        0.4852748190
 H         -6.5402082740       -5.8330448800        0.5266881473
 C         -4.8180803579       -5.2031521109       -0.5676964982
 C         -3.7636880555       -4.3062976801       -0.6221665447
 N          0.1098824338        2.0379138247       -0.0704735496
 N          2.0343793990       -0.0681865202        0.0840386942
 C         -2.2791116574        2.4877518925       -0.3221541252
 C         -0.9455413216        2.8786755106       -0.2092134947
 C         -0.4881745414        4.2448360192       -0.1842155803
 H         -1.1233820763        5.1048793209       -0.2677877527
 C          0.8541236154        4.2088376862       -0.0225744288
 H          1.5399004511        5.0313856526        0.0414713484
 C          1.2315532265        2.8203454915        0.0407430475
 C          2.5238354761        2.3552153246        0.1385151761
 C          2.8983020479        0.9853565845        0.0851637691
 C          4.2295976381        0.5321795853       -0.0663653717
 H          5.1002461489        1.1582476087       -0.0853632393
 C          4.1668737273       -0.8328336802       -0.1989163842
 H          4.9777537578       -1.5219974092       -0.3326880182
 C          2.7976277309       -1.1899661593       -0.0976059422
 C          3.6224413976        3.3454421657        0.2316735135
 C          4.0931867236        3.7634643249        1.4741318518
 C          5.1232121921        4.6858666829        1.5772277794
 C          5.6950180069        5.1992992036        0.4266362727
 H          6.4983945292        5.9151690247        0.5013159333
 C          5.2454986962        4.8021412854       -0.8213163567
 C          4.2143896986        3.8813149890       -0.9092817170
 Fe         0.0274328392        0.0176016207        0.4438042669
 C         -3.2993203502        3.5296588623       -0.5418356283
 C         -4.2823938382        3.7961482419        0.4156844858
 C         -3.3383456338        4.2704660490       -1.7245221919
 C         -5.2696504876        4.7416322095        0.1968799279
 C         -4.3158531566        5.2247900103       -1.9538083722
 H         -6.0149737073        4.9156687508        0.9555915417
 C         -5.2841666990        5.4517089222       -0.9916614622
 H         -4.3135441607        5.7718134891       -2.8815396417
 H         -6.0545843346        6.1844313271       -1.1671728662
 C          3.2717045647       -3.5655297635       -0.5671754678
 C          3.9280278009       -4.4273811664        0.3060969322
 C          3.4974034080       -3.7265877220       -1.9349899139
 C          4.7715472067       -5.4231640169       -0.1637752057
 C          4.3361530469       -4.7153106671       -2.4194164270
 H          5.2632864396       -6.0786133545        0.5367672502
 C          4.9683487907       -5.5637119395       -1.5262099911
 H          4.4809447302       -4.8152068154       -3.4832730445
 H          5.6180205016       -6.3398754171       -1.8987883294
 H         -6.2549543315       -4.1321141731        2.3024773237
 H         -4.9353724659       -5.9345932070       -1.3507554152
 H          5.4657752270        4.9917794000        2.5525587469
 H          5.6851033535        5.1980722984       -1.7225675333
 Cl         3.6778121549       -4.2329973039        2.0051420776
 Cl         2.6847844222       -2.6706199807       -3.0359264668
 Cl        -4.2417266166        2.9396666101        1.9177136010
 Cl        -2.1593455668        3.9581953784       -2.9510519557
 Cl         3.3597870178        3.1094254938        2.8936864825
 Cl         3.6380844624        3.3705461697       -2.4549836866
 Cl        -4.2849002348       -2.1333626069        2.6702664973
 Cl        -2.6921788593       -4.3568717419       -1.9762416234
 Cl         0.0320145552        0.1724502209        2.5716426024
  78
       -160.31116674
 N         -0.1012353835       -2.0197641871       -0.2261041606
 N         -2.0073725966        0.1230107602       -0.2196631675
 C          2.2534511055       -2.5221703243        0.1906244063
 C          0.9332813015       -2.8843582687        0.0086706288
 C          0.4327393177       -4.2347474606        0.0091748801
 H          1.0262044816       -5.1121816877        0.1801969691
 C         -0.8925765897       -4.1641415416       -0.2554725692
 H         -1.5892135867       -4.9756065467       -0.3340854952
 C         -1.2242853512       -2.7689433564       -0.3847924178
 C         -2.5138168221       -2.2704484695       -0.5685337961
 C         -2.8645426480       -0.9055357790       -0.5066497320
 C         -4.1775561753       -0.3946158380       -0.6737680224
 H         -5.0376673403       -0.9754261861       -0.9423965495
 C         -4.1145386031        0.9555968443       -0.4265196027
 H         -4.9161742270        1.6678508943       -0.4542914686
 C         -2.7592284875        1.2541422826       -0.1568641663
 C         -3.5979469583       -3.2532841168       -0.7646972344
 C         -4.5991990580       -3.4378018610        0.1929059776
 C         -5.6096445213       -4.3673435766        0.0106851696
 C         -5.6282996690       -5.1407170216       -1.1376239133
 H         -6.4115271219       -5.8689954379       -1.2806634730
 C         -4.6456038740       -4.9917219968       -2.1016830926
 C         -3.6466315992       -4.0520990873       -1.9096125685
 N          0.0948390700        2.0610942046       -0.2817465638
 N          2.0044295218       -0.0825653630       -0.1233822420
 C         -2.2610733869        2.5662510966        0.0843716987
 C         -0.9386468009        2.9317189677       -0.0560007974
 C         -0.4355219301        4.2808908702       -0.0548303000
 H         -1.0425032449        5.1510359413        0.1031315978
 C          0.8913818864        4.2060390729       -0.3149145632
 H          1.5980287718        5.0079661945       -0.4088095990
 C          1.2226222438        2.8088722894       -0.4089164417
 C          2.5154345991        2.3017491273       -0.5116919992
 C          2.8710454628        0.9477454176       -0.3561029855
 C          4.2045953007        0.4628644066       -0.3434580973
 H          5.0810541067        1.0611711310       -0.5138105107
 C          4.1355803256       -0.8846939390       -0.0875087211
 H          4.9436280935       -1.5846325093        0.0020583884
 C          2.7627894080       -1.2027602920        0.0364175467
 C          3.6167690366        3.2701731379       -0.7171178867
 C          4.2144452648        3.9212882619        0.3604999466
 C          5.2396318270        4.8340596344        0.1725872938
 C          5.6813161052        5.1044456505       -1.1113256521
 H          6.4799483619        5.8135437529       -1.2641967526
 C          5.1087152538        4.4725394731       -2.2015547136
 C          4.0843078244        3.5633148484       -1.9950802407
 Fe        -0.0095249328        0.0265297170        0.1656368327
 C         -3.2380092618        3.5635491852        0.5781055621
 C         -3.4547649945        3.6241194195        1.9566111076
 C         -3.9666172262        4.4220576931       -0.2397370483
 C         -4.3646410104        4.5152610269        2.5029999602
 C         -4.8885639272        5.3115710318        0.2917520903
 H         -4.5076708242        4.5450506418        3.5712553416
 C         -5.0815332382        5.3531006492        1.6637997471
 H         -5.4503221284        5.9587418260       -0.3627506376
 H         -5.7971703598        6.0450614799        2.0816420124
 C          3.2299089870       -3.5801892616        0.5243344611
 C          3.7466560306       -3.6651017713        1.8181589217
 C          3.6514006847       -4.5275211186       -0.4060789958
 C          4.6319305787       -4.6679734234        2.1781719824
 C          4.5394710007       -5.5338490514       -0.0646525597
 H          5.0020753596       -4.7205137554        3.1897543228
 C          5.0211773696       -5.6015850713        1.2323371037
 H          4.8474917053       -6.2544975029       -0.8043440386
 H          5.7057710603       -6.3900141092        1.5069363317
 H         -6.3668550287       -4.4887377852        0.7664885600
 H         -4.6535995502       -5.5938284479       -2.9954085608
 H          5.6803814253        5.3234567737        1.0249418461
 H          5.4481692110        4.6779344927       -3.2041018825
 Cl         3.2313760458       -2.5032000748        2.9897841774
 Cl         3.0549035153       -4.4236194177       -2.0293540683
 Cl        -2.5495015198        2.5512839673        2.9730390190
 Cl        -3.7106748657        4.3588602351       -1.9506818232
 Cl         3.6463986115        3.5667981060        1.9521058167
 Cl         3.3520574927        2.7604144563       -3.3390138633
 Cl        -4.5481156390       -2.5176400955        1.6548156027
 Cl        -2.4418593412       -3.8384409624       -3.1316296639
 Cl        -0.0459643659        0.1205290163        2.2959519364
  78
       -160.31114887
 N         -0.0966624047       -2.0087839277       -0.4830483914
 N         -2.0242700875        0.1052177306       -0.1967581714
 C          2.2944966782       -2.5064509563       -0.3780415114
 C          0.9593418793       -2.8686345213       -0.5199267651
 C          0.4851057185       -4.2210109992       -0.6170815030
 H          1.1125169273       -5.0884860960       -0.6820041276
 C         -0.8680837771       -4.1644827107       -0.6060053406
 H         -1.5697112168       -4.9743542892       -0.6623926576
 C         -1.2264256893       -2.7767021654       -0.4893345261
 C         -2.5181677544       -2.3128835776       -0.3024932931
 C         -2.8837330789       -0.9545057744       -0.1594053347
 C         -4.2120146252       -0.4992307555        0.0105342537
 H         -5.0792705348       -1.1256237090        0.0802078710
 C         -4.1577949058        0.8718814127        0.0662815189
 H         -4.9746296380        1.5551903909        0.2002403693
 C         -2.7952222573        1.2311381798       -0.0787871323
 C         -3.5818387069       -3.3353523020       -0.1590962330
 C         -3.9336621229       -3.7946756019        1.1084407702
 C         -4.8713398377       -4.8013008584        1.2736336828
 C         -5.4789123532       -5.3527413234        0.1590346599
 H         -6.2057996920       -6.1407064320        0.2788577588
 C         -5.1620147152       -4.9033816011       -1.1120595257
 C         -4.2137075659       -3.9044885891       -1.2617763686
 N          0.0823687695        2.0774444423       -0.2415514024
 N          2.0080236492       -0.0500735491       -0.3207495752
 C         -2.3173351025        2.5571251967       -0.1115459959
 C         -0.9798242591        2.9307644125       -0.2051142469
 C         -0.5118017843        4.2873533926       -0.2491579924
 H         -1.1448543322        5.1540830299       -0.2525365480
 C          0.8421464629        4.2355601101       -0.2770598671
 H          1.5355679073        5.0529136028       -0.3078441588
 C          1.2101355508        2.8477683781       -0.2551742018
 C          2.5126059786        2.3710803384       -0.2287481649
 C          2.8753920981        1.0008596288       -0.2509225840
 C          4.2081861379        0.5289862072       -0.1879863837
 H          5.0850435010        1.1377719452       -0.1116041451
 C          4.1448901365       -0.8423729502       -0.2248325896
 H          4.9561579670       -1.5430022359       -0.2054746791
 C          2.7741987365       -1.1828257645       -0.3079153760
 C          3.6158351956        3.3417505207       -0.0734008136
 C          3.8136575784        3.9820212153        1.1532261266
 C          4.8902715225        4.8318495516        1.3566248747
 C          5.7821398887        5.0658254001        0.3242370784
 H          6.6267271491        5.7201929075        0.4807930919
 C          5.6013839829        4.4594737751       -0.9073871918
 C          4.5269456964        3.6053417518       -1.0954686893
 Fe         0.0008940680        0.0107947234        0.0353088572
 C         -3.3274629322        3.6313260760       -0.0011806145
 C         -3.4631554626        4.3694991221        1.1752803656
 C         -4.1889155216        3.9272034505       -1.0558121942
 C         -4.4228901557        5.3593957127        1.2987992861
 C         -5.1528735757        4.9158793031       -0.9487431028
 H         -4.5076721425        5.9093099464        2.2218809732
 C         -5.2662904777        5.6252728792        0.2335766101
 H         -5.8032455850        5.1198446631       -1.7833668346
 H         -6.0181236606        6.3928820331        0.3261756811
 C          3.2680643088       -3.5907975237       -0.1207127070
 C          3.6409937313       -3.8459137057        1.1997373445
 C          3.8070017441       -4.3942158210       -1.1212799810
 C          4.5130282086       -4.8744904248        1.5161860569
 C          4.6852521833       -5.4230211755       -0.8198076230
 H          4.7714850153       -5.0544658794        2.5469850194
 C          5.0306062597       -5.6595880437        0.5000225949
 H          5.0872397613       -6.0325526885       -1.6137046079
 H          5.7066123942       -6.4663571531        0.7377015479
 H         -5.1088758325       -5.1537957808        2.2656772348
 H         -5.6379477182       -5.3235375463       -1.9843052290
 H          5.0292438792        5.2958376044        2.3261606734
 H          6.2933117677        4.6340343501       -1.7157502905
 Cl         2.9627140606       -2.8638896401        2.4522703051
 Cl         3.3565125845       -4.0867567848       -2.7617084458
 Cl        -2.4206614586        4.0077519570        2.5057077799
 Cl        -4.0280632528        3.0488416099       -2.5340146258
 Cl         2.7300874468        3.6308982776        2.4640090801
 Cl         4.3016186232        2.8433987440       -2.6310743882
 Cl        -3.1556403343       -3.0926611156        2.4846403340
 Cl        -3.7827901194       -3.3420833857       -2.8375882873
 Cl         0.0600527985       -0.1064533461        2.1637479984
  78
       -160.31113947
 N         -0.0857473105       -2.0421660522        0.1932867622
 N         -2.0116599116        0.1022710578        0.1792452521
 C          2.3029934853       -2.5470992241        0.2650277548
 C          0.9705301005       -2.9088206703        0.2481794540
 C          0.4872017097       -4.2637429754        0.1611475193
 H          1.1111959424       -5.1359298381        0.1907441604
 C         -0.8562286906       -4.1944607644        0.0255036820
 H         -1.5601811228       -4.9989881783       -0.0717641689
 C         -1.2073014323       -2.7975173750        0.0470418156
 C         -2.5000636528       -2.3100906909       -0.0813129601
 C         -2.8689245028       -0.9531912545        0.0036334588
 C         -4.2018951184       -0.4853932314       -0.0941237824
 H         -5.0686528285       -1.1022851610       -0.2328798350
 C         -4.1505640733        0.8825053007        0.0233153174
 H         -4.9661345055        1.5777683849       -0.0100902102
 C         -2.7857239966        1.2248427875        0.1799860257
 C         -3.5624902288       -3.2838962630       -0.4303736956
 C         -4.3289962369       -3.9413368468        0.5272477807
 C         -5.3013142597       -4.8587787850        0.1615527603
 C         -5.5162799216       -5.1260728361       -1.1795102425
 H         -6.2716393218       -5.8404840912       -1.4688277838
 C         -4.7705306754       -4.4864241592       -2.1542148960
 C         -3.8029030250       -3.5734036748       -1.7724370294
 N          0.0784168363        2.0521619940        0.0686770685
 N          2.0045918086       -0.0924784973        0.1506602454
 C         -2.3073394948        2.5618010586        0.1952820153
 C         -0.9746901774        2.9187746107        0.1052631970
 C         -0.4904677264        4.2712091391       -0.0219404328
 H         -1.1096865360        5.1454250052       -0.0110805476
 C          0.8510632653        4.1962470707       -0.1750135331
 H          1.5510228451        4.9977521861       -0.3129580751
 C          1.2030152349        2.8037671146       -0.1007615232
 C          2.4957721184        2.3108850229       -0.1854372844
 C          2.8616865400        0.9579188985       -0.0355995112
 C          4.1988326627        0.4931434355       -0.0830200942
 H          5.0648804468        1.1092659627       -0.2075107292
 C          4.1489643393       -0.8699004987        0.0717678583
 H          4.9688388690       -1.5605033263        0.0940455426
 C          2.7814773635       -1.2130062041        0.1939262225
 C          3.5753552521        3.2620444876       -0.5400248225
 C          4.2387869074        4.0356959188        0.4086860441
 C          5.2426999572        4.9189196638        0.0407644408
 C          5.5907064621        5.0364022280       -1.2941892191
 H          6.3698306936        5.7235741614       -1.5862478985
 C          4.9466759079        4.2817361755       -2.2602194792
 C          3.9480149144        3.4026885171       -1.8760002122
 Fe        -0.0002234592        0.0162379292        0.5217108954
 C         -3.3186192121        3.6395739856        0.1981642503
 C         -4.0261243519        3.9551200333        1.3571521502
 C         -3.5936426335        4.3771344705       -0.9541076861
 C         -4.9602797553        4.9783400535        1.3759782787
 C         -4.5259549396        5.4000134299       -0.9513463799
 H         -5.4857545515        5.2061798404        2.2896520339
 C         -5.2029759147        5.6982956383        0.2192468216
 H         -4.7165406567        5.9517056524       -1.8576548405
 H         -5.9266632642        6.4985635658        0.2273448821
 C          3.3108849138       -3.6287999376        0.2148045294
 C          3.6650534757       -4.3500813654        1.3529850685
 C          3.9187383868       -3.9744392289       -0.9916864863
 C          4.5974624997       -5.3739481562        1.2937886271
 C          4.8473795112       -4.9989933166       -1.0673831213
 H          4.8556391106       -5.9098446622        2.1919127414
 C          5.1835987297       -5.6935187046        0.0814279952
 H          5.2937356154       -5.2468541806       -2.0173113955
 H          5.9059052488       -6.4928405443        0.0311701727
 H         -5.8788318403       -5.3580029743        0.9232748877
 H         -4.9303857101       -4.6866126393       -3.2012770630
 H          5.7418533681        5.5040283051        0.7968893171
 H          5.2085603174        4.3687919161       -3.3028252329
 Cl         2.9201512207       -3.9408320334        2.8566580681
 Cl         3.4748753885       -3.1108222386       -2.4192841345
 Cl        -3.6992601053        3.0567577747        2.7964892269
 Cl        -2.7583949301        3.9819833649       -2.4158468406
 Cl         3.7868859931        3.8727212710        2.0685410628
 Cl         3.1222209575        2.4551091898       -3.0634829051
 Cl        -4.0392071112       -3.5994924005        2.1936031593
 Cl        -2.8560464501       -2.7695359272       -2.9721046977
 Cl         0.0118718039        0.1043188425        2.6538225752
  78
       -160.31101253
 N         -0.0905028474       -2.0394749264        0.3087250313
 N         -2.0184136519        0.0975294189        0.1637934592
 C          2.3032326173       -2.5324841039        0.3198294714
 C          0.9704040798       -2.8991807520        0.3391942375
 C          0.4964402988       -4.2564451687        0.2695762343
 H          1.1242671034       -5.1251990045        0.2803327750
 C         -0.8510417950       -4.1969308234        0.1691086654
 H         -1.5471631949       -5.0095511735        0.0922510561
 C         -1.2093161449       -2.8046084291        0.1878638777
 C         -2.5031313252       -2.3262671151        0.0242052928
 C         -2.8723632167       -0.9671262991        0.0371988293
 C         -4.2031783091       -0.5100957284       -0.1119870230
 H         -5.0680871900       -1.1353459282       -0.2202723420
 C         -4.1541158803        0.8625123438       -0.0776340069
 H         -4.9666787973        1.5544008219       -0.1756615493
 C         -2.7948469954        1.2152687259        0.0834756310
 C         -3.5533233684       -3.3135684707       -0.3157881733
 C         -4.1780137158       -4.1088228944        0.6417923871
 C         -5.1217234167       -5.0598489570        0.2835960364
 C         -5.4499661201       -5.2225970480       -1.0521911310
 H         -6.1834664632       -5.9647332828       -1.3390619338
 C         -4.8511754815       -4.4410751916       -2.0252834883
 C         -3.9128029532       -3.4945376357       -1.6507442273
 N          0.0707169776        2.0469676233       -0.0234619752
 N          2.0014468709       -0.0776915123        0.1958753120
 C         -2.3202160807        2.5538977035        0.0563781004
 C         -0.9876473396        2.9132224951       -0.0179395509
 C         -0.5056404453        4.2649733630       -0.1258787798
 H         -1.1248957560        5.1412579224       -0.1299006848
 C          0.8430115467        4.1951060784       -0.2246102715
 H          1.5445071110        5.0039947569       -0.3151306107
 C          1.1962643279        2.8052635588       -0.1475743716
 C          2.4976900099        2.3191196579       -0.1625899617
 C          2.8639740031        0.9718761243        0.0223246720
 C          4.2023805722        0.5052094636        0.0053402389
 H          5.0750325845        1.1156917321       -0.1152932848
 C          4.1465458550       -0.8569800578        0.1649260651
 H          4.9657658986       -1.5477485586        0.2106648807
 C          2.7770514343       -1.1983540292        0.2580991440
 C          3.5889287484        3.2743001247       -0.4615622137
 C          4.4561044770        3.7471523056        0.5213704436
 C          5.4950242760        4.6097956664        0.2097806540
 C          5.6773682599        5.0109878887       -1.1025422776
 H          6.4897778873        5.6754755809       -1.3513407500
 C          4.8274641405        4.5643508047       -2.0994559980
 C          3.7917360928        3.7053354644       -1.7715560628
 Fe        -0.0103574241        0.0349683177        0.5288007183
 C         -3.3313381771        3.6309586376        0.0273439139
 C         -4.0567351033        3.9647715184        1.1700005544
 C         -3.5838907449        4.3573795008       -1.1373662913
 C         -4.9808308343        4.9974547001        1.1640437982
 C         -4.5069611967        5.3893209066       -1.1598919674
 H         -5.5162305403        5.2374663870        2.0679985724
 C         -5.1971533691        5.7090044271       -0.0034391915
 H         -4.6797332530        5.9325692298       -2.0749412099
 H         -5.9105595290        6.5181511261       -0.0103661444
 C          3.3008660217       -3.6167181829        0.1886812966
 C          3.6640645099       -4.4244724936        1.2638781820
 C          3.8708200914       -3.8914801099       -1.0546620976
 C          4.5672893055       -5.4647808419        1.1094734812
 C          4.7681539141       -4.9309765723       -1.2261113801
 H          4.8311860729       -6.0735226233        1.9594731175
 C          5.1137475217       -5.7145378024       -0.1371664166
 H          5.1767241053       -5.1243840636       -2.2056833876
 H          5.8107447169       -6.5273051607       -0.2650939791
 H         -5.5867249914       -5.6613338158        1.0470092100
 H         -5.1007999776       -4.5628130706       -3.0673342379
 H          6.1501422355        4.9565386650        0.9923061347
 H          4.9621886125        4.8691098502       -3.1245421854
 Cl         2.9644011572       -4.1077630798        2.8127792835
 Cl         3.4088366564       -2.9239752137       -2.4105361724
 Cl        -3.7642643740        3.0760118473        2.6237490138
 Cl        -2.7354521846        3.9390829601       -2.5829339983
 Cl         4.2097954925        3.2418035319        2.1548827082
 Cl         2.7348195894        3.1252035325       -3.0097891865
 Cl        -3.7566679596       -3.8838159046        2.3024921504
 Cl        -3.1392688824       -2.5266557943       -2.8536746887
 Cl        -0.0033585318        0.2400696693        2.6527447640
  78
       -160.31089581
 N         -0.0729651282       -2.0310843617       -0.0197946771
 N         -1.9774590097        0.1218831829        0.0787923394
 C          2.2931825740       -2.5523816707        0.2734889489
 C          0.9649250787       -2.9067440357        0.1518580462
 C          0.4692005796       -4.2548237170        0.0636135016
 H          1.0737986691       -5.1345325300        0.1686673763
 C         -0.8565687923       -4.1700685132       -0.1976707099
 H         -1.5599029803       -4.9676497875       -0.3415226469
 C         -1.1912745271       -2.7708112403       -0.2325952381
 C         -2.4769598823       -2.2583838167       -0.3964581104
 C         -2.8267610742       -0.8981371939       -0.2544297237
 C         -4.1380351342       -0.3879440949       -0.4307152802
 H         -5.0003850253       -0.9548684317       -0.7204806017
 C         -4.0787433882        0.9592328033       -0.1672663029
 H         -4.8809023333        1.6704075162       -0.2057920325
 C         -2.7313590332        1.2539952373        0.1428210404
 C         -3.5655811063       -3.1949889142       -0.7394489801
 C         -4.6043052546       -3.4733001808        0.1513731759
 C         -5.6669642097       -4.2891807872       -0.2085504738
 C         -5.6993835750       -4.8514090473       -1.4738550118
 H         -6.5349803283       -5.4706599401       -1.7625565274
 C         -4.6686438405       -4.6193886369       -2.3689333499
 C         -3.6136166069       -3.8002473849       -1.9967566737
 N          0.1193146342        2.0555507011        0.0722461695
 N          2.0240320810       -0.1076921275        0.0294280230
 C         -2.2418323257        2.5748562580        0.3729115150
 C         -0.9080094796        2.9307834623        0.3061403904
 C         -0.3886271095        4.2732626644        0.3439163256
 H         -0.9647798441        5.1518336940        0.5591005166
 C          0.9292965741        4.1924843171        0.0422991408
 H          1.6342763626        4.9955372299       -0.0419766254
 C          1.2459070888        2.7969015710       -0.1000551577
 C          2.5164002623        2.2852347285       -0.3473362338
 C          2.8776127685        0.9275640111       -0.2311983278
 C          4.2103769946        0.4490299919       -0.2887970789
 H          5.0800552488        1.0493787872       -0.4724953005
 C          4.1578277940       -0.9025321693       -0.0421282247
 H          4.9765199604       -1.6006772226        0.0113927744
 C          2.7924916256       -1.2303841142        0.1247378160
 C          3.5632625406        3.2204944484       -0.8204200884
 C          4.2801629390        4.0666932702        0.0216497614
 C          5.2309182889        4.9435180926       -0.4792111154
 C          5.4738115747        4.9801399600       -1.8422288838
 H          6.2106998173        5.6630294221       -2.2364202573
 C          4.7831319271        4.1444939458       -2.7042762806
 C          3.8375877252        3.2750157664       -2.1877532026
 Fe         0.0272898299        0.0024842743        0.4261768533
 C         -3.2736998452        3.6056710052        0.5900591970
 C         -4.0746407742        3.5592603337        1.7353198767
 C         -3.5411956903        4.6113443587       -0.3406616352
 C         -5.0946593875        4.4726188488        1.9459725161
 C         -4.5552905457        5.5345429689       -0.1396819359
 H         -5.6965435591        4.4048842661        2.8380584388
 C         -5.3314815116        5.4595937880        1.0044493222
 H         -4.7374109285        6.2940149214       -0.8825749523
 H         -6.1292145095        6.1675420517        1.1610013379
 C          3.2962687847       -3.6235770567        0.4766339710
 C          3.6393096468       -4.0252584434        1.7656976156
 C          3.9347249558       -4.2420314179       -0.5952363636
 C          4.6005024291       -5.0009059413        1.9820741838
 C          4.8959942201       -5.2191005531       -0.3951795994
 H          4.8477390443       -5.2884666676        2.9908494679
 C          5.2281269117       -5.5886386514        0.8975223454
 H          5.3759107983       -5.6797896645       -1.2435678328
 H          5.9844800321       -6.3439592987        1.0590934564
 H         -6.4592084652       -4.4759615090        0.4979447079
 H         -4.6800640167       -5.0575783958       -3.3534997120
 H          5.7722227494        5.5897086857        0.1927072304
 H          4.9676658280        4.1670882116       -3.7662948422
 Cl         2.8407555780       -3.2733079691        3.1021713147
 Cl         3.5043627273       -3.7626702757       -2.1978343877
 Cl        -3.7676037777        2.3340636007        2.9130899854
 Cl        -2.6306368126        4.6716137358       -1.8095299554
 Cl         3.9749538426        3.9984598175        1.7224064684
 Cl         2.9536537082        2.2351334392       -3.2484219051
 Cl        -4.5449071180       -2.7949958069        1.7396687153
 Cl        -2.3443098579       -3.4830700962       -3.1257796536
 Cl         0.0583769670       -0.0364060887        2.5591853256
  78
       -160.31086167
 N         -0.1023226305       -2.0019744742       -0.0960533896
 N         -2.0010933515        0.0920147475        0.0174261712
 C          2.2816109841       -2.4350963155       -0.4947192166
 C          0.9327921761       -2.8205384884       -0.4563168207
 C          0.4401285724       -4.1344302263       -0.6787537555
 H          1.0288779922       -4.9771945422       -0.9859198363
 C         -0.9074948128       -4.0995859282       -0.4188943282
 H         -1.6107795275       -4.9069209082       -0.4846181588
 C         -1.2160167065       -2.7657337931       -0.0506395875
 C         -2.5251074919       -2.2840592091        0.2664813556
 C         -2.8702704103       -0.9451034112        0.2611383685
 C         -4.2084532958       -0.4249894011        0.3628840468
 H         -5.0765272815       -0.9993403272        0.6195925453
 C         -4.1425962765        0.8943833758        0.0613603274
 H         -4.9444773555        1.6055746174        0.0085954807
 C         -2.7572845702        1.2136643770       -0.1360803832
 C         -3.5397544601       -3.3097463749        0.5604303850
 C         -3.3794341498       -4.1258103519        1.6877754650
 C         -4.3051473472       -5.1003407792        2.0155859567
 C         -5.4212935813       -5.2769926092        1.2156294511
 H         -6.1511438092       -6.0293038148        1.4706229396
 C         -5.6002575484       -4.5001077414        0.0837730962
 C         -4.6595893009       -3.5364326503       -0.2415062777
 N          0.0938042481        2.0699475691        0.0216425612
 N          2.0053475649       -0.0382227498       -0.0251912860
 C         -2.2847311684        2.5029565769       -0.3948594181
 C         -0.9439673198        2.9029843918       -0.3004979782
 C         -0.4534453818        4.2270543686       -0.4581522504
 H         -1.0427182012        5.0833450206       -0.7221961704
 C          0.8937035830        4.1831434861       -0.1963456727
 H          1.5949830824        4.9947112672       -0.2160661512
 C          1.2088672339        2.8313356713        0.0906032301
 C          2.5253053046        2.3281688262        0.3253827080
 C          2.8729493889        0.9927059884        0.2336345341
 C          4.2188473486        0.4791073181        0.2784685949
 H          5.0914224808        1.0569424472        0.5116806719
 C          4.1512521715       -0.8351364717       -0.0401439512
 H          4.9541175886       -1.5419022620       -0.1302137132
 C          2.7621307308       -1.1587993262       -0.2099067596
 C          3.5722650443        3.3255856121        0.6161138055
 C          3.5432188050        4.0311565921        1.8219711168
 C          4.5239619431        4.9535179682        2.1450006391
 C          5.5553959545        5.1924919545        1.2531085507
 H          6.3263831375        5.9037397437        1.5030652589
 C          5.5998402660        4.5279014708        0.0396673550
 C          4.6111311250        3.6088598101       -0.2708606575
 Fe         0.0057816264        0.0211935109        0.3766907903
 C         -3.2803042810        3.5080147309       -0.8297306780
 C         -3.7586411122        4.5160835391        0.0040058736
 C         -3.7682622078        3.4573075288       -2.1362862501
 C         -4.6852519319        5.4435712182       -0.4465656618
 C         -4.6884224411        4.3802567540       -2.6031265737
 H         -5.0430771001        6.2103925428        0.2216975696
 C         -5.1427732642        5.3725022796       -1.7513776086
 H         -5.0388611550        4.3176087307       -3.6210012964
 H         -5.8607981096        6.0948888607       -2.1076674997
 C          3.2548624485       -3.5025139818       -0.8274009133
 C          3.8313952372       -4.2970921347        0.1608938815
 C          3.5749182842       -3.7718014403       -2.1556743970
 C          4.6938831609       -5.3319766910       -0.1628395269
 C          4.4344885533       -4.8041161617       -2.4954420411
 H          5.1216140046       -5.9352646525        0.6214036956
 C          4.9865947104       -5.5821185177       -1.4927725318
 H          4.6595812149       -4.9958099546       -3.5320846029
 H          5.6494395236       -6.3936825629       -1.7498936196
 H         -4.1484411879       -5.7104869364        2.8923048909
 H         -6.4580731182       -4.6438494402       -0.5530447668
 H          4.4769182198        5.4717916194        3.0890302519
 H          6.3906255465        4.7181343611       -0.6679238735
 Cl         3.4394865624       -3.9710887195        1.8102190570
 Cl         2.8699047292       -2.7954781150       -3.3890372634
 Cl        -3.1906016014        4.5808102644        1.6354490856
 Cl        -3.1887915457        2.2151741992       -3.1895443697
 Cl         2.2638774575        3.7107056089        2.9383308662
 Cl         4.6436893376        2.8231438882       -1.8112434756
 Cl        -2.0069217212       -3.8790557974        2.7074829533
 Cl        -4.8541485920       -2.6419194393       -1.7096076876
 Cl         0.0417448682       -0.0470323668        2.5090961881
  78
       -160.31082969
 N         -0.0662306837       -2.0451190513       -0.2151288767
 N         -1.9875900495        0.0922218273       -0.3049162406
 C          2.3131164160       -2.4902790248        0.2371370324
 C          0.9761698666       -2.8932680831       -0.0507422603
 C          0.5486544816       -4.2300068697       -0.2501828795
 H          1.1776072398       -5.0969774407       -0.1935595690
 C         -0.7944579057       -4.1752466150       -0.5354387608
 H         -1.4564458160       -4.9923180710       -0.7440984833
 C         -1.1670669973       -2.8061493171       -0.4885862608
 C         -2.4736919770       -2.3016260593       -0.6121599809
 C         -2.8371971317       -0.9613987770       -0.4792164728
 C         -4.1952055500       -0.5017251105       -0.3992167533
 H         -5.0614199704       -1.1257350136       -0.5102350042
 C         -4.1527836489        0.8255225464       -0.1255691330
 H         -4.9801390577        1.4930683492        0.0192177033
 C         -2.7673527956        1.2025762791       -0.0946970592
 C         -3.5708644018       -3.2840005951       -0.7699094919
 C         -4.0119326073       -4.0363705753        0.3191280888
 C         -5.0575902543       -4.9361001889        0.2000194432
 C         -5.6832085474       -5.0921302119       -1.0258365753
 H         -6.5043213739       -5.7857739183       -1.1239907197
 C         -5.2667063690       -4.3627002573       -2.1261040667
 C         -4.2152412755       -3.4692048658       -1.9902272944
 N          0.0981733915        2.0411714106       -0.2478205004
 N          2.0182871562       -0.0878386724       -0.1434537919
 C         -2.2982186795        2.4939458157        0.0721619819
 C         -0.9457019397        2.8905800794       -0.1298345559
 C         -0.5110914908        4.2262791744       -0.3189102843
 H         -1.1396568663        5.0944183344       -0.2850444793
 C          0.8373075442        4.1685800971       -0.5665856409
 H          1.5091973819        4.9823674508       -0.7575468402
 C          1.2078669494        2.7983887086       -0.4909984201
 C          2.5195058779        2.2955117148       -0.5058852165
 C          2.8742628646        0.9711993949       -0.2480686263
 C          4.2142364589        0.5324847878        0.0093236318
 H          5.0814395231        1.1715815412        0.0187726691
 C          4.1536544164       -0.7918082758        0.2948573672
 H          4.9582899505       -1.4448323439        0.5732653019
 C          2.7810830318       -1.1902754331        0.1525271168
 C          3.5973332391        3.2831523247       -0.7526921108
 C          4.2714809539        3.9185118682        0.2870477816
 C          5.2477700787        4.8703218855        0.0369326305
 C          5.5603422144        5.1977240024       -1.2712602591
 H          6.3168359620        5.9403652876       -1.4705366083
 C          4.9071773210        4.5826731650       -2.3260668197
 C          3.9325568148        3.6351964395       -2.0588954616
 Fe        -0.0004377714        0.0018182029        0.1477457539
 C         -3.2291206957        3.5501489382        0.5177751511
 C         -3.1438914559        3.9842667178        1.8437561557
 C         -4.1823372185        4.1406346258       -0.3056863994
 C         -3.9976204338        4.9565000965        2.3366537486
 C         -5.0408824496        5.1174699756        0.1740509364
 H         -3.9141567584        5.2645905761        3.3662244832
 C         -4.9467376159        5.5150942239        1.4970205045
 H         -5.7681666380        5.5641992915       -0.4831527854
 H         -5.6178471642        6.2706614935        1.8753940993
 C          3.2416424183       -3.5697007981        0.6282244794
 C          3.0910348483       -4.1852125879        1.8731518178
 C          4.2627642408       -4.0255785659       -0.2041779380
 C          3.9316388434       -5.2089935592        2.2781963348
 C          5.1096320808       -5.0496600399        0.1877378604
 H          3.7919171547       -5.6586291677        3.2476467466
 C          4.9390645736       -5.6361715819        1.4304452749
 H          5.8889520264       -5.3857943125       -0.4766177619
 H          5.5961668362       -6.4322648691        1.7421679675
 H         -5.3733470807       -5.5034026966        1.0600978239
 H         -5.7526592637       -4.4758271360       -3.0822002215
 H          5.7480199944        5.3505804693        0.8627151508
 H          5.1423782336        4.8342998030       -3.3480395561
 Cl         1.8407602977       -3.6244797305        2.9236459512
 Cl         4.4501841027       -3.3151703096       -1.7670382515
 Cl        -1.9603247881        3.2572063649        2.8719576129
 Cl        -4.2676620594        3.6565331023       -1.9648429805
 Cl         3.8498965861        3.5131156979        1.9149983855
 Cl         3.0961743466        2.8640011137       -3.3604162804
 Cl        -3.2443099541       -3.7946936298        1.8537183014
 Cl        -3.6744417885       -2.5601236363       -3.3605488203
 Cl        -0.1141337519        0.0125765474        2.2782962330
  78
       -160.31078829
 N         -0.0835455818       -2.0378761621       -0.0443437833
 N         -2.0129149363        0.0564986845        0.0588509733
 C          2.2912779870       -2.4444865500       -0.4717550638
 C          0.9662008246       -2.8567767983       -0.2755811943
 C          0.5377313057       -4.2274226354       -0.1958759862
 H          1.1735646016       -5.0795748326       -0.3394833926
 C         -0.7768766034       -4.2115953262        0.1365298290
 H         -1.4244325125       -5.0500213410        0.3040533826
 C         -1.1762465839       -2.8325185503        0.1954040357
 C         -2.4626257085       -2.3608846135        0.3634488743
 C         -2.8541890591       -1.0080695249        0.1573946154
 C         -4.1806200906       -0.6086045469       -0.1321440319
 H         -5.0372160590       -1.2542819809       -0.1273969710
 C         -4.1297112067        0.7242882706       -0.4546963689
 H         -4.9415962279        1.3536590673       -0.7620551811
 C         -2.7765058938        1.1343043625       -0.3041124742
 C         -3.5347490969       -3.3221029977        0.6986198185
 C         -4.0290668556       -3.3627835371        2.0029469091
 C         -5.0234890108       -4.2573082925        2.3654095591
 C         -5.5421087806       -5.1180451831        1.4133484329
 H         -6.3173747411       -5.8174001638        1.6893300074
 C         -5.0777505627       -5.0913121036        0.1078966179
 C         -4.0780122692       -4.1972538877       -0.2394280210
 N          0.0619646077        2.0293338282        0.0369152222
 N          1.9944383898       -0.0609584796        0.1005871579
 C         -2.3008904794        2.4489130916       -0.4641920717
 C         -0.9853835507        2.8520131382       -0.1916703282
 C         -0.5690467269        4.2195284053       -0.0371115893
 H         -1.2067059111        5.0725743765       -0.1507605147
 C          0.7405853602        4.1969334971        0.3151477711
 H          1.3742009074        5.0321657816        0.5433080450
 C          1.1489500423        2.8184488595        0.3148040579
 C          2.4430231099        2.3517222040        0.4529827198
 C          2.8362841797        1.0004526704        0.2405103265
 C          4.1689141813        0.5957437680       -0.0092698113
 H          5.0278261534        1.2362229601        0.0361222133
 C          4.1234465831       -0.7341550065       -0.3448349989
 H          4.9441987497       -1.3667557104       -0.6228805892
 C          2.7647715397       -1.1366656176       -0.2531041947
 C          3.5186560645        3.3318178706        0.7094646062
 C          4.1902914679        3.3393295786        1.9333220549
 C          5.1811198552        4.2702538967        2.2049627901
 C          5.5205057900        5.2077150509        1.2426987289
 H          6.2910861421        5.9315486571        1.4506322943
 C          4.8888168680        5.2081727586        0.0104017543
 C          3.8981941308        4.2735801813       -0.2499774952
 Fe        -0.0135189229       -0.0127254331        0.4423466761
 C         -3.2200059621        3.4821296162       -0.9826314402
 C         -4.3299898871        3.9527360055       -0.2759321201
 C         -2.9782368537        4.0332398664       -2.2472240621
 C         -5.1777970027        4.9099996543       -0.8156473378
 C         -3.8136961558        4.9916426989       -2.7968870305
 H         -6.0284564342        5.2534073140       -0.2466178825
 C         -4.9160702314        5.4242070744       -2.0766071432
 H         -3.5983865857        5.3917500408       -3.7768654830
 H         -5.5767892462        6.1664453576       -2.4989875776
 C          3.2398895397       -3.4744283731       -0.9409119775
 C          4.2750044084       -3.9698237656       -0.1476186938
 C          3.0983446057       -4.0054293406       -2.2259301722
 C          5.1469363265       -4.9387521034       -0.6208128439
 C          3.9615016220       -4.9743505892       -2.7091608614
 H          5.9349878179       -5.3008712856        0.0199497515
 C          4.9872644813       -5.4358159386       -1.9016813176
 H          3.8247070209       -5.3579870863       -3.7075106401
 H          5.6608348242       -6.1906322409       -2.2772945534
 H         -5.3809125773       -4.2756098690        3.3825142815
 H         -5.4863017994       -5.7556562769       -0.6369279914
 H          5.6771691422        4.2573300363        3.1639194996
 H          5.1587193301        5.9197838138       -0.7525133786
 Cl         4.4457917000       -3.3947858777        1.4706974192
 Cl         1.8248982715       -3.4229068788       -3.2347967604
 Cl        -4.6214742168        3.3617027588        1.3193273093
 Cl        -1.6133894635        3.4848805371       -3.1591881433
 Cl         3.7507257532        2.1708677920        3.1278806495
 Cl         3.1461483780        4.2452175214       -1.8036954564
 Cl        -3.3568234859       -2.2795822423        3.1687139794
 Cl        -3.5003812542       -4.1384320238       -1.8681683770
 Cl        -0.0385240631       -0.0737797944        2.5752601326
  78
       -160.31076669
 N         -0.0879757567       -2.0547717829       -0.2330493371
 N         -2.0329996761        0.0474409987       -0.1762642199
 C          2.2948422266       -2.4791189877       -0.5512070317
 C          0.9742672305       -2.8867543175       -0.3464530459
 C          0.5473789937       -4.2473709903       -0.1390087136
 H          1.1898961365       -5.1057324488       -0.1816278508
 C         -0.7748837570       -4.2091167916        0.1474401805
 H         -1.4352423728       -5.0250961276        0.3698080734
 C         -1.1810887104       -2.8285943692        0.0642589411
 C         -2.4715692302       -2.3609624551        0.1614363716
 C         -2.8672716167       -1.0241402723       -0.1528939327
 C         -4.1712644108       -0.6368643113       -0.5329568761
 H         -5.0219994465       -1.2854509884       -0.6021106698
 C         -4.1157614462        0.7056943022       -0.8202632441
 H         -4.9121626103        1.3269561622       -1.1800736095
 C         -2.7875333886        1.1298373686       -0.5508965248
 C         -3.5286427849       -3.2754477586        0.6492263993
 C         -3.7036829312       -3.4029838179        2.0275791891
 C         -4.6846324197       -4.2283532278        2.5525614639
 C         -5.5116998870       -4.9301104716        1.6933886091
 H         -6.2842044943       -5.5672721548        2.0958539071
 C         -5.3596768462       -4.8220209304        0.3213276742
 C         -4.3673981253       -4.0012671934       -0.1901705148
 N          0.0310713111        2.0281254489       -0.1213431168
 N          1.9679659412       -0.0683107027       -0.1144010630
 C         -2.3393559759        2.4641827825       -0.5474022783
 C         -1.0377936432        2.8513083127       -0.2027509938
 C         -0.6513223782        4.1884761301        0.1681635995
 H         -1.3173948261        5.0287146125        0.2142040069
 C          0.6626859489        4.1461797818        0.4889009979
 H          1.2820974961        4.9449066569        0.8481054595
 C          1.1082686362        2.7949048760        0.2527495828
 C          2.4086069311        2.3401697056        0.2850638893
 C          2.7958717434        1.0083070885       -0.0675651539
 C          4.1027465018        0.6351633531       -0.4534166842
 H          4.9432709184        1.2980547818       -0.5235479018
 C          4.0633829290       -0.7100888174       -0.7316944849
 H          4.8693064304       -1.3304004010       -1.0720399318
 C          2.7330758966       -1.1407095534       -0.4896224418
 C          3.4947589377        3.2631168072        0.6525453332
 C          4.2679347099        3.0110192794        1.7904888382
 C          5.2846193274        3.8674202246        2.1783341728
 C          5.5503399771        4.9972281869        1.4236881656
 H          6.3386454734        5.6686087206        1.7266648922
 C          4.8164155606        5.2653837821        0.2810816128
 C          3.8037431866        4.4005085962       -0.0976544399
 Fe        -0.0382657791       -0.0241303364        0.2330514796
 C         -3.2811514110        3.5357096786       -0.9164591185
 C         -4.4456271328        3.8110297036       -0.1938578625
 C         -3.0160502695        4.3323774194       -2.0358332981
 C         -5.3240838681        4.8059529427       -0.5931751623
 C         -3.8804434225        5.3356838625       -2.4381087913
 H         -6.2177765623        4.9861714250       -0.0172811069
 C         -5.0401076153        5.5615098881       -1.7173784635
 H         -3.6410980120        5.9252896253       -3.3084719098
 H         -5.7227015738        6.3357707679       -2.0303868373
 C          3.3160560224       -3.5187453959       -0.7804014189
 C          4.3288149927       -3.7642541073        0.1504835389
 C          3.3081531599       -4.2912473158       -1.9435076473
 C          5.2997651962       -4.7255282273       -0.0760530062
 C          4.2743257037       -5.2540410403       -2.1838205166
 H          6.0670050752       -4.8923371098        0.6625246859
 C          5.2709449372       -5.4636777054       -1.2469142813
 H          4.2422215671       -5.8249340192       -3.0976274662
 H          6.0305733857       -6.2084932450       -1.4268897958
 H         -4.7935980879       -4.3124163314        3.6214265692
 H         -6.0023565487       -5.3675759896       -0.3512877117
 H          5.8544391350        3.6467081534        3.0662029388
 H          5.0267890970        6.1342644193       -0.3195363077
 Cl         4.3455387964       -2.8717954464        1.6286755337
 Cl         2.0770941673       -4.0125107058       -3.1230186370
 Cl        -4.7704312387        2.9314605486        1.2568237892
 Cl        -1.5861532763        4.0395176981       -2.9633784816
 Cl         3.9145502485        1.6159443440        2.7471630124
 Cl         2.9395047575        4.7100279188       -1.5633184693
 Cl        -2.6624911428       -2.4985366067        3.0771699647
 Cl        -4.1471028853       -3.8710090507       -1.8988263298
 Cl        -0.0723733332       -0.0816143305        2.3652004516
  78
       -160.31075802
 N         -0.0886602709       -2.0653231792       -0.1421115365
 N         -2.0163763923        0.0560916499       -0.1235904987
 C          2.3087433569       -2.4911354642        0.2378497564
 C          0.9740785073       -2.8977744400       -0.0827223803
 C          0.5765932034       -4.2143490475       -0.4207260675
 H          1.2258083461       -5.0670080999       -0.4650240498
 C         -0.7688281520       -4.1624765023       -0.6939293776
 H         -1.4077176980       -4.9675728709       -0.9961984086
 C         -1.1773145603       -2.8165317426       -0.4846892284
 C         -2.4942235519       -2.3261836092       -0.5145642083
 C         -2.8552576923       -1.0068139243       -0.2199801676
 C         -4.1982050096       -0.5914558959        0.0968573485
 H         -5.0499588678       -1.2441610371        0.1074767527
 C         -4.1455988688        0.7225553068        0.4157577519
 H         -4.9475734296        1.3557176745        0.7414804582
 C         -2.7838467281        1.1501349570        0.2109720288
 C         -3.5742299525       -3.2736269921       -0.8600006966
 C         -3.9422752814       -4.3292242162       -0.0243426079
 C         -4.9211398963       -5.2336028115       -0.3946476359
 C         -5.5542153342       -5.0915838402       -1.6177824316
 H         -6.3045432728       -5.8066029819       -1.9188718729
 C         -5.2292870778       -4.0430282152       -2.4598252231
 C         -4.2512680659       -3.1423504515       -2.0737470707
 N          0.0518233659        2.0009941137       -0.2526805402
 N          1.9867656991       -0.1051818873       -0.2002280093
 C         -2.3277064679        2.4510345387        0.2185344593
 C         -1.0130541806        2.8311682763       -0.2051361610
 C         -0.6419760144        4.1176592138       -0.6608073301
 H         -1.2987841247        4.9612054609       -0.7456869497
 C          0.6951252761        4.0545241655       -0.9789315214
 H          1.3066137036        4.8394330629       -1.3786589713
 C          1.1232583443        2.7341130845       -0.6772424335
 C          2.4517492146        2.2668470776       -0.6532372713
 C          2.8232612144        0.9595279160       -0.3252016216
 C          4.1695945316        0.5543608943       -0.0064740680
 H          5.0183058427        1.2105321990       -0.0082862215
 C          4.1253573017       -0.7566132469        0.3243203488
 H          4.9333439833       -1.3846441623        0.6433323217
 C          2.7595251133       -1.1899409601        0.1519421007
 C          3.5119334914        3.2598267824       -0.9097588432
 C          3.6894528284        4.3659661912       -0.0724627953
 C          4.6388198219        5.3370000202       -0.3470169850
 C          5.4421808118        5.2103339918       -1.4668562631
 H          6.1764296881        5.9699284527       -1.6876692973
 C          5.3118122263        4.1124654575       -2.3005318509
 C          4.3561897642        3.1502406554       -2.0166670514
 Fe        -0.0073883152       -0.0206550183        0.2244332499
 C         -3.1783561271        3.5567905180        0.6953327432
 C         -2.7773387867        4.2502015237        1.8450377361
 C         -4.3446132633        3.9799704119        0.0603361309
 C         -3.5197728072        5.3025283134        2.3503006566
 C         -5.1002356751        5.0290201227        0.5604708230
 H         -3.1847977769        5.8126242042        3.2393381045
 C         -4.6859657689        5.6818538931        1.7078282493
 H         -6.0000395068        5.3256586306        0.0467604232
 H         -5.2758239007        6.4927866075        2.1033246781
 C          3.2257970336       -3.5551994549        0.6852947021
 C          2.9689965661       -4.2056186402        1.8959382375
 C          4.3524617698       -3.9546879042       -0.0365846136
 C          3.8123453366       -5.1904877664        2.3821169674
 C          5.2079015943       -4.9347095912        0.4399042141
 H          3.5884951364       -5.6635044528        3.3246596344
 C          4.9356869215       -5.5448075570        1.6528633842
 H          6.0723177921       -5.2192394176       -0.1401944739
 H          5.5968132226       -6.3068426651        2.0328681428
 H         -5.1836439260       -6.0406212009        0.2716056355
 H         -5.7174931280       -3.9225708502       -3.4135459601
 H          4.7426767110        6.1817672161        0.3157152001
 H          5.9378979494        3.9986337112       -3.1705816696
 Cl         1.5836251881       -3.7293919461        2.8194600677
 Cl         4.6652865901       -3.2339171867       -1.5774783157
 Cl        -1.3386013776        3.7526525101        2.6621057596
 Cl        -4.8325816360        3.2153624004       -1.4134949028
 Cl         2.7304635402        4.5074364434        1.3570019868
 Cl         4.1810839100        1.7940690173       -3.0753193711
 Cl        -3.1643321600       -4.4876086791        1.5103732884
 Cl        -3.8318268783       -1.8406961535       -3.1283827412
 Cl         0.0463604129        0.0418392371        2.3563275382
  78
       -160.31066381
 N         -0.0895071183       -2.0315965000       -0.2857478224
 N         -2.0197955270        0.1025339278       -0.2379564863
 C          2.2844603791       -2.4959305933        0.1341244649
 C          0.9557638190       -2.8922120733       -0.1849184342
 C          0.5328332848       -4.2039863143       -0.4981536800
 H          1.1545526304       -5.0773346581       -0.5090919559
 C         -0.8061411683       -4.1219609246       -0.8006396911
 H         -1.4520035924       -4.9176536235       -1.1136365949
 C         -1.1839719296       -2.7662469080       -0.6224669723
 C         -2.5086187638       -2.2706783432       -0.6456568420
 C         -2.8711836917       -0.9469570803       -0.4150249993
 C         -4.2286819732       -0.4980268522       -0.2402861759
 H         -5.0951285059       -1.1246886895       -0.3269560335
 C         -4.1773900059        0.8172442192        0.0737705741
 H         -4.9941051373        1.4766355322        0.2954585435
 C         -2.7910475429        1.2058627998        0.0400688264
 C         -3.5682583599       -3.2908090063       -0.7930470928
 C         -3.7898512335       -4.2260940554        0.2203463082
 C         -4.7225642986       -5.2400892729        0.0770381857
 C         -5.4585451436       -5.3283521502       -1.0917810946
 H         -6.1750683548       -6.1251401094       -1.2132626328
 C         -5.2793771046       -4.4022798091       -2.1050817162
 C         -4.3423222192       -3.3938638231       -1.9481751557
 N          0.0708720918        2.0477340993       -0.1649125844
 N          1.9832367149       -0.0871786027       -0.1901268919
 C         -2.3242958899        2.4971789242        0.1889311033
 C         -0.9725255240        2.9016904140       -0.0210233249
 C         -0.5326480237        4.2346779508       -0.1943139073
 H         -1.1522194397        5.1082926642       -0.1413610218
 C          0.8159527682        4.1738406348       -0.4569872252
 H          1.4845109969        4.9895428375       -0.6527233809
 C          1.1778635267        2.8042229547       -0.4148280864
 C          2.4877902188        2.2932008553       -0.5266687419
 C          2.8401788710        0.9565458056       -0.3685759315
 C          4.1971782858        0.4880933988       -0.2507494437
 H          5.0688305272        1.1042622142       -0.3656626975
 C          4.1399285186       -0.8268465242        0.0551556077
 H          4.9517272391       -1.5065558606        0.2278180623
 C          2.7490872395       -1.1980178671        0.0536990834
 C          3.5890053546        3.2642801333       -0.7147720502
 C          4.0632407322        4.0265549022        0.3517523003
 C          5.1189414654        4.9104501226        0.1906412719
 C          5.7078554734        5.0467667812       -1.0545315361
 H          6.5303369338        5.7337858850       -1.1838600163
 C          5.2525581203        4.3091972445       -2.1344779984
 C          4.2031077646        3.4232795426       -1.9552565432
 Fe        -0.0231625515       -0.0019613444        0.1654967044
 C         -3.2584845520        3.5820015390        0.5528056021
 C         -3.1791966685        4.1509154650        1.8251865686
 C         -4.1941741018        4.1060413156       -0.3372174053
 C         -4.0000895821        5.2029759990        2.1995661774
 C         -5.0209365042        5.1591003951        0.0231819758
 H         -3.9166678692        5.6171137476        3.1912759161
 C         -4.9173886262        5.7042281085        1.2915079267
 H         -5.7312445869        5.5465388154       -0.6889985677
 H         -5.5599019583        6.5285390964        1.5770924852
 C          3.2218232460       -3.5476158208        0.5858404541
 C          3.3999682275       -3.7300388404        1.9571578217
 C          3.9379847643       -4.3638812913       -0.2831249323
 C          4.2621368968       -4.6958990749        2.4477885060
 C          4.8045958754       -5.3352497913        0.1922522625
 H          4.3811621145       -4.8146095611        3.5120296118
 C          4.9602484369       -5.4949812193        1.5585832507
 H          5.3499100280       -5.9527653066       -0.5025631722
 H          5.6352621279       -6.2478952438        1.9348932993
 H         -4.8624923479       -5.9505498751        0.8754574111
 H         -5.8518440072       -4.4629577375       -3.0166111800
 H          5.4758718163        5.4779457417        1.0355176281
 H          5.7061827539        4.4127434423       -3.1068639769
 Cl         2.5162546265       -2.7096479990        3.0424662398
 Cl         3.7458012848       -4.1319830830       -1.9844779748
 Cl        -2.0409073765        3.4927666532        2.9501345816
 Cl        -4.2939304385        3.4473278766       -1.9307552987
 Cl         3.3279447961        3.8278409202        1.9004987405
 Cl         3.6238967201        2.4889181828       -3.2876490216
 Cl        -2.8892276006       -4.0958467328        1.6884937391
 Cl        -4.0975931333       -2.2484717345       -3.2178581033
 Cl        -0.0556259736       -0.0710513381        2.2986558570
  78
       -160.31061213
 N         -0.0582821456       -2.0085824313       -0.1612968295
 N         -1.9723791191        0.0992156666       -0.1059939918
 C          2.3354937323       -2.4517019685        0.2361007365
 C          1.0053106835       -2.8446776139       -0.1141288485
 C          0.6205898944       -4.1455464098       -0.5135536746
 H          1.2745380026       -4.9929382410       -0.5865302070
 C         -0.7223119512       -4.0856260165       -0.8044787735
 H         -1.3511858413       -4.8765182351       -1.1625602346
 C         -1.1370707901       -2.7522451798       -0.5461228684
 C         -2.4590677718       -2.2678080577       -0.5680485326
 C         -2.8190835333       -0.9485855561       -0.2735026422
 C         -4.1757844222       -0.5126565229       -0.0419743751
 H         -5.0397960892       -1.1464385675       -0.0959395895
 C         -4.1248301323        0.7972096097        0.2859762299
 H         -4.9330116752        1.4455529103        0.5468808442
 C         -2.7417506119        1.1969485455        0.2014493294
 C         -3.5547308761       -3.2106657335       -0.8623927176
 C         -3.8676807801       -4.2730279918       -0.0119630507
 C         -4.9221821883       -5.1314611601       -0.2789105802
 C         -5.6924582861       -4.9324455450       -1.4115041233
 H         -6.5258125747       -5.5841576656       -1.6178692607
 C         -5.4079790171       -3.8916565296       -2.2792220208
 C         -4.3459331556       -3.0480183149       -2.0027007580
 N          0.1029877739        2.0647129505       -0.1000264464
 N          2.0241799786       -0.0584887540       -0.1281224151
 C         -2.2882162061        2.4955521505        0.2822864594
 C         -0.9577225356        2.9060317669       -0.0236392799
 C         -0.5614976913        4.2216448064       -0.3626115652
 H         -1.2034211889        5.0810272177       -0.3945614753
 C          0.7784596920        4.1616474119       -0.6648900240
 H          1.4127901773        4.9628508193       -0.9890727307
 C          1.1844778961        2.8138602617       -0.4660014164
 C          2.4994147787        2.3211585885       -0.5414467286
 C          2.8649440994        0.9980336351       -0.2687993718
 C          4.2183389853        0.5734372900       -0.0183038826
 H          5.0737846683        1.2194514184       -0.0537181278
 C          4.1725420239       -0.7384884707        0.3099920303
 H          4.9875131134       -1.3743136291        0.5932816967
 C          2.7975034642       -1.1541270020        0.1792646911
 C          3.5913243487        3.2480575565       -0.8960781945
 C          3.9960366994        4.2939239570       -0.0659059491
 C          5.0507498784        5.1250201033       -0.4092137623
 C          5.7240484166        4.9207181580       -1.6009999106
 H          6.5492067613        5.5604195859       -1.8728208026
 C          5.3453789905        3.8947040861       -2.4490710594
 C          4.2889968640        3.0725791073       -2.0933881459
 Fe         0.0272276999        0.0212010244        0.2833670544
 C         -3.2727006516        3.5319533618        0.6616922612
 C         -3.4042562604        3.8964432678        2.0005952003
 C         -4.1313046450        4.1113114063       -0.2663296016
 C         -4.3797411063        4.7936661381        2.4059313575
 C         -5.1090694567        5.0123671903        0.1218107399
 H         -4.4739942256        5.0439736239        3.4483446663
 C         -5.2322138632        5.3400526465        1.4613561305
 H         -5.7705372652        5.4392551908       -0.6148285335
 H         -6.0064617237        6.0269260527        1.7747066115
 C          3.2363335559       -3.5360434364        0.6679853424
 C          2.9837997559       -4.1768598656        1.8830393266
 C          4.3349685621       -3.9640258892       -0.0753124499
 C          3.8085291597       -5.1844646348        2.3546298339
 C          5.1674141985       -4.9715303042        0.3836571023
 H          3.5878588324       -5.6471212059        3.3020165078
 C          4.9047321889       -5.5724996570        1.6030057145
 H          6.0095088955       -5.2802388838       -0.2139195816
 H          5.5574608561       -6.3522047299        1.9633922426
 H         -5.1365227208       -5.9385707596        0.4030944322
 H         -5.9998303747       -3.7322503542       -3.1658232172
 H          5.3377918179        5.9140031495        0.2654423878
 H          5.8589512728        3.7222166499       -3.3804459839
 Cl         1.6211294368       -3.6738261568        2.8193148155
 Cl         4.6356191918       -3.2514759691       -1.6234067686
 Cl        -2.3396139590        3.1750751231        3.1541533780
 Cl        -3.9584913527        3.6791590011       -1.9339695174
 Cl         3.1925802617        4.5262010055        1.4481821497
 Cl         3.8073978744        1.8021894448       -3.1633115123
 Cl        -2.9468513931       -4.4957236068        1.4354395647
 Cl        -3.9754375849       -1.7662107437       -3.1003178118
 Cl         0.0400462146       -0.0295948851        2.4163761041
  78
       -160.31057272
 N         -0.0521720672       -2.0665520278        0.0797722020
 N         -1.9748134802        0.0538156335        0.1822651054
 C          2.3662030412       -2.5140228827        0.3286372021
 C          1.0121685813       -2.9010301969        0.0918909298
 C          0.6109889238       -4.2054162879       -0.2931613235
 H          1.2580718795       -5.0571796795       -0.3789312410
 C         -0.7313799160       -4.1398893804       -0.5666293623
 H         -1.3661746467       -4.9294377575       -0.9154680722
 C         -1.1418656100       -2.8041747205       -0.2962672093
 C         -2.4525917956       -2.3058299455       -0.3475865829
 C         -2.8139225788       -0.9963187009        0.0095033201
 C         -4.1686469957       -0.5795858068        0.2438526583
 H         -5.0251974518       -1.2236006484        0.2073682132
 C         -4.1313016352        0.7392952445        0.5502020163
 H         -4.9492925316        1.3825148366        0.8087790456
 C         -2.7591053939        1.1553830236        0.4453457220
 C         -3.5338634799       -3.1641932248       -0.8660037304
 C         -3.9540248712       -4.3443752932       -0.2479089854
 C         -4.9608838465       -5.1289687731       -0.7891354386
 C         -5.5824059600       -4.7331372996       -1.9607661878
 H         -6.3691723906       -5.3391844457       -2.3825531417
 C         -5.2041531403       -3.5589977068       -2.5913063502
 C         -4.1906164306       -2.7917704286       -2.0454591646
 N          0.0756890847        2.0103603009        0.0621658841
 N          2.0195800410       -0.1168962100       -0.0022019107
 C         -2.3181057551        2.4637289705        0.4379927823
 C         -0.9812100031        2.8546268541        0.1441615036
 C         -0.5816895012        4.1692281439       -0.2125889766
 H         -1.2239384292        5.0283857928       -0.2447275643
 C          0.7524097078        4.1065098526       -0.5196989004
 H          1.3905370374        4.9051744825       -0.8480137017
 C          1.1541069361        2.7540308634       -0.3269527116
 C          2.4594458785        2.2592407513       -0.4630896188
 C          2.8488946432        0.9383708368       -0.2209010436
 C          4.2165192100        0.5127194304       -0.1089434961
 H          5.0688758292        1.1502901919       -0.2361479790
 C          4.1979017065       -0.8024868168        0.2163201724
 H          5.0333000632       -1.4453075491        0.4120496311
 C          2.8193058134       -1.2133098674        0.2283949412
 C          3.5007613454        3.2193109661       -0.8899894880
 C          3.9871512650        4.2105987743       -0.0373226957
 C          4.9249657474        5.1350267882       -0.4673160684
 C          5.3838232178        5.0833391068       -1.7736613230
 H          6.1042898438        5.8080793910       -2.1182719948
 C          4.9275743255        4.1058511043       -2.6405048959
 C          3.9986222934        3.1811118802       -2.1916918289
 Fe         0.0398234709       -0.0271470996        0.4868125154
 C         -3.2983372265        3.5531554818        0.6118306194
 C         -3.2279485066        4.3975714293        1.7219272167
 C         -4.3005653884        3.8045968858       -0.3270560543
 C         -4.1253932999        5.4367150531        1.9015204385
 C         -5.2043207026        4.8414704309       -0.1611006174
 H         -4.0451082201        6.0684188526        2.7711745923
 C         -5.1135200312        5.6534882797        0.9564673511
 H         -5.9676458802        5.0111127192       -0.9086156249
 H         -5.8192439566        6.4602458276        1.0888473888
 C          3.3140802231       -3.6066033267        0.6165587951
 C          3.2085533994       -4.3028276773        1.8231623410
 C          4.3129593153       -4.0060198283       -0.2719452726
 C          4.0750052624       -5.3338770765        2.1453765431
 C          5.1886408833       -5.0336112557        0.0383859682
 H          3.9680404250       -5.8455529244        3.0876866701
 C          5.0687900915       -5.6911168382        1.2505310546
 H          5.9504547436       -5.3147818277       -0.6703537265
 H          5.7501468862       -6.4907006187        1.4956475322
 H         -5.2563925745       -6.0367088834       -0.2866904603
 H         -5.6855442500       -3.2402543098       -3.5020026470
 H          5.2825569137        5.8837200760        0.2204221959
 H          5.2798140146        4.0558875918       -3.6585297544
 Cl         1.9735297512       -3.8364746562        2.9404736433
 Cl         4.4291088616       -3.2355093268       -1.8160237249
 Cl        -1.9986053561        4.1127631384        2.9006939266
 Cl        -4.3916567611        2.8279275474       -1.7532890574
 Cl         3.4074225836        4.2591602682        1.5906511347
 Cl         3.4136521055        1.9608480113       -3.2690255880
 Cl        -3.2387012614       -4.8115610130        1.2561058719
 Cl        -3.7033114987       -1.3455158203       -2.8641469990
 Cl         0.1879558270       -0.0069285113        2.6150885548
  78
       -160.31056759
 N         -0.0685580888       -2.1033086264       -0.2687446030
 N         -2.0150782826        0.0190514914       -0.2050996693
 C          2.3284103294       -2.5337489769       -0.4122996027
 C          0.9995780079       -2.9364667572       -0.2587614349
 C          0.5587426809       -4.2919624738       -0.0369156250
 H          1.2066634375       -5.1451962165        0.0219803867
 C         -0.7849125859       -4.2532166895        0.1085331227
 H         -1.4626266707       -5.0653914004        0.2884947612
 C         -1.1841828471       -2.8771104584       -0.0519316459
 C         -2.4740774709       -2.4084467940       -0.0565142962
 C         -2.8401279869       -1.0540126955       -0.3312494303
 C         -4.1260987605       -0.6420662376       -0.7443584985
 H         -4.9585099393       -1.2900998114       -0.9344826325
 C         -4.0767430362        0.7241343813       -0.8803164206
 H         -4.8624878209        1.3782237910       -1.2029014436
 C         -2.7696527667        1.1261572154       -0.5012302450
 C         -3.5908295630       -3.2947712002        0.3443460650
 C         -3.9299508841       -3.3412962579        1.6971459113
 C         -5.0062381612       -4.0909862913        2.1424544822
 C         -5.7642427026       -4.7982224239        1.2256076427
 H         -6.6129921221       -5.3718967004        1.5641723964
 C         -5.4466480826       -4.7745457858       -0.1216997082
 C         -4.3612303873       -4.0273590270       -0.5520644608
 N          0.0367565918        1.9881522855       -0.0165071660
 N          1.9857823644       -0.1024576131       -0.1026137856
 C         -2.3370213708        2.4563044846       -0.3602586551
 C         -1.0342179506        2.8131959597        0.0061762444
 C         -0.6319411365        4.1254826449        0.4427827967
 H         -1.2978766009        4.9537484795        0.5891142143
 C          0.7020240249        4.0762362015        0.6596311360
 H          1.3421419521        4.8567800651        1.0225035241
 C          1.1331215902        2.7438747685        0.3140834981
 C          2.4388684541        2.3159996754        0.1976893475
 C          2.8102233074        0.9827551634       -0.1485787224
 C          4.1027508328        0.5967510489       -0.5698560332
 H          4.9327872594        1.2600552764       -0.7167578454
 C          4.0681289010       -0.7637081869       -0.7541166543
 H          4.8646169661       -1.4017004042       -1.0845043877
 C          2.7510507967       -1.1876283641       -0.4373272552
 C          3.5056327221        3.3151783189        0.3848017030
 C          4.4495837431        3.1899232916        1.4076417688
 C          5.4057559882        4.1660801746        1.6344393370
 C          5.4331927546        5.2971405477        0.8339160481
 H          6.1643141669        6.0672117254        1.0199310083
 C          4.5304619469        5.4391131208       -0.2047459479
 C          3.5856349672        4.4511451078       -0.4281817398
 Fe        -0.0254961928       -0.0796820873        0.2347044586
 C         -3.2698147098        3.5629318540       -0.6323433550
 C         -4.4355543871        3.7803328673        0.1067933973
 C         -2.9804967488        4.4737974987       -1.6548620998
 C         -5.2757577652        4.8483325498       -0.1656065201
 C         -3.8042091090        5.5518829818       -1.9278674133
 H         -6.1681519959        4.9858181936        0.4237959751
 C         -4.9543836117        5.7338093321       -1.1799996288
 H         -3.5415497599        6.2345264129       -2.7194392658
 H         -5.6014394372        6.5719486441       -1.3854602219
 C          3.3701808404       -3.5719101106       -0.5075417389
 C          4.3705295634       -3.6849780503        0.4635088374
 C          3.4028370826       -4.4798411768       -1.5688620544
 C          5.3580582450       -4.6519284147        0.3766619055
 C          4.3838195572       -5.4517490454       -1.6670030878
 H          6.1124996256       -4.7115494085        1.1444336831
 C          5.3621990292       -5.5322744621       -0.6910770440
 H          4.3798087282       -6.1321875994       -2.5036577052
 H          6.1308136689       -6.2856652423       -0.7633927289
 H         -5.2464010920       -4.1074297156        3.1927923329
 H         -6.0379187161       -5.3235093390       -0.8373177598
 H          6.1119436707        4.0415417075        2.4394695735
 H          4.5502332409        6.3067997725       -0.8434309421
 Cl         4.3522718084       -2.6205128785        1.8242036851
 Cl         2.2064172088       -4.3628167558       -2.8138404598
 Cl        -4.8086770839        2.7313513360        1.4263710917
 Cl        -1.5694408537        4.2365946260       -2.6269062691
 Cl         4.3866094276        1.8051926680        2.4411442863
 Cl         2.5095427488        4.6198149801       -1.7707009152
 Cl        -2.9757516489       -2.4238171186        2.8123707139
 Cl        -3.9476479412       -3.9859550531       -2.2297017504
 Cl        -0.0798571880       -0.2279145691        2.3624543028
  78
       -160.31056668
 N         -0.0525327621       -2.1020991673        0.0573139158
 N         -1.9693373317        0.0218980396        0.2031909019
 C          2.3709031953       -2.5478775601        0.1708115712
 C          1.0102310886       -2.9397921414       -0.0008788872
 C          0.5835684658       -4.2480731630       -0.3364421034
 H          1.2224174106       -5.1019231311       -0.4521768311
 C         -0.7771623909       -4.1867590387       -0.5053170952
 H         -1.4353644646       -4.9835139693       -0.7900063613
 C         -1.1648205931       -2.8480165505       -0.2254516976
 C         -2.4783994414       -2.3551095322       -0.1700437024
 C         -2.8124279230       -1.0403353034        0.1842434745
 C         -4.1387703231       -0.6182398280        0.5465560850
 H         -4.9796318093       -1.2749265071        0.6512871747
 C         -4.0856340719        0.7174837877        0.7623573776
 H         -4.8753990664        1.3694624751        1.0791209474
 C         -2.7394611032        1.1340488999        0.4651366074
 C         -3.5941830956       -3.2199747731       -0.5969755748
 C         -3.9811435769       -4.3809874075        0.0728038613
 C         -5.0185016924       -5.1730097439       -0.3938692795
 C         -5.6978938154       -4.8061649911       -1.5425353026
 H         -6.5040063043       -5.4210496282       -1.9101775923
 C         -5.3521622381       -3.6501872375       -2.2207335709
 C         -4.3117925633       -2.8707804324       -1.7468326704
 N          0.0679183231        1.9614441393       -0.0975675272
 N          2.0312940176       -0.1370084653       -0.0908388088
 C         -2.3233204459        2.4345844464        0.2741272305
 C         -1.0070765749        2.7850868237       -0.1519871891
 C         -0.6314916513        4.0425061427       -0.6825061449
 H         -1.2929528721        4.8661008502       -0.8669997296
 C          0.7194152884        3.9815271543       -0.9160495321
 H          1.3483724916        4.7457032492       -1.3287337770
 C          1.1442443403        2.6851798247       -0.5192531924
 C          2.4815391657        2.2423480680       -0.4777970601
 C          2.8720117425        0.9258532533       -0.2318554053
 C          4.2363079805        0.4884325281       -0.0916755662
 H          5.0941398224        1.1294648145       -0.1490456713
 C          4.2057829971       -0.8458742139        0.1310189830
 H          5.0326058556       -1.5120954938        0.2854786760
 C          2.8217521719       -1.2468522667        0.1041165503
 C          3.4974150707        3.2985345086       -0.6477721784
 C          3.5876983349        4.3361023105        0.2863748834
 C          4.4606563303        5.3954571215        0.1091947248
 C          5.2698466685        5.4319971699       -1.0137157501
 H          5.9425478028        6.2627647971       -1.1627489307
 C          5.2196889421        4.4105124142       -1.9460166831
 C          4.3394064235        3.3572813229       -1.7581516005
 Fe         0.0573028218       -0.0542551038        0.4230892865
 C         -3.2699883796        3.5544677084        0.4092900799
 C         -3.0264059753        4.5705571794        1.3400870152
 C         -4.3882214608        3.6935617137       -0.4156644834
 C         -3.8580953178        5.6721568172        1.4459503086
 C         -5.2340884539        4.7851299323       -0.3123460474
 H         -3.6345416638        6.4401000390        2.1688596820
 C         -4.9636962343        5.7735936371        0.6184431012
 H         -6.0869497029        4.8593459159       -0.9670481656
 H         -5.6136918545        6.6311892817        0.6937803968
 C          3.3386995567       -3.6474175815        0.3702583663
 C          3.3783782648       -4.3194421630        1.5925837933
 C          4.2023474599       -4.0746784804       -0.6366924257
 C          4.2543099237       -5.3706651735        1.8098561438
 C          5.0772630600       -5.1302481048       -0.4364716522
 H          4.2671690791       -5.8654646342        2.7674314355
 C          5.0994811214       -5.7721633091        0.7898716887
 H          5.7260800626       -5.4452746059       -1.2376750407
 H          5.7786355569       -6.5947600415        0.9498495067
 H         -5.2910019690       -6.0656694888        0.1455423274
 H         -5.8772609722       -3.3499237909       -3.1133180514
 H          4.4974416665        6.1820124627        0.8454928671
 H          5.8475417575        4.4308990954       -2.8221351875
 Cl         2.3148661650       -3.8003942276        2.8507666844
 Cl         4.1495510943       -3.2843211170       -2.1724035464
 Cl        -1.6625467731        4.4315776226        2.3906506947
 Cl        -4.6995499452        2.5109208954       -1.6401680732
 Cl         2.5993006216        4.2829833826        1.7023271390
 Cl         4.2475317760        2.1053850235       -2.9457865342
 Cl        -3.1780561807       -4.8116786819        1.5400870327
 Cl        -3.8715958668       -1.4452722961       -2.6199054396
 Cl         0.2350415929        0.0167220923        2.5477518312
  78
       -160.31056250
 N         -0.1061082450       -2.0338018697       -0.2575204774
 N         -1.9888968796        0.1192762653       -0.1760126847
 C          2.2069160450       -2.5548465252        0.2793390379
 C          0.8895489212       -2.9119706224        0.0951101502
 C          0.3379422152       -4.2414042006        0.1747698128
 H          0.8867514715       -5.1198669418        0.4514906617
 C         -0.9610621708       -4.1512370779       -0.1929773271
 H         -1.6895673389       -4.9351352744       -0.2641704020
 C         -1.2384848299       -2.7555238690       -0.4230953649
 C         -2.5132190467       -2.2351296145       -0.6691489799
 C         -2.8517882305       -0.8744862413       -0.5575446097
 C         -4.1485024805       -0.3242664678       -0.7384567140
 H         -5.0149098209       -0.8660704869       -1.0644805720
 C         -4.0638899975        1.0079253082       -0.4135378337
 H         -4.8465141827        1.7414511111       -0.4299473570
 C         -2.7139537933        1.2579808387       -0.0746310366
 C         -3.5808231102       -3.1951220159       -1.0111922498
 C         -4.6450207347       -3.4644538893       -0.1482267148
 C         -5.6351482015       -4.3717063369       -0.4867530778
 C         -5.5731656964       -5.0317835810       -1.7012030904
 H         -6.3441570520       -5.7384236542       -1.9687108406
 C         -4.5312316604       -4.7863056850       -2.5781606348
 C         -3.5486880465       -3.8757905980       -2.2283868049
 N          0.1239092829        2.0301033273       -0.2634998893
 N          2.0089994216       -0.1218899509       -0.1549598741
 C         -2.1939439309        2.5527705078        0.2508502223
 C         -0.8719032730        2.9074503725        0.0884919825
 C         -0.3170895322        4.2343407787        0.1866642334
 H         -0.8630649766        5.1106472496        0.4746908468
 C          0.9837238113        4.1434599156       -0.1747555814
 H          1.7103578805        4.9309492344       -0.2320983690
 C          1.2591357299        2.7504323775       -0.4181146670
 C          2.5340467988        2.2284848220       -0.6656439943
 C          2.8717667417        0.8675136376       -0.5460292446
 C          4.1678543580        0.3148046201       -0.7226004729
 H          5.0339504522        0.8486169437       -1.0619855830
 C          4.0835977992       -1.0142929716       -0.3787731973
 H          4.8705074052       -1.7413103179       -0.3782652492
 C          2.7340689924       -1.2611891057       -0.0410403110
 C          3.5873805201        3.1969675920       -1.0230727995
 C          4.6822570858        3.4627289256       -0.1975233039
 C          5.6394504907        4.4017325827       -0.5487517922
 C          5.5123606719        5.1007206192       -1.7385415977
 H          6.2533247983        5.8362870111       -2.0118073405
 C          4.4382674300        4.8639992092       -2.5784423105
 C          3.4902204810        3.9212944574       -2.2174787347
 Fe         0.0080803268       -0.0008813339        0.1915345218
 C         -3.1608343438        3.5135370452        0.8121250726
 C         -3.6899395009        3.2497307113        2.0799880611
 C         -3.5832099767        4.6714520518        0.1609935121
 C         -4.5814872183        4.1171794566        2.6837089662
 C         -4.4751469275        5.5481968184        0.7559908245
 H         -4.9631983606        3.8873569350        3.6652162115
 C         -4.9664446269        5.2688606315        2.0189226244
 H         -4.7822036201        6.4358785315        0.2277555234
 H         -5.6582810944        5.9512960480        2.4857758701
 C          3.1590840662       -3.5293302805        0.8468942148
 C          3.6277067179       -3.3139190878        2.1471268866
 C          3.6120123728       -4.6593566243        0.1703765623
 C          4.4916761714       -4.2060968095        2.7599162049
 C          4.4825795145       -5.5557149720        0.7679321357
 H          4.8225660967       -4.0203007080        3.7684586044
 C          4.9111807584       -5.3286255254        2.0670066670
 H          4.8202464172       -6.4192456076        0.2182418329
 H          5.5774465820       -6.0320198972        2.5385106126
 H         -6.4428658537       -4.5605718219        0.2011507689
 H         -4.4777570231       -5.2896404764       -3.5310181529
 H          6.4680808330        4.5855957934        0.1157034889
 H          4.3291506787        5.4056908611       -3.5059992906
 Cl         3.0784718143       -1.9105451298        2.9978168286
 Cl         3.1124798058       -4.9222742173       -1.4611061087
 Cl        -3.1752161058        1.8252143594        2.9133475189
 Cl        -3.0125276570        4.9943067466       -1.4388695136
 Cl         4.8149536730        2.6409444230        1.3200145173
 Cl         2.1581329439        3.6146979275       -3.2753721535
 Cl        -4.7000102259       -2.6784093283        1.3884327170
 Cl        -2.2562085900       -3.5571052487       -3.3283469526
 Cl         0.0092132744        0.0173968288        2.3260136257
  78
       -160.31056092
 N         -0.0623814403       -2.0767879722       -0.4012001126
 N         -1.9965491255        0.0351284484       -0.3651600542
 C          2.3402099538       -2.5221808539       -0.4611565374
 C          1.0043598064       -2.9166206936       -0.3957154377
 C          0.5541776881       -4.2762063397       -0.2309555640
 H          1.1960380661       -5.1352158595       -0.2047917535
 C         -0.7902124077       -4.2334253487       -0.0906969225
 H         -1.4743863890       -5.0469110647        0.0558587546
 C         -1.1793516661       -2.8504273266       -0.2071825772
 C         -2.4708567164       -2.3811328658       -0.1696121269
 C         -2.8421539863       -1.0248003938       -0.4269121703
 C         -4.1515466083       -0.5969167117       -0.7409999641
 H         -5.0058943265       -1.2346635940       -0.8641873940
 C         -4.0965510435        0.7701050343       -0.8714146319
 H         -4.8965123963        1.4421591513       -1.1142747722
 C         -2.7569420639        1.1508087633       -0.6066462884
 C         -3.5624501961       -3.2572424711        0.3110764571
 C         -3.7682656813       -3.3250006691        1.6908230309
 C         -4.8146529484       -4.0568082756        2.2254865429
 C         -5.6746026147       -4.7307306667        1.3755818145
 H         -6.5000978625       -5.2904086802        1.7859036283
 C         -5.4875060310       -4.6899424075        0.0049149097
 C         -4.4327590373       -3.9565974538       -0.5164958023
 N          0.0711348295        2.0171126728       -0.1751602361
 N          2.0109393235       -0.0874168859       -0.1655971563
 C         -2.3099068667        2.4757732928       -0.4880947323
 C         -1.0027709317        2.8500138576       -0.1959827566
 C         -0.5935569448        4.1828988461        0.1542199234
 H         -1.2540446723        5.0249264761        0.2285882011
 C          0.7349823379        4.1338891420        0.4013575284
 H          1.3735331999        4.9304205776        0.7295396465
 C          1.1609352192        2.7793338532        0.1469534035
 C          2.4675161822        2.3298428522        0.1532285090
 C          2.8509555979        0.9820172151       -0.1269941392
 C          4.1743315371        0.5742339408       -0.4101782644
 H          5.0268003796        1.2224717895       -0.4681872272
 C          4.1371196982       -0.7865891568       -0.5980149516
 H          4.9537185455       -1.4395160766       -0.8377388790
 C          2.7881148751       -1.1866415655       -0.4264391650
 C          3.5343812078        3.3047692957        0.4321379432
 C          4.3666246394        3.1643253008        1.5467835209
 C          5.3266214442        4.1121175072        1.8613682329
 C          5.4714350409        5.2303068745        1.0595744589
 H          6.2016824226        5.9815738521        1.3124133909
 C          4.6823980644        5.3886396207       -0.0667486996
 C          3.7357871061        4.4271146398       -0.3775701417
 Fe        -0.0110070354       -0.0504133349        0.0924495709
 C         -3.3181788885        3.5528378546       -0.6160485038
 C         -4.1387999184        3.9000651836        0.4549876635
 C         -3.4640898274        4.2564783787       -1.8086999657
 C         -5.0714721782        4.9186913408        0.3446571932
 C         -4.3975903962        5.2718329839       -1.9375245956
 H         -5.6873177344        5.1725381858        1.1920418802
 C         -5.1959328648        5.5984752051       -0.8549056014
 H         -4.4918989353        5.7960322081       -2.8745692519
 H         -5.9212400392        6.3916750015       -0.9468480014
 C          3.3661187053       -3.5842978041       -0.4715282701
 C          4.1886516935       -3.7938049162        0.6377010960
 C          3.5300525028       -4.4320424532       -1.5676529789
 C          5.1295410001       -4.8100564860        0.6558018816
 C          4.4700466793       -5.4487641244       -1.5647762189
 H          5.7385489926       -4.9539891479        1.5335028706
 C          5.2652485363       -5.6351629255       -0.4470880666
 H          4.5716740235       -6.0851730336       -2.4292201575
 H          5.9957610877       -6.4297383405       -0.4360029147
 H         -4.9519249238       -4.0849937487        3.2939725342
 H         -6.1553552279       -5.2139410872       -0.6595083174
 H          5.9444484338        3.9744758872        2.7339821566
 H          4.7947935737        6.2500557484       -0.7065667566
 Cl         3.9959056193       -2.7856344572        2.0266071696
 Cl         2.5436092781       -4.1867831992       -2.9645915687
 Cl        -3.9596125056        3.0411698337        1.9427476160
 Cl        -2.4540456648        3.8335497257       -3.1437867541
 Cl         4.1527995807        1.7976976013        2.5854894808
 Cl         2.8052619100        4.6109273908       -1.8245581287
 Cl        -2.6928030169       -2.4506727021        2.7279061691
 Cl        -4.1841064463       -3.8944444181       -2.2257186411
 Cl        -0.1019223813       -0.1693961896        2.2207175245
  78
       -160.31055433
 N         -0.0855767084       -2.0475088098        0.0965641243
 N         -2.0321745357        0.0778790760        0.0861578737
 C          2.3066763904       -2.5163414861        0.3659499591
 C          0.9831757281       -2.8899328289        0.1062199012
 C          0.5547754516       -4.2191588116       -0.2141590124
 H          1.1982053796       -5.0761144563       -0.2696672852
 C         -0.7836701792       -4.1610116883       -0.4344337166
 H         -1.4433117780       -4.9581008353       -0.7176363740
 C         -1.1854038881       -2.7988313754       -0.2120317431
 C         -2.4887063254       -2.3257126563       -0.2617249870
 C         -2.8735985230       -0.9837654834       -0.0007390214
 C         -4.2169550033       -0.5592984017        0.1892355460
 H         -5.0762449467       -1.2030225087        0.1997289708
 C         -4.1817098542        0.7958177177        0.3781703994
 H         -5.0069145739        1.4547608985        0.5679222263
 C         -2.8170446315        1.1908594353        0.2662447661
 C         -3.5706298039       -3.2567447179       -0.6428074720
 C         -3.9832816678       -4.3065830656        0.1788031727
 C         -4.9995343093       -5.1666228242       -0.2081569937
 C         -5.6197005067       -4.9854863619       -1.4319731030
 H         -6.4091026463       -5.6548384737       -1.7364788460
 C         -5.2370167397       -3.9502425482       -2.2678284991
 C         -4.2236419553       -3.0960805230       -1.8670290604
 N          0.0509395713        2.0340371618        0.0858634265
 N          1.9815566182       -0.0805677550        0.2900146953
 C         -2.3558618117        2.5103064599        0.2064398412
 C         -1.0140404348        2.8739170998        0.0102613530
 C         -0.5724989245        4.1865825693       -0.3571281949
 H         -1.2102145724        5.0370889420       -0.4976407777
 C          0.7745251084        4.1220817104       -0.5135475794
 H          1.4406780986        4.9070059681       -0.8147302019
 C          1.1682294136        2.7758005651       -0.1922791722
 C          2.4715769651        2.3061948974       -0.1280746464
 C          2.8308436844        0.9734128184        0.2211777923
 C          4.1635619191        0.5448580822        0.4715152602
 H          5.0225711121        1.1859531319        0.5159005854
 C          4.1177707140       -0.8121418000        0.6435838463
 H          4.9320301318       -1.4836697742        0.8302845829
 C          2.7558672006       -1.1979718309        0.4972587594
 C          3.5821723208        3.1916080779       -0.5268095034
 C          3.9212828862        4.3571383376        0.1643022997
 C          4.9705247541        5.1660707530       -0.2486072659
 C          5.7114036173        4.8110572364       -1.3649676850
 H          6.5303901751        5.4390689005       -1.6924491319
 C          5.4053419105        3.6598082810       -2.0705976962
 C          4.3521978232        2.8651812167       -1.6516258631
 Fe        -0.0422810399       -0.0044937091        0.5178632747
 C         -3.3455593989        3.6035509983        0.2694446730
 C         -3.3414734627        4.4972080096        1.3435859399
 C         -4.2946031608        3.8009288879       -0.7351284206
 C         -4.2546688064        5.5359436147        1.4232911844
 C         -5.2114081636        4.8367023319       -0.6674971704
 H         -4.2261601039        6.2049660346        2.2683813313
 C         -5.1890794649        5.6987212740        0.4154557405
 H         -5.9293059149        4.9638636575       -1.4618232739
 H         -5.9039637388        6.5047915560        0.4705706918
 C          3.3497081786       -3.5688936873        0.3276724934
 C          3.9060212670       -4.1096194672        1.4860604114
 C          3.8410872909       -4.0078675037       -0.9021548565
 C          4.9210075098       -5.0555497159        1.4218047333
 C          4.8539505096       -4.9518496868       -0.9819323630
 H          5.3400521248       -5.4531134862        2.3339580829
 C          5.3894886827       -5.4718693442        0.1870543244
 H          5.2173201408       -5.2665668834       -1.9482106764
 H          6.1868312548       -6.1996196743        0.1323807820
 H         -5.2990163350       -5.9658831675        0.4510655979
 H         -5.7137496448       -3.8024173247       -3.2238537921
 H          5.2012732396        6.0623293683        0.3042641252
 H          5.9744033961        3.3749042541       -2.9411057903
 Cl         3.3097684600       -3.5732804138        3.0155353381
 Cl         3.1860620531       -3.3248158660       -2.3458155126
 Cl        -2.1833979694        4.2759050983        2.6062918674
 Cl        -4.2979133233        2.7562018349       -2.1126342320
 Cl         3.0437000885        4.7720260846        1.5965883405
 Cl         3.9505355724        1.4595310941       -2.5685978134
 Cl        -3.2289995253       -4.5060044041        1.7186466242
 Cl        -3.7279290138       -1.8144741986       -2.9128679090
 Cl        -0.1684989236       -0.0039013403        2.6476731719
  78
       -160.31052547
 N         -0.0830866869       -2.0165879474       -0.0138932393
 N         -1.9918027732        0.1251202514        0.0699628154
 C          2.2744422545       -2.5301813172        0.3380995730
 C          0.9485810813       -2.8914360542        0.2010588548
 C          0.4481290144       -4.2393678747        0.1353237536
 H          1.0457334459       -5.1188582957        0.2786704500
 C         -0.8704533584       -4.1546479106       -0.1647634230
 H         -1.5769206185       -4.9514256989       -0.2927788783
 C         -1.1973521819       -2.7550266501       -0.2350503867
 C         -2.4831805191       -2.2449420585       -0.4241062831
 C         -2.8480598486       -0.8959174672       -0.2420365994
 C         -4.1715548111       -0.3936307288       -0.3310971677
 H         -5.0439386091       -0.9692019522       -0.5777137214
 C         -4.1096954755        0.9463062823       -0.0341911111
 H         -4.9191744305        1.6493736314       -0.0053834299
 C         -2.7467505990        1.2489117654        0.1938845801
 C         -3.5493727111       -3.1767131649       -0.8475945574
 C         -4.5802850785       -3.5684196053        0.0049565574
 C         -5.6065505705       -4.3914966675       -0.4318410625
 C         -5.6111541359       -4.8364381488       -1.7425537097
 H         -6.4138062474       -5.4668211587       -2.0922020745
 C         -4.5945193148       -4.4763713439       -2.6101489199
 C         -3.5729008710       -3.6573551938       -2.1579596435
 N          0.1063350291        2.0627804555       -0.0102031723
 N          2.0103844733       -0.0923590928        0.0210985645
 C         -2.2466401129        2.5722730493        0.3744251341
 C         -0.9281165772        2.9389542826        0.1909028037
 C         -0.4344814209        4.2855405672        0.0836189796
 H         -1.0274153655        5.1699093316        0.2121942965
 C          0.8765479216        4.1993064810       -0.2497203231
 H          1.5611213839        5.0036393170       -0.4393172594
 C          1.2173482146        2.8017143225       -0.2655529216
 C          2.4994406358        2.2852467391       -0.4549684370
 C          2.8669805192        0.9383636488       -0.2534684856
 C          4.2024768208        0.4607517845       -0.2501344269
 H          5.0777492326        1.0568627878       -0.4233271078
 C          4.1448758694       -0.8814100415        0.0364492069
 H          4.9589458157       -1.5758623014        0.1290623966
 C          2.7751028004       -1.2083437420        0.1749383024
 C          3.5686679611        3.1969446312       -0.9243535105
 C          4.1996519844        4.1206344387       -0.0936917848
 C          5.2014090262        4.9520912188       -0.5695102867
 C          5.5867049056        4.8664636015       -1.8961421342
 H          6.3643818652        5.5124092600       -2.2717010730
 C          4.9808112537        3.9562538973       -2.7451796757
 C          3.9855669714        3.1289014073       -2.2551308091
 Fe         0.0144335469        0.0222258765        0.4061881258
 C         -3.2760170308        3.5852614380        0.6898347685
 C         -3.8253206384        3.6123841221        1.9731629540
 C         -3.7881242194        4.4692168147       -0.2568819999
 C         -4.8468024365        4.4882799265        2.3018026931
 C         -4.8175023141        5.3454748450        0.0558082370
 H         -5.2501921894        4.4845290000        3.3013783322
 C         -5.3429186264        5.3486409178        1.3356429868
 H         -5.2042183162        6.0047944500       -0.7055434205
 H         -6.1489581685        6.0236396427        1.5816106987
 C          3.2713270794       -3.5965613532        0.5844668830
 C          3.5028228086       -4.0489910433        1.8814285954
 C          4.0097211141       -4.1636213855       -0.4518527195
 C          4.4438030336       -5.0330500214        2.1408400550
 C          4.9553860491       -5.1458934777       -0.2056036352
 H          4.6026858909       -5.3625341968        3.1551508873
 C          5.1669497952       -5.5756348533        1.0932607434
 H          5.5156526478       -5.5647313690       -1.0262396996
 H          5.9053127318       -6.3383282988        1.2898119402
 H         -6.3912759728       -4.6749080948        0.2506116373
 H         -4.5925373147       -4.8157077844       -3.6342830310
 H          5.6762070445        5.6540955652        0.0976439739
 H          5.2785889172        3.8823906706       -3.7793878330
 Cl         2.5958173683       -3.3461578059        3.1738094731
 Cl         3.7295381209       -3.6206777046       -2.0641721857
 Cl        -3.1977032554        2.5201311936        3.1592589727
 Cl        -3.1552584469        4.4334674768       -1.8625902124
 Cl         3.7266123202        4.2005454140        1.5668925184
 Cl         3.2211580659        1.9918369472       -3.3062173561
 Cl        -4.5606415907       -3.0211806162        1.6436783907
 Cl        -2.3168728812       -3.1805131916       -3.2413223428
 Cl         0.0433877368        0.0074421121        2.5407209977
  78
       -160.31052153
 N         -0.0770494149       -2.0246418950       -0.3293879448
 N         -2.0236460537        0.0899602958       -0.3149656859
 C          2.3039252198       -2.4641265347        0.1154267225
 C          0.9815643816       -2.8600768258       -0.2662074844
 C          0.5824727111       -4.1777128998       -0.6017094192
 H          1.2300534319       -5.0316247768       -0.6513524705
 C         -0.7684284472       -4.1303284011       -0.8460948463
 H         -1.4169797218       -4.9380965634       -1.1253470000
 C         -1.1707069404       -2.7817852283       -0.6483259508
 C         -2.4897320838       -2.3032037943       -0.6344183078
 C         -2.8609773438       -0.9822450963       -0.3866396434
 C         -4.2101852139       -0.5618991360       -0.1144099485
 H         -5.0612942186       -1.2145488802       -0.1054451706
 C         -4.1665037517        0.7607653347        0.1659634041
 H         -4.9771178439        1.4047015153        0.4443851882
 C         -2.7986167455        1.1838344565       -0.0074841712
 C         -3.5677939611       -3.3125309856       -0.7638374319
 C         -3.9736051901       -4.0550397309        0.3439253824
 C         -4.9751161486       -5.0067386590        0.2441042388
 C         -5.5783636747       -5.2306320866       -0.9819131971
 H         -6.3561533855       -5.9733069184       -1.0670386602
 C         -5.1932836571       -4.5109151791       -2.0996735685
 C         -4.1952796265       -3.5565275589       -1.9819244975
 N          0.0603232401        2.0481135903       -0.2978920718
 N          1.9882586488       -0.0602488312       -0.2163947520
 C         -2.3406818147        2.4831247965        0.0551065945
 C         -1.0063306194        2.8742060758       -0.2974676049
 C         -0.6140535738        4.1766480707       -0.6869972118
 H         -1.2702111658        5.0192062562       -0.7882998829
 C          0.7407470781        4.1278989744       -0.9128321057
 H          1.3789506869        4.9257698006       -1.2392725437
 C          1.1552084346        2.7989968661       -0.6273440732
 C          2.4774281269        2.3293654222       -0.5501587591
 C          2.8274851128        1.0094354247       -0.2437412614
 C          4.1534472314        0.5944749618        0.1324473786
 H          4.9976673685        1.2517456883        0.2154383456
 C          4.0973278410       -0.7310402024        0.3949445739
 H          4.8866514184       -1.3719429638        0.7355172803
 C          2.7471892993       -1.1582726117        0.1215240734
 C          3.5686505085        3.3016100407       -0.7460354724
 C          3.7534634530        4.3890987156        0.1114330798
 C          4.7663344064        5.3104113413       -0.0970436727
 C          5.6242632004        5.1524771859       -1.1717340578
 H          6.4118326261        5.8698167913       -1.3380924845
 C          5.4793832979        4.0763174878       -2.0298476873
 C          4.4610702256        3.1642094633       -1.8121278956
 Fe        -0.0263646017        0.0093307167        0.1017158900
 C         -3.1964519010        3.5552998032        0.5935905741
 C         -2.8347505038        4.1249119792        1.8200450761
 C         -4.3446342334        4.0404236510       -0.0305562681
 C         -3.6007809595        5.1136098380        2.4122653554
 C         -5.1197176019        5.0306035869        0.5523927188
 H         -3.2989529430        5.5204106883        3.3637278889
 C         -4.7470045474        5.5588204428        1.7761059624
 H         -6.0040468971        5.3836564867        0.0464322156
 H         -5.3514879704        6.3248353671        2.2360543405
 C          3.1970392486       -3.5440713815        0.5712298568
 C          2.8659637802       -4.2477907707        1.7352844318
 C          4.3684805772       -3.9071457063       -0.0935403508
 C          3.6794530360       -5.2563480800        2.2227627034
 C          5.1939542453       -4.9086993589        0.3910108531
 H          3.3973252606       -5.7757649421        3.1243631444
 C          4.8462493692       -5.5781797904        1.5514080558
 H          6.0964277598       -5.1593213988       -0.1429443309
 H          5.4869089059       -6.3572026434        1.9338222883
 H         -5.2734890378       -5.5613678746        1.1188226279
 H         -5.6588038433       -4.6841499844       -3.0566483623
 H          4.8799037562        6.1394184003        0.5825163617
 H          6.1488574423        3.9418771012       -2.8661246125
 Cl         1.4340257366       -3.8132687877        2.5936419335
 Cl         4.7781736232       -3.1167885481       -1.5767565476
 Cl        -1.4210983349        3.5424835764        2.6252984458
 Cl        -4.7837185432        3.4218431860       -1.5833305211
 Cl         2.7248603280        4.5624231022        1.4918199471
 Cl         4.2731742244        1.8355766260       -2.9013761901
 Cl        -3.2037048761       -3.7567998624        1.8617300633
 Cl        -3.7000782648       -2.6460305288       -3.3629662608
 Cl        -0.0865205951       -0.0201723013        2.2342233930
  78
       -160.31048622
 N         -0.0586446926       -2.0446207536        0.1003737694
 N         -2.0057159781        0.0610316846        0.1882516589
 C          2.3564894495       -2.4864472572        0.3629073959
 C          1.0157524003       -2.8662027401        0.0422505226
 C          0.6279435160       -4.1435812666       -0.4332003502
 H          1.2847704253       -4.9770352469       -0.5896198351
 C         -0.7225472234       -4.0832405967       -0.6675488007
 H         -1.3539741064       -4.8597809179       -1.0514173214
 C         -1.1447650130       -2.7752408465       -0.3045879237
 C         -2.4666116392       -2.3027460976       -0.2910130652
 C         -2.8381307539       -1.0044529972        0.0849585881
 C         -4.1849442489       -0.5988985013        0.3850002028
 H         -5.0280049819       -1.2628629672        0.4090085749
 C         -4.1513463927        0.7271000253        0.6554846710
 H         -4.9631912662        1.3634062253        0.9489511077
 C         -2.7908552011        1.1595370341        0.4536037330
 C         -3.5394647561       -3.1843973358       -0.7879021606
 C         -3.8945564465       -4.3875339051       -0.1760902764
 C         -4.8706324637       -5.2125755204       -0.7134024641
 C         -5.5211941570       -4.8372098451       -1.8753633056
 H         -6.2768915589       -5.4794769663       -2.3026117541
 C         -5.2104976592       -3.6385478208       -2.4945538752
 C         -4.2308343842       -2.8270807140       -1.9512719516
 N          0.0504483441        2.0151269319        0.0674735426
 N          1.9995248503       -0.0816809368        0.1589619549
 C         -2.3627536732        2.4661472781        0.3505555105
 C         -1.0274743528        2.8297094477       -0.0139287520
 C         -0.6537432171        4.0826075049       -0.5590983400
 H         -1.3187622735        4.9011067567       -0.7478811118
 C          0.6944556493        4.0180413075       -0.8049394995
 H          1.3153743598        4.7753007500       -1.2412642349
 C          1.1278702581        2.7323167573       -0.3796277608
 C          2.4559869840        2.2766409198       -0.3418690445
 C          2.8317333415        0.9855824166        0.0516143290
 C          4.1775131640        0.5834544324        0.3590296686
 H          5.0184376278        1.2498448648        0.3867656997
 C          4.1458548139       -0.7420506729        0.6303925680
 H          4.9572426601       -1.3784131635        0.9248995961
 C          2.7841238803       -1.1766033036        0.4338216310
 C          3.5190899799        3.1857078078       -0.8063052938
 C          3.7976604243        4.4063350681       -0.1866564666
 C          4.7552647374        5.2717657713       -0.6891487292
 C          5.4669268811        4.9222538287       -1.8240219409
 H          6.2068538887        5.5969614273       -2.2244322499
 C          5.2342115773        3.7087481878       -2.4466189915
 C          4.2700588726        2.8549423412       -1.9394292529
 Fe        -0.0003746865       -0.0109372325        0.5481603595
 C         -3.3169402045        3.5739451423        0.5244926515
 C         -3.1155858314        4.5154234372        1.5394568776
 C         -4.4202018113        3.7571755344       -0.3130386498
 C         -3.9868420110        5.5741498037        1.7298636751
 C         -5.3027635751        4.8076366069       -0.1271232155
 H         -3.8004909317        6.2790423200        2.5241286914
 C         -5.0846796300        5.7119408535        0.8982822539
 H         -6.1465206138        4.9165979125       -0.7896248726
 H         -5.7699124938        6.5316412444        1.0446750979
 C          3.3334411513       -3.5769827890        0.5278690256
 C          3.1937008670       -4.4978210442        1.5691400853
 C          4.4147574241       -3.7478843280       -0.3413392009
 C          4.1025439130       -5.5270563870        1.7552845476
 C          5.3342046138       -4.7673700177       -0.1613795733
 H          3.9631288192       -6.2153066005        2.5733104147
 C          5.1765507602       -5.6521441048        0.8925121068
 H          6.1598161851       -4.8660096943       -0.8465486943
 H          5.8929790695       -6.4461066094        1.0351894718
 H         -5.1157076712       -6.1391832167       -0.2199473289
 H         -5.7149043704       -3.3330152545       -3.3971963295
 H          4.9394795526        6.2105699304       -0.1913204324
 H          5.7867391786        3.4234114377       -3.3277291310
 Cl         1.8698993395       -4.3236309418        2.6647652886
 Cl         4.5855909889       -2.6986944559       -1.7062705180
 Cl        -1.7593904716        4.3270707205        2.5920351658
 Cl        -4.6634542041        2.6866692271       -1.6504111035
 Cl         2.9551127448        4.8265315728        1.2620787792
 Cl         3.9635235172        1.3639901713       -2.7560406071
 Cl        -3.1284306334       -4.8368310404        1.3059908381
 Cl        -3.8301702882       -1.3501914833       -2.7576277774
 Cl         0.0197492668       -0.0051308210        2.6811011974
  78
       -160.31045844
 N         -0.0933770523       -2.0664583161        0.1336682008
 N         -1.9951056892        0.0425431037        0.0526073722
 C          2.2886784652       -2.5016667769       -0.2733107739
 C          0.9463405597       -2.9034263660       -0.1654441603
 C          0.4637575989       -4.2302884817       -0.3027180721
 H          1.0594249209       -5.0894954205       -0.5412106050
 C         -0.8879722882       -4.1853345639       -0.0576499449
 H         -1.5845769298       -5.0007618312       -0.0722821359
 C         -1.2090927418       -2.8308871531        0.1976613328
 C         -2.5333423444       -2.3246413148        0.3760256005
 C         -2.8733304808       -0.9910832509        0.2688789424
 C         -4.2218652825       -0.4814605104        0.2357775284
 H         -5.1015160028       -1.0674250456        0.4181692598
 C         -4.1414400115        0.8301431907       -0.0856854869
 H         -4.9406574310        1.5321802336       -0.2249871625
 C         -2.7441642377        1.1567852138       -0.1836560303
 C         -3.5979950582       -3.3290021246        0.5683182924
 C         -3.6821664286       -4.0424986126        1.7653012471
 C         -4.6697645793       -4.9916011249        1.9733775420
 C         -5.5898152321       -5.2464237627        0.9711400389
 H         -6.3625507579       -5.9833682609        1.1279887547
 C         -5.5224824604       -4.5679156223       -0.2337576125
 C         -4.5305025364       -3.6210420975       -0.4278514722
 N          0.1172845769        2.0031280854       -0.0164966262
 N          2.0111731891       -0.0947507536        0.1445842738
 C         -2.2594112503        2.4311981538       -0.4626198395
 C         -0.9114226724        2.8209285081       -0.3940849683
 C         -0.4192301944        4.1318719685       -0.6178589069
 H         -1.0032930347        4.9734759016       -0.9358796370
 C          0.9277445826        4.0985800128       -0.3455186182
 H          1.6300924955        4.9063794593       -0.4117570117
 C          1.2323769275        2.7685798524        0.0285160110
 C          2.5440240835        2.2841141735        0.3331887434
 C          2.8834255228        0.9478503305        0.3492758105
 C          4.2286536408        0.4317144049        0.4156422732
 H          5.1003615163        1.0193881316        0.6277781296
 C          4.1574955902       -0.8898042801        0.1349807867
 H          4.9583374594       -1.6011954147        0.0706196489
 C          2.7639416355       -1.2153938271       -0.0198061518
 C          3.5726231388        3.3224539561        0.5319875463
 C          3.5022653326        4.1568547111        1.6511114794
 C          4.4142435080        5.1789413794        1.8514575370
 C          5.4199989659        5.3839491634        0.9228029143
 H          6.1310498794        6.1816059375        1.0688532113
 C          5.5147244079        4.5770499124       -0.1978658756
 C          4.5935464740        3.5600923125       -0.3885435688
 Fe        -0.0004823163       -0.0155186397        0.4784419313
 C         -3.2284915146        3.4857387240       -0.8460774479
 C         -3.8259993387        4.3068389009        0.1067940911
 C         -3.5316244041        3.7081956158       -2.1870869196
 C         -4.6988408483        5.3179451752       -0.2627456862
 C         -4.3965478768        4.7181349886       -2.5726284158
 H         -5.1490594061        5.9389068237        0.4943157085
 C         -4.9755049075        5.5199631511       -1.6036355740
 H         -4.6068610218        4.8731548702       -3.6186242659
 H         -5.6463764333        6.3104363965       -1.8957433006
 C          3.2615749508       -3.5002792983       -0.7730780383
 C          3.8140423735       -4.5061042267        0.0135989881
 C          3.6314990536       -3.4461637800       -2.1175998706
 C          4.7046098706       -5.4266835674       -0.5174456415
 C          4.5162861483       -4.3591366895       -2.6641474886
 H          5.1198106639       -6.1949562029        0.1145347495
 C          5.0495785082       -5.3482922084       -1.8557373661
 H          4.7760402571       -4.2914780855       -3.7083095170
 H          5.7393109642       -6.0643373601       -2.2741866662
 H         -4.7126858304       -5.5208332016        2.9116984564
 H         -6.2276067964       -4.7716162660       -1.0235167937
 H          4.3290094572        5.8052220846        2.7248027519
 H          6.2890854899        4.7378030885       -0.9305164161
 Cl         3.3785038387       -4.5855959074        1.6845157493
 Cl         2.9450965204       -2.2098628169       -3.1142575210
 Cl        -3.4510135549        4.0420138825        1.7702164419
 Cl        -2.7956541161        2.6972163981       -3.3767583211
 Cl         2.2494206341        3.8825750266        2.8079654164
 Cl         4.6803703492        2.5999423702       -1.8232039441
 Cl        -2.5341592401       -3.7034344908        3.0102974193
 Cl        -4.4205120556       -2.8084613843       -1.9491861272
 Cl        -0.0546925238        0.0686463273        2.6096704068
  78
       -160.31043070
 N         -0.1005049133       -2.0655049418       -0.1058159089
 N         -2.0301031731        0.0528591247       -0.1044834164
 C          2.3011374968       -2.4858054608        0.2486958667
 C          0.9632888529       -2.8963017467       -0.0552319777
 C          0.5660597592       -4.2137617151       -0.3867101385
 H          1.2141600656       -5.0670217978       -0.4358169805
 C         -0.7824604919       -4.1646825623       -0.6478138755
 H         -1.4203105950       -4.9744594761       -0.9440426878
 C         -1.1901341796       -2.8194580329       -0.4420816323
 C         -2.5067862165       -2.3293779497       -0.4761152713
 C         -2.8717371242       -1.0090919696       -0.1943116310
 C         -4.2153978847       -0.5874808327        0.1021297364
 H         -5.0682566521       -1.2389866807        0.1115755697
 C         -4.1615169450        0.7302082639        0.4088569980
 H         -4.9646181885        1.3711629283        0.7151224056
 C         -2.7979994418        1.1521776079        0.2112917876
 C         -3.5723890380       -3.2873202397       -0.8391166926
 C         -3.9700269988       -4.3250407769        0.0031540706
 C         -4.9228134963       -5.2494760129       -0.3943706895
 C         -5.4880656049       -5.1492862543       -1.6538127505
 H         -6.2179869226       -5.8770829879       -1.9722338680
 C         -5.1254254003       -4.1220322499       -2.5074519730
 C         -4.1814294803       -3.1987830075       -2.0917031344
 N          0.0359573704        1.9971955904       -0.2792485866
 N          1.9723421494       -0.1044377517       -0.2047339108
 C         -2.3403788290        2.4526163328        0.2016010959
 C         -1.0284610501        2.8264574226       -0.2405012640
 C         -0.6605230362        4.1096783763       -0.7100454950
 H         -1.3199699420        4.9503098624       -0.8035221433
 C          0.6761770969        4.0452969911       -1.0224323744
 H          1.2914384084        4.8252557369       -1.4266338924
 C          1.1070545181        2.7282337943       -0.7073122092
 C          2.4363425149        2.2645075598       -0.6792739242
 C          2.8084138259        0.9587298519       -0.3457878105
 C          4.1574620462        0.5553736685       -0.0410102853
 H          5.0082176337        1.2089001687       -0.0588462319
 C          4.1164364991       -0.7525621602        0.2999579820
 H          4.9269485295       -1.3795078075        0.6167631699
 C          2.7496141325       -1.1860246083        0.1485582968
 C          3.4971588741        3.2601477068       -0.9196843727
 C          3.6579435668        4.3618555025       -0.0727237398
 C          4.6178038395        5.3287104124       -0.3192853289
 C          5.4491430904        5.2024383477       -1.4186674944
 H          6.1943933156        5.9569431399       -1.6160838413
 C          5.3341954003        4.1107224877       -2.2617146369
 C          4.3658317005        3.1537597784       -2.0075574883
 Fe        -0.0188996760       -0.0160820865        0.2331680512
 C         -3.1699095349        3.5677408752        0.6915079055
 C         -2.7433481466        4.2427252613        1.8419741694
 C         -4.3290527326        4.0257842413        0.0672598695
 C         -3.4490952949        5.3170494850        2.3544633536
 C         -5.0481343455        5.0964303676        0.5755795949
 H         -3.0889953749        5.8104512821        3.2417983513
 C         -4.6041182205        5.7381674062        1.7189340174
 H         -5.9414959416        5.4252249104        0.0693570246
 H         -5.1594106629        6.5739307141        2.1143932066
 C          3.2213413034       -3.5520152880        0.6843250869
 C          2.9870796625       -4.1929721660        1.9044952505
 C          4.3209763062       -3.9686242288       -0.0661865883
 C          3.8299298675       -5.1877790405        2.3711383684
 C          5.1706655948       -4.9634282252        0.3895527378
 H          3.6275442033       -5.6546525980        3.3213384264
 C          4.9236597833       -5.5649770482        1.6116031267
 H          6.0125299174       -5.2618352705       -0.2142296159
 H          5.5866866862       -6.3361878424        1.9710036543
 H         -5.2129821372       -6.0395405872        0.2796117813
 H         -5.5602618819       -4.0336072814       -3.4901422554
 H          4.7101045366        6.1687805207        0.3501409287
 H          5.9835682694        3.9994774874       -3.1150388686
 Cl         1.6346743523       -3.6987162763        2.8567107202
 Cl         4.6031171796       -3.2562609346       -1.6156130119
 Cl        -1.3158775600        3.6936027335        2.6480840753
 Cl        -4.8483078256        3.2776965049       -1.4051167553
 Cl         2.6704253078        4.4989440403        1.3380585634
 Cl         4.2073174207        1.8060940496       -3.0803652071
 Cl        -3.2635694515       -4.4384535284        1.5742182914
 Cl        -3.7125278178       -1.9184725761       -3.1546247030
 Cl         0.0523721650        0.0884762999        2.3629113582
  78
       -160.31041470
 N         -0.0788847635       -2.0639909712       -0.1781724584
 N         -2.0027058181        0.0691127654       -0.1160931681
 C          2.2713527755       -2.5389591176        0.2702523334
 C          0.9587707413       -2.9242137627        0.0326626637
 C          0.4910298024       -4.2755845138       -0.1142367893
 H          1.0965088894       -5.1513346190       -0.0103552367
 C         -0.8189315965       -4.2051500160       -0.4552629852
 H         -1.4814095842       -5.0167944076       -0.6864553752
 C         -1.1868127371       -2.8126986093       -0.4363634486
 C         -2.4794630345       -2.3154497277       -0.5609638759
 C         -2.8581117403       -0.9663520057       -0.3445858463
 C         -4.1971529567       -0.5084927287       -0.2475563273
 H         -5.0746716105       -1.1124222483       -0.3779377279
 C         -4.1401700217        0.8280993714        0.0672196425
 H         -4.9591215237        1.5042253663        0.2203158851
 C         -2.7681447442        1.1768330211        0.1119666519
 C         -3.5664894792       -3.2641870202       -0.8783856465
 C         -4.0050290693       -4.2264490059        0.0332359808
 C         -5.0191673138       -5.1143697920       -0.2847537798
 C         -5.6191818743       -5.0461467985       -1.5311923145
 H         -6.4095263530       -5.7341514699       -1.7841864707
 C         -5.2136016795       -4.0985732133       -2.4556261326
 C         -4.1954315382       -3.2215729042       -2.1224442712
 N          0.0756850475        2.0012404012       -0.2656748820
 N          2.0042996833       -0.1165326399       -0.1305068639
 C         -2.2658324017        2.4949333010        0.2240817255
 C         -0.9569263744        2.8671010512       -0.0485741311
 C         -0.4919399242        4.2152610288       -0.2267899036
 H         -1.0998380772        5.0927727386       -0.1282718400
 C          0.8167655593        4.1380539698       -0.5703641127
 H          1.4859566741        4.9395774593       -0.8004288287
 C          1.1768057715        2.7434092997       -0.5507797506
 C          2.4758103177        2.2529080137       -0.6454160299
 C          2.8569735442        0.9083510364       -0.4168821626
 C          4.1919363421        0.4329152127       -0.4031996400
 H          5.0667207242        1.0150322619       -0.6183571862
 C          4.1388761197       -0.8984835096       -0.0628315294
 H          4.9562169436       -1.5845770035        0.0465967727
 C          2.7700523174       -1.2265061850        0.0838270808
 C          3.5509315388        3.2427633073       -0.8656892152
 C          4.3766538836        3.6453273636        0.1841417324
 C          5.3586292540        4.6065783791        0.0030612593
 C          5.5310090818        5.1789420358       -1.2458584432
 H          6.2908227697        5.9314324901       -1.3907504541
 C          4.7272768633        4.8003141974       -2.3077758996
 C          3.7470429933        3.8415447325       -2.1102263412
 Fe         0.0022434438       -0.0220978469        0.2220901588
 C         -3.2090208694        3.5702187427        0.6050666693
 C         -3.2709275531        3.9741782872        1.9378581512
 C         -4.0203845853        4.2222973305       -0.3187472664
 C         -4.1153214125        4.9976540501        2.3392478429
 C         -4.8687618106        5.2472682545        0.0673977083
 H         -4.1393319183        5.2907669926        3.3760918372
 C         -4.9097020236        5.6298576223        1.3981834462
 H         -5.4856212352        5.7429728801       -0.6661502635
 H         -5.5678699750        6.4275177690        1.7040124944
 C          3.2319576125       -3.5651664772        0.7319468377
 C          3.5334262924       -3.6269006554        2.0936760926
 C          3.8441775928       -4.4817365456       -0.1164756353
 C          4.4016798643       -4.5830658841        2.5949521189
 C          4.7183654910       -5.4413683586        0.3703598565
 H          4.6087738411       -4.6133220166        3.6523208514
 C          4.9879980074       -5.4890890966        1.7276272011
 H          5.1802981924       -6.1393036643       -0.3087810148
 H          5.6623922229       -6.2380305152        2.1141685331
 H         -5.3349929960       -5.8465657500        0.4402079728
 H         -5.6753232166       -4.0386479426       -3.4279093329
 H          5.9728102903        4.9008175492        0.8383862603
 H          4.8506735644        5.2442827212       -3.2824960169
 Cl         2.7768147096       -2.4901147414        3.1536702460
 Cl         3.5074846478       -4.3996783396       -1.8097940007
 Cl        -2.2671083148        3.1675940426        3.0896903039
 Cl        -3.9423650789        3.7353284885       -1.9737081803
 Cl         4.1289088602        2.9548711884        1.7479392342
 Cl         2.7337226588        3.3664154309       -3.4270976411
 Cl        -3.2785752308       -4.2895711114        1.6029108576
 Cl        -3.6678053977       -2.0476070918       -3.2790290668
 Cl         0.0140619648        0.0011986628        2.3549814509
  78
       -160.31037245
 N         -0.0672290298       -2.0171588480       -0.1912040515
 N         -2.0113446145        0.0757217557       -0.1932133307
 C          2.3234356847       -2.4292668107        0.2566301343
 C          1.0072650837       -2.8308570559       -0.1473109462
 C          0.6469838631       -4.1355641915       -0.5630003167
 H          1.3120154466       -4.9735919273       -0.6443617285
 C         -0.6955052340       -4.0990426302       -0.8527253807
 H         -1.3105105557       -4.8987658358       -1.2140111740
 C         -1.1361439843       -2.7737598353       -0.5830547748
 C         -2.4627962091       -2.3091091215       -0.5917226721
 C         -2.8415825735       -0.9937404841       -0.2989137751
 C         -4.1905082730       -0.5882787120       -0.0008485656
 H         -5.0399008259       -1.2444458234       -0.0048352909
 C         -4.1515975098        0.7263378152        0.3159549373
 H         -4.9626903349        1.3578305570        0.6210064727
 C         -2.7890000121        1.1623704993        0.1385817001
 C         -3.5270437455       -3.2850890273       -0.8984951824
 C         -3.8016786500       -4.3675874757       -0.0605029892
 C         -4.7734950276       -5.3002562365       -0.3818595781
 C         -5.4887846574       -5.1620318714       -1.5590181255
 H         -6.2420406127       -5.8890471976       -1.8195482160
 C         -5.2513247813       -4.0915389322       -2.4036305349
 C         -4.2819211139       -3.1624209970       -2.0668327261
 N          0.0525785834        2.0471910883       -0.2330392593
 N          1.9919780096       -0.0478749376       -0.1481502803
 C         -2.3388737499        2.4651683000        0.1853007806
 C         -1.0216444033        2.8647936480       -0.2100387857
 C         -0.6548560584        4.1586573285       -0.6486421844
 H         -1.3188103214        4.9938696567       -0.7474315952
 C          0.6874434114        4.1107157420       -0.9411458465
 H          1.3043973491        4.9019950453       -1.3198995347
 C          1.1246561906        2.7936093378       -0.6365714725
 C          2.4507189799        2.3261198661       -0.6158736698
 C          2.8205236621        1.0224041766       -0.2597799548
 C          4.1612910542        0.6302233453        0.0926026714
 H          5.0050354816        1.2924092878        0.1052074506
 C          4.1203883244       -0.6783474748        0.4338889735
 H          4.9237753784       -1.2993556360        0.7773377353
 C          2.7662157633       -1.1239893606        0.2190855401
 C          3.5407887710        3.2682354171       -0.9320575457
 C          3.8052241353        4.3952209620       -0.1500950694
 C          4.8444229807        5.2591398313       -0.4560836007
 C          5.6444091495        5.0052288145       -1.5558278278
 H          6.4571061213        5.6720688669       -1.7967997449
 C          5.4092089457        3.8969017975       -2.3517669459
 C          4.3677334364        3.0414172936       -2.0368524439
 Fe        -0.0144642958        0.0195956380        0.2181265040
 C         -3.2036467407        3.5392273695        0.7089935143
 C         -2.8392567804        4.1381631691        1.9210142268
 C         -4.3549216540        4.0023661509        0.0765006699
 C         -3.6057572648        5.1396858913        2.4908183612
 C         -5.1326368814        5.0013293197        0.6406858000
 H         -3.3028748648        5.5734397406        3.4301468939
 C         -4.7559311415        5.5638221708        1.8473599974
 H         -6.0204599161        5.3392061285        0.1301476258
 H         -5.3608828294        6.3423032949        2.2857089746
 C          3.1935076142       -3.5148273396        0.7396502083
 C          2.8140769860       -4.2050642016        1.8984738382
 C          4.3587170640       -3.9303868947        0.0973802609
 C          3.5662290172       -5.2491706172        2.4015286800
 C          5.1276749074       -4.9700826799        0.5960867032
 H          3.2429865285       -5.7586286772        3.2942880817
 C          4.7287879034       -5.6249896411        1.7484654097
 H          6.0229561191       -5.2691815546        0.0718051541
 H          5.3175784109       -6.4451347810        2.1304668336
 H         -4.9632184255       -6.1265358276        0.2845276973
 H         -5.8044008508       -3.9731682114       -3.3213469943
 H          5.0214268682        6.1167808071        0.1725439839
 H          6.0272046652        3.6877333487       -3.2106965209
 Cl         1.3779061331       -3.7141464362        2.7250831059
 Cl         4.8300591391       -3.1694373234       -1.3839356816
 Cl        -1.4179365456        3.5784984232        2.7288976812
 Cl        -4.7988225131        3.3443143171       -1.4605567772
 Cl         2.8526002463        4.6909552207        1.2613803694
 Cl         4.0659280365        1.6736006071       -3.0484525510
 Cl        -2.9290597990       -4.5211933044        1.4223403201
 Cl        -3.9710788563       -1.8360101510       -3.1273601617
 Cl        -0.0535626107        0.0232159927        2.3520392883
  78
       -160.31031538
 N         -0.0636412302       -2.0517787302       -0.1415865529
 N         -1.9881508568        0.0555908990       -0.1360329444
 C          2.3374458565       -2.4684772663        0.2560751697
 C          1.0077464217       -2.8754298421       -0.1095168001
 C          0.6319247697       -4.1774607811       -0.5127514140
 H          1.2927835742       -5.0188673146       -0.5957495744
 C         -0.7130774455       -4.1289673327       -0.7946812055
 H         -1.3498945671       -4.9217759657       -1.1425924875
 C         -1.1403761318       -2.8011239795       -0.5271993128
 C         -2.4626158061       -2.3204461293       -0.5665829251
 C         -2.8268129579       -1.0022963216       -0.2641200741
 C         -4.1784030610       -0.5819996157        0.0115057285
 H         -5.0338658372       -1.2307541410       -0.0018334796
 C         -4.1328656274        0.7309025874        0.3319833165
 H         -4.9434787566        1.3739384105        0.6124678342
 C         -2.7600427619        1.1493699243        0.1822974686
 C         -3.5634364439       -3.2395072268       -0.9125439212
 C         -3.9286646838       -4.3239340223       -0.1124621912
 C         -5.0089579596       -5.1311316692       -0.4339049900
 C         -5.7520811573       -4.8606224338       -1.5702502424
 H         -6.6009944149       -5.4801901084       -1.8160653415
 C         -5.4151656326       -3.7970208204       -2.3893266068
 C         -4.3302759735       -3.0023034520       -2.0581394440
 N          0.0736245842        2.0185745250       -0.1981272803
 N          2.0100257803       -0.0853982295       -0.1677483765
 C         -2.3081604831        2.4469736949        0.2391891085
 C         -0.9906227390        2.8495663390       -0.1481166971
 C         -0.6199010166        4.1466575498       -0.5696338450
 H         -1.2718287514        4.9956819453       -0.6450811617
 C          0.7175095438        4.0865327910       -0.8836194550
 H          1.3366740198        4.8753928249       -1.2652781322
 C          1.1449454548        2.7593657323       -0.6083497570
 C          2.4712421601        2.2882288816       -0.6162970290
 C          2.8424101292        0.9788667774       -0.2968981239
 C          4.1916867417        0.5774660538        0.0142853773
 H          5.0377999800        1.2369863339        0.0000324356
 C          4.1502619864       -0.7278473645        0.3613479603
 H          4.9622342758       -1.3502424422        0.6865827918
 C          2.7852313190       -1.1675937218        0.1844499704
 C          3.5375677336        3.2549726998       -0.9391616110
 C          3.7979938345        4.3676975734       -0.1367233619
 C          4.7710484955        5.2915679003       -0.4799755781
 C          5.5137837067        5.1086970354       -1.6336337805
 H          6.2702643612        5.8280704455       -1.9042799667
 C          5.2933130583        4.0050074783       -2.4387125101
 C          4.3144388987        3.0904729283       -2.0884192156
 Fe         0.0139979422       -0.0114629534        0.2503870066
 C         -3.2079766872        3.5152744579        0.7178474622
 C         -2.9684856780        4.0622782581        1.9817615928
 C         -4.2875141910        3.9999190145       -0.0141913549
 C         -3.7992937034        5.0358292480        2.5091792130
 C         -5.1215059924        4.9817515649        0.4983778094
 H         -3.6039936040        5.4285216216        3.4947293649
 C         -4.8754455401        5.4877347015        1.7628475479
 H         -5.9491830925        5.3389856865       -0.0938089263
 H         -5.5273800734        6.2432711041        2.1743991022
 C          3.2397397427       -3.5331333079        0.7281979755
 C          2.9271597237       -4.2044169992        1.9144099652
 C          4.4075787088       -3.9118921649        0.0621973144
 C          3.7516188373       -5.1906173120        2.4297848863
 C          5.2493123377       -4.8844174521        0.5750771805
 H          3.4789004014       -5.6889116485        3.3477409642
 C          4.9180806767       -5.5182370303        1.7615537642
 H          6.1504664080       -5.1424949840        0.0421336414
 H          5.5684402617       -6.2848306953        2.1581225637
 H         -5.2677157418       -5.9547103470        0.2125997924
 H         -5.9870919660       -3.5774864724       -3.2772356635
 H          4.9419019844        6.1435932179        0.1578839789
 H          5.8687078719        3.8509003418       -3.3377603442
 Cl         1.4904926723       -3.7615772453        2.7709736033
 Cl         4.7836663178       -3.1906458543       -1.4670345830
 Cl        -1.6255059097        3.4698559252        2.8947046929
 Cl        -4.5719444731        3.3721407120       -1.6003648133
 Cl         2.9123321412        4.5748252590        1.3317058356
 Cl         4.0248039800        1.7297479787       -3.1121636471
 Cl        -3.0435075759       -4.6294473865        1.3416069708
 Cl        -3.9046574882       -1.6861689851       -3.0965591130
 Cl         0.0495213354        0.0212304213        2.3834633969
  78
       -160.31031237
 N         -0.0931522484       -2.0413899881       -0.1107206652
 N         -2.0285009373        0.0809063755       -0.0790248176
 C          2.2949134137       -2.4867501619        0.2827198462
 C          0.9522802783       -2.8915881204        0.0145823636
 C          0.5272421998       -4.2200525590       -0.2275994760
 H          1.1535806937       -5.0903318710       -0.1998470935
 C         -0.8152649921       -4.1574902645       -0.5169549224
 H         -1.4742355413       -4.9724421413       -0.7483178404
 C         -1.1899870267       -2.7908352940       -0.4241095125
 C         -2.4998593116       -2.2893780963       -0.5247179924
 C         -2.8734993075       -0.9700990057       -0.2644351225
 C         -4.2315260482       -0.5279046151       -0.0997719408
 H         -5.0973817242       -1.1539767665       -0.2065633749
 C         -4.1867270194        0.7805684044        0.2482063825
 H         -5.0079411201        1.4277382671        0.4858692988
 C         -2.8046572751        1.1808083243        0.1935968510
 C         -3.5532420873       -3.2559576902       -0.9175928760
 C         -4.3868546041       -3.8698863066        0.0152409411
 C         -5.3570867118       -4.7815965652       -0.3787653895
 C         -5.4982318970       -5.0860341250       -1.7205428070
 H         -6.2587213737       -5.7919165606       -2.0304055028
 C         -4.6822375429       -4.4932600147       -2.6697697786
 C         -3.7170259492       -3.5883215272       -2.2628701170
 N          0.0488343185        2.0281992949       -0.1600850632
 N          1.9744269381       -0.0936588138       -0.1259658496
 C         -2.3388491679        2.4792828957        0.2693347685
 C         -1.0069144433        2.8687722366       -0.0819828614
 C         -0.6153710088        4.1740660310       -0.4620831756
 H         -1.2591130054        5.0307151036       -0.5029578153
 C          0.7223904645        4.1093231247       -0.7732856197
 H          1.3487380708        4.9061509316       -1.1260585650
 C          1.1315800080        2.7684450091       -0.5446571524
 C          2.4490972505        2.2763230140       -0.5919398607
 C          2.8172279372        0.9585608518       -0.3027848283
 C          4.1742316674        0.5304862493       -0.0875164622
 H          5.0320764113        1.1738209082       -0.1480087763
 C          4.1323608384       -0.7818059354        0.2397251408
 H          4.9504802230       -1.4286933282        0.4895324144
 C          2.7517520497       -1.1894164901        0.1684288284
 C          3.5203505741        3.2351714777       -0.9273466041
 C          3.8310904810        4.3140970575       -0.0973879136
 C          4.8002087741        5.2382089357       -0.4507101324
 C          5.4853429708        5.0886178637       -1.6452954539
 H          6.2378349905        5.8092155760       -1.9270974289
 C          5.2131536485        4.0188179206       -2.4794958419
 C          4.2398465421        3.1029390127       -2.1176433868
 Fe        -0.0221006586       -0.0017270325        0.2840511844
 C         -3.2095938256        3.5685575308        0.7502579730
 C         -2.8870078747        4.1669728563        1.9779549631
 C         -4.3152935220        4.0645153029        0.0598580085
 C         -3.6496202201        5.1968524321        2.5052030596
 C         -5.0897180446        5.0934852691        0.5794749204
 H         -3.3727952745        5.6304392023        3.4554770696
 C         -4.7553967140        5.6529017381        1.8029357073
 H         -5.9408162817        5.4529272688        0.0209474140
 H         -5.3543494909        6.4547658230        2.2097222191
 C          3.2321960721       -3.5612791609        0.6667927704
 C          3.1085590495       -4.1511940189        1.9262188903
 C          4.2324202562       -4.0375340705       -0.1795204765
 C          3.9585526791       -5.1654230690        2.3349869255
 C          5.0863642725       -5.0545909553        0.2139844809
 H          3.8444996999       -5.5948662957        3.3172794140
 C          4.9457284046       -5.6117344869        1.4737175898
 H          5.8480367527       -5.4054653921       -0.4637240206
 H          5.6103144861       -6.4027070105        1.7847609127
 H         -5.9871799435       -5.2464717249        0.3630440144
 H         -4.7920113627       -4.7246787547       -3.7169794503
 H          5.0162921233        6.0638626571        0.2092892075
 H          5.7480083057        3.8958753717       -3.4090290705
 Cl         1.8793671063       -3.5697093523        2.9931417071
 Cl         4.3805348244       -3.3586235614       -1.7615757374
 Cl        -1.5193283141        3.5748181497        2.8577395682
 Cl        -4.6981087413        3.4211012506       -1.5035114571
 Cl         3.0068225982        4.4765616938        1.4145026428
 Cl         3.8803082284        1.7825866548       -3.1722038246
 Cl        -4.1717590599       -3.4884983018        1.6871489254
 Cl        -2.6866759146       -2.8397802415       -3.4287791357
 Cl         0.0148876195        0.0455158281        2.4175826883
  78
       -160.31029496
 N         -0.0263438129       -2.0729686294        0.0487103056
 N         -1.9486686421        0.0114950688       -0.0651169161
 C          2.3577924045       -2.4829621106       -0.2821698706
 C          1.0507898115       -2.8914931027       -0.0095520852
 C          0.6519377805       -4.2438808699        0.2809069791
 H          1.3198762627       -5.0834884314        0.3164274134
 C         -0.6739059744       -4.2156272607        0.5528361729
 H         -1.3054142315       -5.0268279805        0.8586286474
 C         -1.1164004200       -2.8594620943        0.3329076543
 C         -2.4148002449       -2.4079722936        0.2663363432
 C         -2.7537474371       -1.0737570563       -0.1465821795
 C         -3.9995536129       -0.7201362047       -0.7130970391
 H         -4.8051870327       -1.3978637112       -0.9182612953
 C         -3.9524340371        0.6306987192       -0.9550768718
 H         -4.7147370267        1.2420317458       -1.3966350966
 C         -2.6809916106        1.0810397348       -0.5148726601
 C         -3.5758782441       -3.2642389149        0.5511301484
 C         -4.4703147996       -2.8727523324        1.5551241968
 C         -5.6411246666       -3.5708138132        1.7998306205
 C         -5.9321423441       -4.6938413455        1.0457704427
 H         -6.8489834174       -5.2363245559        1.2234376162
 C         -5.0606791823       -5.1178749871        0.0563524518
 C         -3.9024149351       -4.4019765465       -0.1904029713
 N          0.0950768262        2.0186399038       -0.0203081102
 N          2.0437192978       -0.0622905349        0.0832443827
 C         -2.2724599003        2.4261781654       -0.4575753580
 C         -0.9805984134        2.8384164848       -0.1256085181
 C         -0.5862961377        4.1950894637        0.1528485956
 H         -1.2538559951        5.0349993983        0.1644874640
 C          0.7400646735        4.1749557109        0.4163526706
 H          1.3736288497        4.9964669961        0.6892218626
 C          1.1788727641        2.8081285085        0.2658795105
 C          2.4845134227        2.3662777323        0.3096247884
 C          2.8770606077        1.0077329908        0.0905391243
 C          4.1977585793        0.6020849406       -0.2224996758
 H          5.0490078372        1.2508077826       -0.2872441912
 C          4.1553623568       -0.7525524853       -0.4351880024
 H          4.9671985507       -1.4033366297       -0.6955242167
 C          2.8103954637       -1.1574226933       -0.2315692260
 C          3.5775332848        3.3411847704        0.4759054560
 C          4.4391972588        3.2672469455        1.5740003389
 C          5.5014183085        4.1423585031        1.7235359560
 C          5.7197019382        5.1177535086        0.7658077269
 H          6.5484899929        5.7996694016        0.8726364285
 C          4.8838669071        5.2198246732       -0.3324444651
 C          3.8270348916        4.3362363787       -0.4731088966
 Fe         0.0322217416       -0.0199806025        0.4096295842
 C         -3.2969648356        3.4428456342       -0.7542403279
 C         -4.4560792150        3.5533303751        0.0211595022
 C         -3.1736656665        4.2976785530       -1.8514938978
 C         -5.4613828735        4.4485209589       -0.3031461491
 C         -4.1717831556        5.1992648068       -2.1842588532
 H         -6.3453876565        4.4999692079        0.3116331170
 C         -5.3190818296        5.2630910271       -1.4133025289
 H         -4.0483825566        5.8335316054       -3.0466944527
 H         -6.1058594325        5.9515332362       -1.6782666554
 C          3.3138976119       -3.5270066747       -0.7198798863
 C          4.2258492932       -4.1401340990        0.1337365847
 C          3.3029184738       -3.9219195198       -2.0573236190
 C          5.0963547290       -5.1159445894       -0.3266289090
 C          4.1707924572       -4.8889016485       -2.5347867924
 H          5.7891472783       -5.5801235300        0.3565679407
 C          5.0645217931       -5.4832128054       -1.6608760876
 H          4.1407975515       -5.1658215927       -3.5762783143
 H          5.7421515705       -6.2401466067       -2.0240845679
 H         -6.3134877130       -3.2259031831        2.5680570879
 H         -5.2853985851       -5.9882004227       -0.5393586120
 H          6.1477068926        4.0547065983        2.5819155262
 H          5.0488880536        5.9712340380       -1.0879705123
 Cl         4.2483067664       -3.6677260168        1.7947495957
 Cl         2.1790752156       -3.1669060542       -3.1311303751
 Cl        -4.6271664405        2.5723451973        1.4315241806
 Cl        -1.7641112543        4.2002697171       -2.8457704935
 Cl         4.1465747895        2.0631483465        2.7773182268
 Cl         2.8342960893        4.4378734374       -1.8839796302
 Cl        -4.0904922754       -1.4893158907        2.5182321336
 Cl        -2.8839627579       -4.8875607632       -1.5041836614
 Cl        -0.0426034735        0.0176097492        2.5410905155
  78
       -160.31027423
 N         -0.0755757534       -2.0612424033        0.1028164716
 N         -2.0140446326        0.0680735855        0.1049307864
 C          2.3110746582       -2.5264535732        0.3983559468
 C          0.9867892618       -2.9069535104        0.1597982297
 C          0.5542362320       -4.2452820070       -0.1257304126
 H          1.1915578058       -5.1083958935       -0.1321520690
 C         -0.7727162975       -4.1811378028       -0.3985948080
 H         -1.4260870520       -4.9824158631       -0.6820069671
 C         -1.1733291231       -2.8112617288       -0.2181863968
 C         -2.4680507166       -2.3289324947       -0.3059308356
 C         -2.8521758513       -0.9903674812        0.0000760978
 C         -4.1890404481       -0.5831189440        0.2461441617
 H         -5.0440038910       -1.2310479558        0.2485391720
 C         -4.1520568998        0.7638855844        0.4970350575
 H         -4.9716101583        1.4056024385        0.7515816478
 C         -2.7978355434        1.1707845769        0.3520196919
 C         -3.5443430146       -3.2175118542       -0.7824639682
 C         -4.0155492040       -4.3129434202       -0.0576008876
 C         -5.0182969800       -5.1313271469       -0.5539349839
 C         -5.5746790051       -4.8590429002       -1.7917354826
 H         -6.3581001447       -5.4937950927       -2.1805947835
 C         -5.1366944930       -3.7729019613       -2.5320964083
 C         -4.1341342391       -2.9642237274       -2.0248159436
 N          0.0585722035        2.0194073130        0.0652540769
 N          1.9988047328       -0.0948419338        0.2106137084
 C         -2.3401896628        2.4937789881        0.2928674280
 C         -1.0094543090        2.8555041772        0.0328880918
 C         -0.5859197011        4.1627948949       -0.3785164877
 H         -1.2359759777        5.0062460543       -0.5089288771
 C          0.7515234935        4.0944447454       -0.5953873896
 H          1.3995287837        4.8741494773       -0.9441827047
 C          1.1622211482        2.7533315173       -0.2726381448
 C          2.4678548234        2.2871464775       -0.2644128633
 C          2.8461840265        0.9565374623        0.0744349814
 C          4.1851332199        0.5292191682        0.2761315219
 H          5.0515816616        1.1614509522        0.2558390984
 C          4.1421591816       -0.8208184680        0.5058290526
 H          4.9655120286       -1.4835919166        0.6879806896
 C          2.7749527187       -1.2048342245        0.4332352897
 C          3.5485657249        3.2047000154       -0.6688358253
 C          3.8514323487        4.3697810626        0.0389033290
 C          4.8323918441        5.2448924310       -0.3938538937
 C          5.5549245057        4.9548817592       -1.5375039198
 H          6.3217163036        5.6307678340       -1.8798281879
 C          5.3009510189        3.7951268731       -2.2478394215
 C          4.3013415943        2.9378142376       -1.8185245359
 Fe        -0.0165120102       -0.0178250552        0.5002945943
 C         -3.3203338859        3.5875234916        0.4282093473
 C         -3.2186387053        4.4915419913        1.4906770109
 C         -4.3575032936        3.7804731096       -0.4863648350
 C         -4.1184329320        5.5320650652        1.6445849755
 C         -5.2712397785        4.8098934072       -0.3359434415
 H         -4.0048423679        6.2146547367        2.4686470216
 C         -5.1470380839        5.6831962366        0.7305090477
 H         -6.0634252262        4.9257296349       -1.0582875085
 H         -5.8523252303        6.4908400557        0.8460873924
 C          3.3315390440       -3.5997352239        0.4640185272
 C          3.8504645040       -4.0402037596        1.6803178267
 C          3.8103493582       -4.1890295962       -0.7045459888
 C          4.8155840261       -5.0320359018        1.7297784023
 C          4.7743228174       -5.1820426972       -0.6706897439
 H          5.2024935367       -5.3479197286        2.6829438514
 C          5.2727568077       -5.5979465020        0.5520082336
 H          5.1249980856       -5.6166592916       -1.5935434998
 H          6.0276788695       -6.3689002675        0.5861862969
 H         -5.3601906707       -5.9676611748        0.0347440654
 H         -5.5649071182       -3.5502909252       -3.4968240803
 H          5.0275364783        6.1420440979        0.1682776271
 H          5.8622598644        3.5575573120       -3.1377796588
 Cl         3.2612477934       -3.3198408472        3.1345660417
 Cl         3.1923924501       -3.6414025469       -2.2231141704
 Cl        -1.9499871238        4.2853830580        2.6453890343
 Cl        -4.4803831008        2.7449459454       -1.8669586432
 Cl         3.0034313961        4.7116756259        1.5083231869
 Cl         3.9495452608        1.5295551089       -2.7509025330
 Cl        -3.3564182339       -4.6284165507        1.5098539064
 Cl        -3.5776082552       -1.6206178687       -2.9541118367
 Cl        -0.0894281869       -0.0003038247        2.6318601137
  78
       -160.31020219
 N         -0.0839968786       -2.0343270147        0.1618048211
 N         -2.0067027243        0.1141598920        0.1913005831
 C          2.2971631533       -2.5502094549        0.3580970445
 C          0.9646062174       -2.9081078762        0.2572569342
 C          0.4824410482       -4.2519466745        0.0969708957
 H          1.0981178197       -5.1309249290        0.1295475246
 C         -0.8510909556       -4.1688793766       -0.1285344436
 H         -1.5450723644       -4.9698307367       -0.2967021699
 C         -1.1959292846       -2.7752784726       -0.0785221446
 C         -2.4889593277       -2.2751112595       -0.2254657731
 C         -2.8612077095       -0.9259293549       -0.0529095877
 C         -4.1953085393       -0.4506732458       -0.1207899574
 H         -5.0613950436       -1.0535480904       -0.3067087962
 C         -4.1449248406        0.9042649308        0.0996711161
 H         -4.9639692762        1.5967806987        0.1176022091
 C         -2.7788277700        1.2375954947        0.2656236451
 C         -3.5313317779       -3.2361784377       -0.6493610533
 C         -4.4570586088       -3.7848873959        0.2351398277
 C         -5.4039913601       -4.7023543124       -0.1918398259
 C         -5.4341356512       -5.0787353949       -1.5242847236
 H         -6.1699370870       -5.7930731078       -1.8610486271
 C         -4.5311052557       -4.5470129359       -2.4287008315
 C         -3.5884924976       -3.6349467308       -1.9842840979
 N          0.0874890648        2.0546697831        0.1468605170
 N          2.0039154945       -0.1008144875        0.1952764443
 C         -2.2941271976        2.5675213754        0.3532759821
 C         -0.9632774968        2.9282957321        0.2424408508
 C         -0.4809657172        4.2729943967        0.0901130633
 H         -1.0941793784        5.1522320412        0.1324356236
 C          0.8506768689        4.1898232729       -0.1502717535
 H          1.5417656321        4.9890489009       -0.3339645441
 C          1.2003115873        2.7972559563       -0.0854784479
 C          2.4897353617        2.2883205509       -0.2195457200
 C          2.8582389645        0.9430377248       -0.0200444559
 C          4.1985537460        0.4821911278       -0.0075215415
 H          5.0675076378        1.0957381187       -0.1382702615
 C          4.1485245095       -0.8737953537        0.2120461501
 H          4.9729421215       -1.5558225501        0.2940302592
 C          2.7820782361       -1.2196970253        0.3028259121
 C          3.5403809276        3.2190923545       -0.6912229114
 C          4.1614056153        4.1533859098        0.1328518657
 C          5.1006965642        5.0426255591       -0.3680053721
 C          5.4280935185        5.0038380053       -1.7115647832
 H          6.1492633290        5.7003077558       -2.1085946333
 C          4.8372282282        4.0768066906       -2.5544773650
 C          3.9049999152        3.1931151725       -2.0388900295
 Fe        -0.0013900388        0.0112326231        0.5544832435
 C         -3.3041713687        3.6488376270        0.4099053613
 C         -3.8435684455        4.0620464431        1.6263569230
 C         -3.7397351298        4.2899342216       -0.7474875887
 C         -4.7817076604        5.0806887469        1.6880323714
 C         -4.6805067478        5.3049532649       -0.7045922695
 H         -5.1754547938        5.3843112250        2.6448356804
 C         -5.1962211638        5.6965244434        0.5198769407
 H         -4.9968517754        5.7795682269       -1.6204965739
 H         -5.9247275426        6.4904215127        0.5621057798
 C          3.3006834685       -3.6398302766        0.3529301718
 C          3.6103272835       -4.3457380062        1.5135611206
 C          3.9441464898       -4.0051257386       -0.8276702618
 C          4.5323238329       -5.3803410853        1.4986674748
 C          4.8636594403       -5.0404716689       -0.8588883647
 H          4.7582009987       -5.9086869964        2.4114294448
 C          5.1519922823       -5.7246248833        0.3092819466
 H          5.3479492809       -5.3041284403       -1.7877998155
 H          5.8768543722       -6.5317061569        0.2970752951
 H         -6.1062874016       -5.1175614317        0.5127699318
 H         -4.5530722717       -4.8309581663       -3.4688455722
 H          5.5647725176        5.7584133171        0.2918156487
 H          5.0871197116        4.0393152985       -3.6023333803
 Cl         2.8256202006       -3.8982063957        2.9842027632
 Cl         3.5649349186       -3.1495061097       -2.2783674548
 Cl        -3.3028814386        3.2859101492        3.0730099653
 Cl        -3.0755447198        3.7886024435       -2.2648596083
 Cl         3.7461186732        4.1880461685        1.8095364488
 Cl         3.1456490926        2.0426359681       -3.0785305894
 Cl        -4.3930629260       -3.3132404149        1.8944180090
 Cl        -2.4549749016       -2.9583951302       -3.0998974118
 Cl        -0.0170239066        0.0354437731        2.6879035560
  78
       -160.31012009
 N         -0.0841454960       -2.0276544076       -0.2085652796
 N         -2.0318799073        0.0679577422       -0.1284405206
 C          2.2884937471       -2.4529064022       -0.6099268675
 C          0.9721058012       -2.8577880630       -0.3658826979
 C          0.5512092558       -4.2213639269       -0.1559343458
 H          1.1954274193       -5.0765882847       -0.2267518231
 C         -0.7599579252       -4.1839833149        0.1757460768
 H         -1.4143451293       -5.0006100884        0.4146144601
 C         -1.1686153662       -2.8025365328        0.1184285497
 C         -2.4543571880       -2.3357996798        0.2723939598
 C         -2.8653355139       -1.0000482127       -0.0258224951
 C         -4.1886320564       -0.6156246914       -0.3383228884
 H         -5.0438384012       -1.2603185558       -0.3367994753
 C         -4.1429171625        0.7151719075       -0.6797742972
 H         -4.9497822472        1.3276138935       -1.0128313170
 C         -2.7997364543        1.1382117118       -0.5060361496
 C         -3.4918252382       -3.2668014748        0.7717193711
 C         -3.6507021565       -3.4095355951        2.1495301810
 C         -4.6027074187       -4.2652165976        2.6775910730
 C         -5.4151675506       -4.9860081866        1.8171458425
 H         -6.1583561933       -5.6515728130        2.2233548529
 C         -5.2833231791       -4.8599750829        0.4446791359
 C         -4.3214426731       -4.0034783942       -0.0688959639
 N          0.0375528698        2.0477609127       -0.2037263055
 N          1.9708907379       -0.0474041239       -0.1572998891
 C         -2.3403386746        2.4652451024       -0.6102346465
 C         -1.0294277916        2.8684124884       -0.3238052375
 C         -0.6403931392        4.2211879479       -0.0107346058
 H         -1.3035374828        5.0650282424       -0.0180040942
 C          0.6642251321        4.1856295392        0.3471893019
 H          1.2778964850        4.9969779503        0.6916615832
 C          1.1099870003        2.8234065147        0.1696285806
 C          2.4030615175        2.3586398734        0.2637920322
 C          2.7971508165        1.0258319774       -0.0922014260
 C          4.1073115145        0.6564124200       -0.4672236923
 H          4.9499644534        1.3176457076       -0.5159410005
 C          4.0675630751       -0.6851708215       -0.7651245015
 H          4.8743267598       -1.3024784684       -1.1095061792
 C          2.7352078140       -1.1187947342       -0.5378515125
 C          3.4779099310        3.2373968651        0.7533155043
 C          4.1207614333        2.9053518659        1.9532231424
 C          5.1169419546        3.7073678007        2.4877651930
 C          5.4917465009        4.8603227639        1.8205632552
 H          6.2587150820        5.4960493515        2.2374108102
 C          4.8924364158        5.2024896954        0.6178993269
 C          3.9000381951        4.3909701364        0.0903179440
 Fe        -0.0273325091        0.0094847196        0.2252001020
 C         -3.2889679122        3.5155163557       -1.0267356102
 C         -4.3944175061        3.8956984211       -0.2628970400
 C         -3.0822616095        4.1778307050       -2.2425155386
 C         -5.2724760821        4.8734710149       -0.7059027802
 C         -3.9518027797        5.1546111987       -2.6939243298
 H         -6.1177716472        5.1472389893       -0.0934558409
 C         -5.0502315134        5.4954880311       -1.9230150112
 H         -3.7689450401        5.6383188180       -3.6405234796
 H         -5.7290528762        6.2627079328       -2.2624796542
 C          3.2895530969       -3.4985953233       -0.8939772493
 C          4.3348798959       -3.7756214734       -0.0100256734
 C          3.2226392126       -4.2521202088       -2.0683105668
 C          5.2845937272       -4.7440926207       -0.2919094465
 C          4.1657431947       -5.2220118950       -2.3634898368
 H          6.0777803267       -4.9317633094        0.4138563931
 C          5.1988716574       -5.4603363008       -1.4729725875
 H          4.0922330364       -5.7794769123       -3.2841058376
 H          5.9407696958       -6.2105292850       -1.7035543314
 H         -4.6995587834       -4.3610339445        3.7470073456
 H         -5.9175759013       -5.4177782914       -0.2254877116
 H          5.5825605534        3.4271716923        3.4211933157
 H          5.1957134974        6.0910355033        0.0853551098
 Cl         4.4219114207       -2.9154395567        1.4857109174
 Cl         1.9455868481       -3.9402034438       -3.1892095329
 Cl        -4.6464397930        3.1663050009        1.2804400489
 Cl        -1.7187248402        3.7441306214       -3.2119351737
 Cl         3.6199479399        1.4862409654        2.8024817692
 Cl         3.1899476610        4.8042334792       -1.4342100442
 Cl        -2.6102066637       -2.4979016414        3.1912332232
 Cl        -4.1202335071       -3.8404460975       -1.7754252435
 Cl        -0.0050882246        0.0168932749        2.3584150074
  78
       -160.31007647
 N         -0.1082701272       -2.0391458253        0.1947866510
 N         -2.0230408393        0.1025570442        0.2076645315
 C          2.2849339249       -2.5394275683        0.1434011929
 C          0.9448201878       -2.9066963701        0.2972956655
 C          0.4580392141       -4.2373172338        0.4450034328
 H          1.0659759161       -5.1094380227        0.5870794345
 C         -0.9058568706       -4.1657588671        0.3716105598
 H         -1.6148199913       -4.9679483083        0.4389859197
 C         -1.2321409942       -2.7928844227        0.1986637415
 C         -2.5449544383       -2.2938755989        0.0016658776
 C         -2.8855435081       -0.9512667236        0.0186965699
 C         -4.2154752098       -0.4553006302       -0.1867887639
 H         -5.0789578986       -1.0649380123       -0.3667894557
 C         -4.1504374880        0.8977106764       -0.1041026781
 H         -4.9525411030        1.6044606815       -0.1921856739
 C         -2.7784501862        1.2359326429        0.1220843871
 C         -3.5617949653       -3.3001041278       -0.3664073177
 C         -4.6242361182       -3.6596595329        0.4612384422
 C         -5.5446439196       -4.6223020360        0.0763509029
 C         -5.4130337558       -5.2412156086       -1.1548509894
 H         -6.1263062194       -5.9910469332       -1.4577117332
 C         -4.3690795365       -4.9060392148       -2.0000894166
 C         -3.4549041860       -3.9469751656       -1.6011750457
 N          0.0823938778        2.0640297026        0.2586959080
 N          1.9886733751       -0.0873815547        0.1812457465
 C         -2.3154674482        2.5543554549        0.2069491061
 C         -0.9765084043        2.9298216968        0.3258647901
 C         -0.4962332097        4.2699318476        0.4005342631
 H         -1.1123512848        5.1458392086        0.4702466209
 C          0.8680302174        4.2014711314        0.3563687852
 H          1.5711136397        5.0097333748        0.4040787312
 C          1.2037071615        2.8227250220        0.2394736681
 C          2.5115407500        2.3193130044        0.0314827836
 C          2.8362946510        0.9714079448       -0.0346475101
 C          4.1394847427        0.4816545657       -0.3812451417
 H          4.9834150715        1.0943367768       -0.6316816181
 C          4.0755653757       -0.8736022204       -0.3484338849
 H          4.8546823605       -1.5759748051       -0.5668221426
 C          2.7348610117       -1.2182046037        0.0137626347
 C          3.5761137768        3.3074462020       -0.2303695720
 C          4.6573051858        3.4823266848        0.6356949741
 C          5.6584276952        4.4020155260        0.3673074093
 C          5.5904919811        5.1691807818       -0.7826231741
 H          6.3679144460        5.8854869189       -0.9975402323
 C          4.5316974176        5.0209489493       -1.6622559119
 C          3.5403549069        4.0967761848       -1.3829686933
 Fe        -0.0144126854        0.0068032634        0.5800511362
 C         -3.3035441100        3.6392200328       -0.0038334527
 C         -3.8402851911        4.3837494980        1.0426979656
 C         -3.7028759237        3.9521247597       -1.3036707633
 C         -4.7470904354        5.4056896181        0.8036080838
 C         -4.6087142565        4.9676454403       -1.5567962741
 H         -5.1483416365        5.9692590136        1.6307927169
 C         -5.1265545916        5.6917552565       -0.4959599043
 H         -4.8970892040        5.1847451579       -2.5729095652
 H         -5.8304090926        6.4865603097       -0.6873323770
 C          3.2694439597       -3.6295186210       -0.0005913060
 C          4.2835787841       -3.8325807175        0.9376375296
 C          3.2143066046       -4.5028346668       -1.0903108347
 C          5.1957538390       -4.8668050756        0.8058817330
 C          4.1187983893       -5.5413755337       -1.2325951940
 H          5.9633554164       -4.9965602999        1.5516925207
 C          5.1055122547       -5.7209982265       -0.2795326005
 H          4.0463852249       -6.1954437321       -2.0866219692
 H          5.8102462263       -6.5310607451       -0.3861449007
 H         -6.3526230456       -4.8843839556        0.7407675659
 H         -4.2594498599       -5.3794173092       -2.9629240245
 H          6.4800489248        4.5118250624        1.0565006062
 H          4.4725882159        5.6089372326       -2.5639068283
 Cl         4.3781013641       -2.7796622581        2.3048319218
 Cl         2.0151883252       -4.2610249372       -2.3107423665
 Cl        -3.3583000437        4.0060351056        2.6565543446
 Cl        -3.0323607011        3.0493844284       -2.6144926202
 Cl         4.7328987429        2.5423621978        2.0839325505
 Cl         2.2452550498        3.8807701558       -2.5086383811
 Cl        -4.7701793696       -2.9076032109        2.0103824712
 Cl        -2.1603381859       -3.5162505431       -2.6623852197
 Cl        -0.0110835799       -0.0344881107        2.7133519824
  78
       -160.31006030
 N         -0.0740082820       -2.0796177451        0.2214689292
 N         -2.0001257507        0.0688755948        0.2318805864
 C          2.3167162170       -2.5683817529        0.4093602712
 C          0.9803393738       -2.9396647067        0.2808912731
 C          0.5212811246       -4.2838123309        0.0661231892
 H          1.1445280174       -5.1572127610        0.0794732051
 C         -0.8076494443       -4.2111466117       -0.1868976477
 H         -1.4798360160       -5.0128269491       -0.4230241927
 C         -1.1841208512       -2.8277855919       -0.0563444985
 C         -2.4697247769       -2.3315174375       -0.1764321854
 C         -2.8461866132       -0.9813403989        0.0764575414
 C         -4.1902736969       -0.5482391000        0.1821986129
 H         -5.0549262441       -1.1805712402        0.1257403042
 C         -4.1531705852        0.8085606656        0.3849727078
 H         -4.9831289388        1.4744041833        0.5174947101
 C         -2.7862782964        1.1854560772        0.3680662948
 C         -3.5411963784       -3.1938137085       -0.7136394996
 C         -4.1150504622       -4.2584391888       -0.0215183744
 C         -5.1248814206       -5.0244267793       -0.5846207768
 C         -5.5811275960       -4.7272278984       -1.8566799702
 H         -6.3682945659       -5.3183056711       -2.2974750800
 C         -5.0356028093       -3.6725319153       -2.5693689125
 C         -4.0273801415       -2.9196423606       -1.9964618936
 N          0.0640843424        2.0044947696        0.1066989021
 N          2.0123076482       -0.1244129247        0.2262918119
 C         -2.3194474462        2.5118888841        0.3365093281
 C         -0.9830771741        2.8727041321        0.1697974869
 C         -0.5178585479        4.2104051254       -0.0661392939
 H         -1.1397048219        5.0842275715       -0.0737847273
 C          0.8175136517        4.1311530715       -0.2817653267
 H          1.5043787056        4.9283594199       -0.4901378755
 C          1.1797167735        2.7439381786       -0.1631503472
 C          2.4716922006        2.2561046625       -0.2581097326
 C          2.8585212531        0.9099057579       -0.0341550451
 C          4.1976311807        0.4472443504       -0.0751632415
 H          5.0600841392        1.0531222681       -0.2724772355
 C          4.1584334918       -0.8999584183        0.1786878056
 H          4.9821812785       -1.5853561556        0.2250230624
 C          2.7916289604       -1.2461937161        0.3391948202
 C          3.5305518665        3.2132671766       -0.6489803879
 C          4.4386174425        3.7292919847        0.2739146305
 C          5.4153875050        4.6352568460       -0.1063291737
 C          5.4940685110        5.0358836912       -1.4292229953
 H          6.2512174813        5.7430784543       -1.7300629941
 C          4.6085709586        4.5385368796       -2.3696254263
 C          3.6362969465        3.6349767021       -1.9740097021
 Fe         0.0063028307       -0.0255514925        0.5806297698
 C         -3.3302961073        3.5902813288        0.3141196971
 C         -3.4825209851        4.4688811065        1.3863370751
 C         -4.1548909971        3.7730411986       -0.7973781336
 C         -4.4290609705        5.4805880909        1.3632991847
 C         -5.1054288258        4.7800011235       -0.8337473918
 H         -4.5251378028        6.1406562042        2.2098372103
 C         -5.2396638918        5.6283705805        0.2514290925
 H         -5.7251531981        4.8941528778       -1.7085734920
 H         -5.9796313205        6.4130847350        0.2263924788
 C          3.3389391785       -3.6394793585        0.4531944605
 C          3.9707335926       -3.9795316563        1.6481240760
 C          3.7198008941       -4.3184025764       -0.7029067589
 C          4.9417622726       -4.9668676936        1.6926737768
 C          4.6907062362       -5.3057963555       -0.6743737087
 H          5.4126526438       -5.2115127116        2.6310467748
 C          5.2970908333       -5.6255697588        0.5280255182
 H          4.9665660184       -5.8094494245       -1.5868779399
 H          6.0550557891       -6.3925627632        0.5570087137
 H         -5.5509269096       -5.8403113098       -0.0236071261
 H         -5.3825173461       -3.4310583571       -3.5613033765
 H          6.1009713452        5.0224133447        0.6300766521
 H          4.6657395334        4.8435397659       -3.4020640349
 Cl         3.5131318648       -3.1429844609        3.0886835632
 Cl         2.9713922453       -3.8926592821       -2.1999889289
 Cl        -2.4726576383        4.2680088194        2.7734096711
 Cl        -3.9620905801        2.7437626404       -2.1678992881
 Cl         4.3110527761        3.2317906514        1.9228693804
 Cl         2.5323642023        2.9997539462       -3.1395502521
 Cl        -3.5775960607       -4.5982688342        1.5845344224
 Cl        -3.3265487457       -1.6194317895       -2.8947782802
 Cl         0.0179982330        0.0439078115        2.7127825334
  78
       -160.31003582
 N         -0.0656728190       -2.0543428536        0.1187211815
 N         -2.0076046944        0.0575183975        0.1852350485
 C          2.3495511380       -2.4925699751        0.3897093871
 C          1.0068953117       -2.8827037513        0.0948277311
 C          0.6181144451       -4.1728175435       -0.3363509826
 H          1.2739183712       -5.0131951732       -0.4593468273
 C         -0.7299939727       -4.1125528261       -0.5935674396
 H         -1.3587880670       -4.9004466410       -0.9484573262
 C         -1.1482197815       -2.7915490995       -0.2798637063
 C         -2.4667891082       -2.3054558199       -0.3166422975
 C         -2.8414459275       -1.0034234984        0.0410213485
 C         -4.1980873667       -0.5913534660        0.2826189041
 H         -5.0468924225       -1.2475373930        0.2593221754
 C         -4.1664706479        0.7304095829        0.5753016414
 H         -4.9869041492        1.3696671828        0.8383255244
 C         -2.7959160228        1.1547644590        0.4449166497
 C         -3.5327297878       -3.1670235623       -0.8682465712
 C         -3.9818046650       -4.3414243873       -0.2610554052
 C         -4.9693599288       -5.1222701315       -0.8463686815
 C         -5.5302084610       -4.7312775763       -2.0503260294
 H         -6.2972204938       -5.3379734538       -2.5065699690
 C         -5.1164870694       -3.5632337662       -2.6700817604
 C         -4.1283412945       -2.7965949267       -2.0799950047
 N          0.0506562422        2.0146888630        0.0918023471
 N          1.9943569610       -0.0919645721        0.1374925650
 C         -2.3596381630        2.4611934486        0.4120420540
 C         -1.0219426031        2.8417190897        0.0739266002
 C         -0.6469778906        4.1193127519       -0.4062231639
 H         -1.3083453710        4.9541075358       -0.5342459029
 C          0.6953334501        4.0544168473       -0.6914239472
 H          1.3131067369        4.8304205397       -1.0978580519
 C          1.1224362455        2.7428955156       -0.3499510531
 C          2.4432673404        2.2646287065       -0.3933507035
 C          2.8252850106        0.9661316049       -0.0393932138
 C          4.1865963767        0.5567698407        0.1882301331
 H          5.0362705034        1.2096805743        0.1370984711
 C          4.1599248470       -0.7593902821        0.5005979290
 H          4.9845499269       -1.3947348987        0.7594661941
 C          2.7853353526       -1.1842935590        0.4009890172
 C          3.5016891790        3.1601065233       -0.8966849689
 C          3.8780442610        4.3408426323       -0.2539854393
 C          4.8584837236        5.1690900240       -0.7775421576
 C          5.4887149935        4.8202531967       -1.9587768288
 H          6.2524763973        5.4607190048       -2.3736516097
 C          5.1494569235        3.6487217508       -2.6147565423
 C          4.1663094294        2.8316031119       -2.0841856380
 Fe        -0.0017865702       -0.0177509162        0.5461990310
 C         -3.3146919360        3.5653295276        0.6154946529
 C         -3.1620133051        4.4216822691        1.7101352205
 C         -4.3639326718        3.8263285860       -0.2687399427
 C         -4.0295410227        5.4790332010        1.9288114818
 C         -5.2378369487        4.8808387956       -0.0613253982
 H         -3.8812414092        6.1175072423        2.7853839382
 C         -5.0682851842        5.7021861155        1.0404431505
 H         -6.0371043350        5.0497065544       -0.7616294280
 H         -5.7476486595        6.5272444167        1.2004835828
 C          3.3357701264       -3.5705072079        0.6009560980
 C          3.2657944974       -4.3687120794        1.7453309389
 C          4.3695778790       -3.8234247459       -0.3019798967
 C          4.2128873667       -5.3453816043        2.0037631471
 C          5.3225992308       -4.7975606171       -0.0553211729
 H          4.1365389392       -5.9316792201        2.9044717065
 C          5.2460211752       -5.5466421756        1.1056098457
 H          6.1128712063       -4.9596768062       -0.7707600437
 H          5.9937294190       -6.2971145768        1.3090168508
 H         -5.2958894946       -6.0266190343       -0.3560425340
 H         -5.5477398634       -3.2480163033       -3.6076946412
 H          5.1201992213        6.0774837335       -0.2600525096
 H          5.6345889476        3.3651374320       -3.5361224782
 Cl         1.9829549511       -4.0990256411        2.8662608200
 Cl         4.4438783809       -2.9204206956       -1.7738153961
 Cl        -1.8701726862        4.1278260664        2.8195021112
 Cl        -4.5486533938        2.8445974901       -1.6808859626
 Cl         3.1248479513        4.7564275225        1.2424101257
 Cl         3.7183234138        1.3949592796       -2.9424616316
 Cl        -3.3185212383       -4.7991139038        1.2665760010
 Cl        -3.5969860745       -1.3530191760       -2.8751779696
 Cl         0.0082537369       -0.0030111947        2.6796821496
  78
       -160.30995189
 N         -0.0786780355       -2.0792369021       -0.2320953634
 N         -1.9876233847        0.0490990314       -0.1985348434
 C          2.2985981640       -2.5305926419       -0.5716183260
 C          0.9696447292       -2.9236438344       -0.4164825228
 C          0.5080365068       -4.2837230308       -0.3317553642
 H          1.1178985427       -5.1529208508       -0.4675124820
 C         -0.8058397305       -4.2374824079       -0.0070739555
 H         -1.4724134291       -5.0584703587        0.1646221152
 C         -1.1848516414       -2.8489964361        0.0167029627
 C         -2.4592834739       -2.3493126065        0.2110186343
 C         -2.8392757857       -0.9943564493       -0.0368498754
 C         -4.1717834470       -0.5710548417       -0.2498153254
 H         -5.0382185687       -1.2013536562       -0.1928533198
 C         -4.1166609314        0.7689056665       -0.5544489127
 H         -4.9346924351        1.4224729740       -0.7865478888
 C         -2.7510973556        1.1455281345       -0.4971822957
 C         -3.5275023319       -3.2273298252        0.7249055021
 C         -3.9833927192       -3.0096573294        2.0302115098
 C         -4.9749816736       -3.7984056346        2.5874535513
 C         -5.5384792650       -4.8164770928        1.8368768633
 H         -6.3115723037       -5.4362158590        2.2657775325
 C         -5.1203271327       -5.0444125319        0.5364262257
 C         -4.1241842540       -4.2498415685       -0.0102359847
 N          0.1051161084        2.0008887357       -0.2757676814
 N          2.0210341039       -0.1049631201       -0.1699539314
 C         -2.2673374526        2.4600480039       -0.6409888099
 C         -0.9388074432        2.8456395726       -0.4814018642
 C         -0.4825769922        4.2057913492       -0.3834739975
 H         -1.1001057755        5.0719582739       -0.5215226716
 C          0.8321398824        4.1589795747       -0.0574528921
 H          1.5045535722        4.9767919718        0.1138632763
 C          1.2029825529        2.7689263742       -0.0050017534
 C          2.4840873643        2.2903789364        0.2038861522
 C          2.8799421836        0.9344554301        0.0189976483
 C          4.2148627334        0.4787824478       -0.0637375402
 H          5.0940476699        1.0783929614        0.0629803199
 C          4.1565840213       -0.8659568283       -0.3486088219
 H          4.9777255947       -1.5419092791       -0.4853169011
 C          2.7834915683       -1.2158852247       -0.4017209899
 C          3.5094927631        3.2554639815        0.6540220372
 C          3.5008289516        3.6791647909        1.9847276933
 C          4.4274381331        4.5957883302        2.4529654816
 C          5.3802994869        5.1006377769        1.5845300842
 H          6.1004271654        5.8190018319        1.9431441641
 C          5.4155929335        4.6975213337        0.2607639715
 C          4.4810001707        3.7811524560       -0.1935994321
 Fe         0.0135052926       -0.0338830495        0.1629481689
 C         -3.2834672329        3.5182536240       -0.8488059666
 C         -4.0231518334        4.0129345580        0.2250351694
 C         -3.5571135992        4.0313161453       -2.1140235524
 C         -5.0020319040        4.9771907499        0.0453767800
 C         -4.5354731646        4.9947006122       -2.3126004871
 H         -5.5564717677        5.3379915658        0.8966175786
 C         -5.2557769281        5.4628441667       -1.2274196642
 H         -4.7215845445        5.3645083883       -3.3075256000
 H         -6.0231722148        6.2084709832       -1.3713538269
 C          3.3122683167       -3.5547293690       -0.9062560315
 C          3.7691270623       -4.4943061464        0.0179578036
 C          3.8793736153       -3.5698788108       -2.1833139882
 C          4.7536364323       -5.4123290902       -0.3116093244
 C          4.8641988033       -4.4807821072       -2.5258591800
 H          5.0925848040       -6.1210092491        0.4287583085
 C          5.3008098180       -5.3981895558       -1.5840094225
 H          5.2865472036       -4.4634780337       -3.5184555972
 H          6.0803119589       -6.0994259464       -1.8389412701
 H         -5.2983150886       -3.6115161311        3.5990650992
 H         -5.5635759846       -5.8272129947       -0.0582392971
 H          4.3929542912        4.9135639958        3.4823885384
 H          6.1502032907        5.0941389837       -0.4190800267
 Cl         3.1179603124       -4.4788850259        1.6202152593
 Cl         3.3211713001       -2.4343604499       -3.3558482212
 Cl        -3.6865842344        3.3990048775        1.8054465514
 Cl        -2.6665367047        3.4305117226       -3.4703604663
 Cl         2.3060942401        3.0278522677        3.0516882052
 Cl         4.4869413986        3.2981088712       -1.8528059952
 Cl        -3.2589812931       -1.7451453467        2.9608412783
 Cl        -3.6408075075       -4.4976871736       -1.6520105246
 Cl        -0.0114171516       -0.0122517007        2.2949524792
  78
       -160.30989777
 N         -0.0908841945       -2.0587733618       -0.0777895961
 N         -2.0093067417        0.0763542174       -0.0893722732
 C          2.2596768769       -2.5252378666        0.3849707179
 C          0.9445451329       -2.9154175543        0.1480926847
 C          0.4852434094       -4.2657945762       -0.0126136038
 H          1.0879291488       -5.1440093310        0.1104116037
 C         -0.8164852736       -4.1977870569       -0.3896429759
 H         -1.4714347477       -5.0100882892       -0.6374193224
 C         -1.1886695160       -2.8075620499       -0.3762986849
 C         -2.4727033102       -2.3062927564       -0.5592848515
 C         -2.8564498877       -0.9553172151       -0.3447345554
 C         -4.1971048001       -0.5003010080       -0.2703418726
 H         -5.0705556815       -1.1026540472       -0.4251058079
 C         -4.1482941237        0.8344605826        0.0561423497
 H         -4.9784573818        1.4970910746        0.2069298182
 C         -2.7797617140        1.1856825313        0.1293710561
 C         -3.5384467290       -3.2443520181       -0.9656766981
 C         -4.0259049995       -4.2374641036       -0.1157273328
 C         -4.9962523371       -5.1354237623       -0.5345895378
 C         -5.5062503901       -5.0393895694       -1.8171078496
 H         -6.2577164368       -5.7385144832       -2.1500797229
 C         -5.0619015273       -4.0483018856       -2.6769434925
 C         -4.0887493669       -3.1620182859       -2.2469413965
 N          0.0611905652        2.0000153426       -0.2594254273
 N          1.9920868539       -0.1141797326       -0.0630178737
 C         -2.2738805226        2.5003438641        0.2531754724
 C         -0.9629998231        2.8693436355       -0.0334314987
 C         -0.4942176147        4.2148934727       -0.2207031094
 H         -1.1022045025        5.0927291552       -0.1164191793
 C          0.8116538793        4.1332366575       -0.5768843041
 H          1.4824110421        4.9383697330       -0.8096200420
 C          1.1663632066        2.7377304304       -0.5542823594
 C          2.4599286856        2.2396453908       -0.6541303076
 C          2.8426795668        0.9006499602       -0.3839786425
 C          4.1787204745        0.4286946064       -0.3525476162
 H          5.0481840865        1.0110290674       -0.5851539995
 C          4.1277238630       -0.8915497033        0.0282338957
 H          4.9492260133       -1.5681221558        0.1593907893
 C          2.7580348501       -1.2188508116        0.1802387593
 C          3.5361096062        3.2093021179       -0.9524272798
 C          4.3645528066        3.6969935176        0.0577526399
 C          5.3525548166        4.6299481327       -0.2061600659
 C          5.5285269134        5.0857956122       -1.5016572651
 H          6.2941392295        5.8147007820       -1.7149080505
 C          4.7260327315        4.6175837245       -2.5276239750
 C          3.7368496591        3.6897276014       -2.2452622614
 Fe        -0.0104887465       -0.0095241895        0.2833089185
 C         -3.2087178761        3.5688904441        0.6711351510
 C         -3.1881097728        3.9995987668        1.9975322431
 C         -4.1038915641        4.1798929383       -0.2037207971
 C         -4.0419688893        4.9967095523        2.4420845003
 C         -4.9614576928        5.1800153154        0.2263066089
 H         -4.0097734380        5.3079712964        3.4734864534
 C         -4.9265259833        5.5811846149        1.5513919180
 H         -5.6427195379        5.6373918278       -0.4733813020
 H         -5.5920737353        6.3584514885        1.8935942717
 C          3.2250515229       -3.5618290692        0.8132474869
 C          3.5138568930       -3.6957316326        2.1713879753
 C          3.8526286771       -4.4255047294       -0.0794017161
 C          4.3848929142       -4.6738256239        2.6273023322
 C          4.7290538049       -5.4058217363        0.3616392169
 H          4.5817951559       -4.7607371745        3.6834684937
 C          4.9864973144       -5.5261954864        1.7169469241
 H          5.1980631115       -6.0627447661       -0.3526347063
 H          5.6548141562       -6.2949922764        2.0664137800
 H         -5.3466925819       -5.8977004377        0.1433173226
 H         -5.4567527223       -3.9635422781       -3.6770133924
 H          5.9679831290        4.9996243995        0.5967419630
 H          4.8593792668        4.9683922508       -3.5375282866
 Cl         2.7442612766       -2.6180178021        3.2818695677
 Cl         3.5256441749       -4.2486178392       -1.7668668142
 Cl        -2.0751448019        3.2532977626        3.0899820972
 Cl        -4.1146202666        3.6788775301       -1.8563359528
 Cl         4.1166379718        3.1334256868        1.6733390158
 Cl         2.7271219775        3.0985236070       -3.5148313529
 Cl        -3.4224641652       -4.3239707324        1.5003584247
 Cl        -3.5124931988       -1.9409423207       -3.3231832002
 Cl        -0.0043121400        0.1061997189        2.4127217953
  78
       -160.30983281
 N         -0.0826096047       -2.0537105895       -0.1345449917
 N         -2.0252728232        0.0556385891       -0.0836197268
 C          2.3136451022       -2.4801103714        0.2385701713
 C          0.9750813146       -2.8907221291       -0.0580272783
 C          0.5700378134       -4.2135545199       -0.3582864731
 H          1.2111596360       -5.0736142083       -0.3814488482
 C         -0.7768914119       -4.1620233283       -0.6270349557
 H         -1.4263968410       -4.9726375392       -0.8942320703
 C         -1.1733504624       -2.8069759691       -0.4630385102
 C         -2.4887966973       -2.3201073296       -0.5059002034
 C         -2.8635520297       -1.0067709996       -0.2131290449
 C         -4.2181508138       -0.5855771078        0.0314792899
 H         -5.0738833860       -1.2315504339       -0.0076454657
 C         -4.1746510363        0.7265368705        0.3605311654
 H         -4.9890721889        1.3644949195        0.6419501869
 C         -2.8040159708        1.1497783042        0.2195782732
 C         -3.5573962340       -3.2699100211       -0.8950103292
 C         -4.3046558946       -3.9855036330        0.0360217968
 C         -5.3076802105       -4.8550186233       -0.3622459011
 C         -5.5692929874       -5.0182532502       -1.7120914035
 H         -6.3502334016       -5.6901202479       -2.0265629068
 C         -4.8383383523       -4.3256489351       -2.6612618724
 C         -3.8407154940       -3.4593554060       -2.2464446627
 N          0.0411257001        2.0126185294       -0.1959711105
 N          1.9786361316       -0.0890971491       -0.1624101683
 C         -2.3479338039        2.4501870449        0.2484634521
 C         -1.0270328204        2.8366009071       -0.1594921616
 C         -0.6602677995        4.1282407418       -0.6030212768
 H         -1.3216452725        4.9679893076       -0.6929477593
 C          0.6805679168        4.0750809649       -0.9025168689
 H          1.2966052349        4.8638989055       -1.2873664018
 C          1.1133362131        2.7542596371       -0.6084419429
 C          2.4388330842        2.2838015788       -0.6207389255
 C          2.8145125166        0.9708492632       -0.3143115872
 C          4.1713596642        0.5561168102       -0.0664765201
 H          5.0240750366        1.2061533294       -0.1052230713
 C          4.1353567352       -0.7579058165        0.2528456603
 H          4.9546956479       -1.3971273638        0.5183417132
 C          2.7616388825       -1.1805184358        0.1457828844
 C          3.5023726101        3.2581216632       -0.9283771254
 C          3.7475676475        4.3631968921       -0.1096288456
 C          4.7206254517        5.2966567478       -0.4267439650
 C          5.4766001444        5.1336919143       -1.5743089677
 H          6.2321990543        5.8607863959       -1.8272722947
 C          5.2716525734        4.0402799751       -2.3978968007
 C          4.2935749412        3.1163758059       -2.0713213924
 Fe        -0.0153335691       -0.0138453076        0.2639916927
 C         -3.1905123199        3.5506933982        0.7484546030
 C         -2.7910677983        4.1884290215        1.9297191518
 C         -4.3381489015        4.0245083972        0.1154812881
 C         -3.5138110149        5.2393836011        2.4646070304
 C         -5.0748586016        5.0716955044        0.6462204255
 H         -3.1755668453        5.7061038640        3.3760023734
 C         -4.6593636303        5.6743538963        1.8206066200
 H         -5.9606155743        5.4155216844        0.1360968361
 H         -5.2275800748        6.4931327458        2.2324110412
 C          3.2333790564       -3.5518391606        0.6684873327
 C          3.0410088316       -4.1336606713        1.9238789095
 C          4.2771658430       -4.0336292408       -0.1191269636
 C          3.8654965521       -5.1460303754        2.3846946320
 C          5.1074301214       -5.0485827733        0.3283719384
 H          3.6956000050       -5.5691107688        3.3613249891
 C          4.8978981785       -5.5983237341        1.5816299034
 H          5.9045520170       -5.4040123340       -0.3046029647
 H          5.5436380430       -6.3879134841        1.9319518041
 H         -5.8743130255       -5.3935687851        0.3798029158
 H         -5.0347354282       -4.4472084864       -3.7140565243
 H          4.8805114410        6.1391751928        0.2266836111
 H          5.8579972429        3.9007463640       -3.2916462986
 Cl         1.7577936112       -3.5421231655        2.9196251886
 Cl         4.5130126163       -3.3670726727       -1.6964505960
 Cl        -1.3767523226        3.6181924549        2.7441887401
 Cl        -4.8238814340        3.3254363350       -1.3940807921
 Cl         2.8447517424        4.5479566062        1.3525089773
 Cl         4.0216924155        1.7688513914       -3.1179489322
 Cl        -3.9564438864       -3.7696288915        1.7149995301
 Cl        -2.9203423819       -2.5793299321       -3.4120729614
 Cl         0.0321123216        0.0190718277        2.3966153801
  78
       -160.30982187
 N         -0.0860912638       -2.0809739051       -0.2651801074
 N         -2.0350745267        0.0219089549       -0.1862993515
 C          2.3043017719       -2.4919067847       -0.5362159967
 C          0.9837804854       -2.9068454229       -0.3469847693
 C          0.5611526104       -4.2705034658       -0.1421180240
 H          1.2137924503       -5.1218136237       -0.1625978708
 C         -0.7676002059       -4.2402244792        0.1097682694
 H         -1.4279245264       -5.0606746429        0.3157946295
 C         -1.1816385174       -2.8625875583        0.0100187365
 C         -2.4727163601       -2.3984965381        0.0854721658
 C         -2.8584172938       -1.0561266271       -0.2318676309
 C         -4.1460865478       -0.6720594073       -0.6662832857
 H         -4.9828162246       -1.3280217583       -0.8003392192
 C         -4.0931333446        0.6794476931       -0.9091513479
 H         -4.8783006984        1.3038168986       -1.2876313141
 C         -2.7857204930        1.1086943263       -0.5620409307
 C         -3.5478622521       -3.2837794377        0.5862885748
 C         -3.7499862721       -3.3416372366        1.9667130458
 C         -4.7707711899       -4.1014280670        2.5122217482
 C         -5.6087020063       -4.8133927307        1.6721298486
 H         -6.4131262324       -5.3962872998        2.0900384328
 C         -5.4246732597       -4.7828450225        0.3008743858
 C         -4.3944483505       -4.0233422643       -0.2308055510
 N          0.0168771071        2.0019565051       -0.0631770010
 N          1.9633071372       -0.0806320558       -0.1150798382
 C         -2.3497198348        2.4442055466       -0.4981656610
 C         -1.0562359739        2.8203713397       -0.1090285219
 C         -0.6774489147        4.1440922784        0.3136266620
 H         -1.3509013964        4.9747159392        0.4025086201
 C          0.6417538747        4.1020579414        0.6095560222
 H          1.2583251081        4.8924171918        0.9902761540
 C          1.0943702396        2.7655019714        0.3142486215
 C          2.4005119396        2.3282540502        0.2834967454
 C          2.7843238763        1.0029372531       -0.0922716094
 C          4.0850847472        0.6382954290       -0.5083323491
 H          4.9176471650        1.3075191924       -0.6043653133
 C          4.0524226837       -0.7093614413       -0.7700602489
 H          4.8538245140       -1.3286374684       -1.1227293810
 C          2.7306050578       -1.1493110266       -0.4960578810
 C          3.4803238375        3.2787708333        0.5962961777
 C          4.3369434659        3.0464816975        1.6766737841
 C          5.3352082249        3.9429095993        2.0171979495
 C          5.4956171685        5.0996046162        1.2733023657
 H          6.2627555384        5.8082343517        1.5413035984
 C          4.6788815224        5.3500322218        0.1842982304
 C          3.6898630378        4.4413013716       -0.1523829777
 Fe        -0.0430141986       -0.0586496620        0.2394930510
 C         -3.2682016937        3.5355463682       -0.8602146750
 C         -4.4692698478        3.7866800667       -0.1935184050
 C         -2.9306671499        4.4012441990       -1.9088023417
 C         -5.3045631487        4.8270568671       -0.5652098007
 C         -3.7478682346        5.4530714129       -2.2802400104
 H         -6.2264874046        4.9842893141       -0.0290230198
 C         -4.9411170399        5.6588349325       -1.6092567781
 H         -3.4459875699        6.0993938853       -3.0884413047
 H         -5.5833948259        6.4761225626       -1.8953653968
 C          3.3413854070       -3.5240828645       -0.7242103921
 C          4.3459968185       -3.7240419600        0.2263207829
 C          3.3618963578       -4.3327934472       -1.8621160355
 C          5.3319823274       -4.6796644974        0.0460587280
 C          4.3429955774       -5.2906628874       -2.0558911905
 H          6.0902785299       -4.8099962764        0.8014810046
 C          5.3287214029       -5.4574441185       -1.0987021339
 H          4.3334569683       -5.8905978325       -2.9512669817
 H          6.0981248906       -6.1989712236       -1.2453142659
 H         -4.9042707873       -4.1246385679        3.5812518465
 H         -6.0740952153       -5.3368852689       -0.3562673891
 H          5.9749174519        3.7327707658        2.8583706555
 H          4.8041307713        6.2409660661       -0.4079360576
 Cl         4.3352689365       -2.7794937812        1.6723638805
 Cl         2.1483709220       -4.1054524466       -3.0707831297
 Cl        -4.9012472925        2.8176369779        1.1737921278
 Cl        -1.4643238961        4.1414235541       -2.7876777739
 Cl         4.1133713487        1.6211708162        2.6293603590
 Cl         2.7283411814        4.7378615206       -1.5591584428
 Cl        -2.6972477022       -2.4245506353        2.9901972148
 Cl        -4.1429027813       -3.9843031116       -1.9405689790
 Cl        -0.0655936531       -0.1639459623        2.3699774660
  78
       -160.30981755
 N         -0.1036134009       -2.0217745998       -0.1089995803
 N         -2.0067741261        0.0823388853       -0.0596585860
 C          2.2581327555       -2.4587183485       -0.6061995820
 C          0.9135073204       -2.8490341328       -0.5007301493
 C          0.4025396303       -4.1607967126       -0.6824221685
 H          0.9685827844       -5.0100840304       -1.0121954734
 C         -0.9318233770       -4.1153503307       -0.3568138457
 H         -1.6432433610       -4.9172644656       -0.3736276832
 C         -1.2176010035       -2.7739470598       -0.0038301535
 C         -2.5153178710       -2.2732495745        0.3407286884
 C         -2.8717617346       -0.9409095641        0.2451351043
 C         -4.2113640634       -0.4182240562        0.3177946435
 H         -5.0819732181       -0.9809123102        0.5906306264
 C         -4.1476919389        0.8845378513       -0.0502528955
 H         -4.9545003205        1.5862833480       -0.1390389368
 C         -2.7629828040        1.1998182481       -0.2547538397
 C         -3.4922633490       -3.2827340841        0.7841094576
 C         -3.2611520697       -3.9521518006        1.9914581696
 C         -4.1388233940       -4.9108777802        2.4683431766
 C         -5.2706890614       -5.2206924313        1.7359627263
 H         -5.9628073947       -5.9612773745        2.1052788453
 C         -5.5178590031       -4.5927423720        0.5266103811
 C         -4.6273482489       -3.6415088707        0.0567338651
 N          0.0890474584        2.0454962286       -0.1267671074
 N          1.9907014158       -0.0568213559       -0.1424486309
 C         -2.2838858910        2.4760544367       -0.5543852685
 C         -0.9416786708        2.8734167709       -0.4743993241
 C         -0.4476726438        4.1978289123       -0.6243726655
 H         -1.0371581749        5.0474719421       -0.9075577469
 C          0.8916991773        4.1577099695       -0.3227136839
 H          1.5917517194        4.9700276096       -0.3226575590
 C          1.1985720181        2.8066986782       -0.0240910013
 C          2.5052352602        2.2992493286        0.2582286347
 C          2.8614000142        0.9712086200        0.1243474757
 C          4.2075619294        0.4611921480        0.1291654469
 H          5.0876947184        1.0362505490        0.3371814176
 C          4.1348546184       -0.8474922745       -0.2149537184
 H          4.9400317718       -1.5462852010       -0.3356187951
 C          2.7429112485       -1.1735931087       -0.3565536878
 C          3.4986640467        3.2903198989        0.7176410774
 C          3.3643267863        3.8051499040        2.0104975074
 C          4.2631635300        4.7289492690        2.5159130270
 C          5.3127839189        5.1599247044        1.7210059054
 H          6.0198462337        5.8747748034        2.1108388814
 C          5.4613487785        4.6818193357        0.4308497367
 C          4.5549607917        3.7551706947       -0.0614931596
 Fe         0.0005846209        0.0133476793        0.3017981617
 C         -3.2616045080        3.5074340420       -0.9759201402
 C         -3.8800502262        4.3696535149       -0.0742948564
 C         -3.5578427754        3.6572604073       -2.3290236066
 C         -4.7599031328        5.3506753332       -0.5071120532
 C         -4.4332480087        4.6317284530       -2.7790899495
 H         -5.2224717613        6.0090055632        0.2109122149
 C         -5.0297134841        5.4773668378       -1.8593381990
 H         -4.6360543504        4.7215886213       -3.8341550182
 H         -5.7078111453        6.2452559536       -2.2003708748
 C          3.2374299565       -3.5120008988       -0.9562593476
 C          3.6376698617       -4.4712340396       -0.0268144149
 C          3.7746269036       -3.5851621485       -2.2401822573
 C          4.5394707500       -5.4684937216       -0.3627208461
 C          4.6700820801       -4.5805694506       -2.5939814319
 H          4.8332511167       -6.1932375939        0.3795619931
 C          5.0485399589       -5.5190397675       -1.6487517528
 H          5.0589184279       -4.6151122879       -3.5986762119
 H          5.7463640079       -6.2969981373       -1.9170812706
 H         -3.9323908874       -5.4033780480        3.4051841992
 H         -6.3871521639       -4.8411500709       -0.0598821885
 H          4.1418203476        5.1004849359        3.5202853530
 H          6.2693271104        5.0250579251       -0.1936718045
 Cl         2.9996790989       -4.3905850796        1.5755216915
 Cl         3.2863216818       -2.4102995490       -3.4098203476
 Cl        -3.5237438155        4.1990628938        1.6070354281
 Cl        -2.7873637356        2.5941946462       -3.4576942397
 Cl         2.0572821716        3.2378679339        2.9894468359
 Cl         4.7146211697        3.1791218874       -1.6847595936
 Cl        -1.8592440533       -3.5410094201        2.9145335298
 Cl        -4.8992083727       -2.9192264713       -1.4914321135
 Cl         0.0482735315        0.0164584202        2.4348954963
  78
       -160.30977910
 N         -0.0891752273       -2.0427509281       -0.4120282523
 N         -2.0214689684        0.0735619835       -0.3615874628
 C          2.3032349367       -2.5153271515       -0.5954871280
 C          0.9663244890       -2.8934477612       -0.5185305297
 C          0.5004625049       -4.2529297267       -0.4323386155
 H          1.1261875403       -5.1198608179       -0.5238329566
 C         -0.8313937847       -4.1999020856       -0.1951764046
 H         -1.5203995109       -5.0114577485       -0.0611100487
 C         -1.1997427713       -2.8075527226       -0.1853386643
 C         -2.4815952501       -2.3268805774       -0.0004074740
 C         -2.8763112067       -0.9716411783       -0.1933326067
 C         -4.2153905872       -0.5253317531       -0.2761756622
 H         -5.0853757504       -1.1424154702       -0.1777107373
 C         -4.1659795467        0.8270020142       -0.5212721134
 H         -4.9892462637        1.5001974213       -0.6566889926
 C         -2.7961641273        1.1873145856       -0.5527563213
 C         -3.5065356724       -3.2616294368        0.5128446405
 C         -3.4984871856       -3.5689201214        1.8745837792
 C         -4.4494163988       -4.4075534544        2.4321448124
 C         -5.4256177333       -4.9566755359        1.6182673074
 H         -6.1704147566       -5.6113036607        2.0435526108
 C         -5.4507997999       -4.6818481899        0.2612491598
 C         -4.4935792873       -3.8389014053       -0.2811061582
 N          0.0778493290        2.0468465588       -0.4514876764
 N          1.9988152777       -0.0766558796       -0.3452314813
 C         -2.3175073198        2.5074364003       -0.6529358745
 C         -0.9836760941        2.8902435942       -0.5578019108
 C         -0.5341231979        4.2518314702       -0.4319398862
 H         -1.1678687456        5.1146248165       -0.5030822659
 C          0.7938398663        4.2068264168       -0.1743326795
 H          1.4597376746        5.0272300958        0.0069744106
 C          1.1808836234        2.8197573708       -0.2044858232
 C          2.4598677881        2.3337763344       -0.0149256347
 C          2.8486293237        0.9743482016       -0.2025125375
 C          4.1882200815        0.5388081862       -0.3082681639
 H          5.0533167071        1.1693773887       -0.2462313831
 C          4.1450015836       -0.8204755661       -0.5152003676
 H          4.9717346687       -1.4933965504       -0.6384557171
 C          2.7771005364       -1.1903081920       -0.5218832378
 C          3.5059686149        3.2497213741        0.4832569645
 C          3.9245143476        3.1207942176        1.8121675207
 C          4.8740078517        3.9733814027        2.3525616993
 C          5.4257718148        4.9697414374        1.5618883683
 H          6.1591192550        5.6427891987        1.9798843328
 C          5.0407684715        5.1103924972        0.2382966530
 C          4.0891930114        4.2509218497       -0.2910473413
 Fe        -0.0117637591        0.0057050786       -0.0307674912
 C         -3.3333796244        3.5864904915       -0.7088756015
 C         -3.7906686254        4.1810120898        0.4674332858
 C         -3.8525617388        4.0406748719       -1.9171541330
 C         -4.7285273737        5.2004883265        0.4405693457
 C         -4.7928422783        5.0594651028       -1.9604363599
 H         -5.0629006678        5.6452234577        1.3643666710
 C         -5.2253434841        5.6345469598       -0.7775353989
 H         -5.1764633219        5.3942572182       -2.9111358709
 H         -5.9523699502        6.4319659084       -0.8050471209
 C          3.3260863132       -3.5871723670       -0.5778466534
 C          3.6414233626       -4.2212709910        0.6246624305
 C          4.0168270170       -3.9767611799       -1.7223099634
 C          4.6147179778       -5.2052484297        0.6870596631
 C          4.9925176846       -4.9606021785       -1.6761135546
 H          4.8398597057       -5.6721942821        1.6322361601
 C          5.2878127091       -5.5678882250       -0.4674598720
 H          5.5112032139       -5.2440869903       -2.5789332269
 H          6.0499277967       -6.3308009323       -0.4258901837
 H         -4.4191367190       -4.6189138004        3.4886854095
 H         -6.2043145017       -5.1154529459       -0.3757555207
 H          5.1683980382        3.8562073567        3.3842911223
 H          5.4710525436        5.8788957391       -0.3851115026
 Cl         2.8025953562       -3.7403886455        2.0572602080
 Cl         3.6326362289       -3.2137766367       -3.2215270197
 Cl        -3.1522512012        3.6192125909        1.9725735643
 Cl        -3.2963005185        3.3125745843       -3.3800381470
 Cl         3.2021687134        1.8914073686        2.7915079478
 Cl         3.6268663612        4.3990548510       -1.9510663830
 Cl        -2.2588332501       -2.8705692241        2.8709972162
 Cl        -4.4960747242       -3.5044079279       -1.9752709325
 Cl        -0.0148724404        0.0290905324        2.1023875077
  78
       -160.30967816
 N         -0.0937504004       -2.0361102260        0.2321703471
 N         -2.0210944031        0.1059349706        0.2612653557
 C          2.2993870767       -2.5289112327        0.3892332752
 C          0.9640163639       -2.8940831433        0.2526727993
 C          0.5110863013       -4.2329493157        0.0011558105
 H          1.1492195409       -5.0947365681       -0.0349390238
 C         -0.8261720202       -4.1633075739       -0.2029834327
 H         -1.5020204793       -4.9609675648       -0.4411718263
 C         -1.2056162902       -2.7842172563       -0.0334173211
 C         -2.4961742235       -2.2918540259       -0.1307452336
 C         -2.8716472582       -0.9386532608        0.0868076910
 C         -4.2154911750       -0.4903863999        0.1361806837
 H         -5.0843729025       -1.1116993479        0.0448920802
 C         -4.1724947199        0.8676534103        0.3251386546
 H         -4.9979924399        1.5488608652        0.4008719590
 C         -2.8011411112        1.2282773721        0.3737872184
 C         -3.5583827080       -3.2118867303       -0.5876362595
 C         -4.0332899059       -4.2677557648        0.1856909882
 C         -4.9786008948       -5.1529608931       -0.3034982840
 C         -5.4606723916       -4.9904125721       -1.5899267056
 H         -6.1829556668       -5.6861873109       -1.9848949304
 C         -5.0244217924       -3.9406762854       -2.3781142509
 C         -4.0862990098       -3.0609219457       -1.8730880589
 N          0.0670064743        2.0528390880        0.1799170541
 N          1.9906729459       -0.0853816683        0.2599364590
 C         -2.3265540930        2.5494721915        0.3441423814
 C         -0.9915525478        2.9127041567        0.1885918762
 C         -0.5330542386        4.2476453628       -0.0700537935
 H         -1.1670043242        5.1131947188       -0.1061077109
 C          0.8035380334        4.1721820884       -0.2792203130
 H          1.4782506880        4.9681465502       -0.5211127692
 C          1.1797570919        2.7961782143       -0.0938531339
 C          2.4710178037        2.3036526459       -0.1781508629
 C          2.8441362799        0.9557025436        0.0859219246
 C          4.1858741670        0.5117530715        0.1740474511
 H          5.0552769616        1.1348455557        0.1009291149
 C          4.1407098522       -0.8440723813        0.3789542443
 H          4.9660949615       -1.5193252377        0.4929843403
 C          2.7709108109       -1.2071440061        0.3973915873
 C          3.5552314734        3.1841010961       -0.6541516933
 C          4.0617569239        4.2529599108        0.0865758504
 C          5.0891133718        5.0454512692       -0.3987303230
 C          5.6332215368        4.7735098719       -1.6411669847
 H          6.4315357366        5.3851740967       -2.0240770015
 C          5.1566116241        3.7153840534       -2.4013599700
 C          4.1297326081        2.9354002784       -1.9049158660
 Fe        -0.0152011392        0.0136419678        0.6136939242
 C         -3.3438208732        3.6257839136        0.3014152897
 C         -3.9264314617        4.1253464221        1.4644156910
 C         -3.7575137833        4.1542686492       -0.9191541765
 C         -4.8844760566        5.1256569603        1.4127094678
 C         -4.7153276161        5.1532940209       -0.9864880274
 H         -5.3200760876        5.4983460695        2.3259681329
 C         -5.2732262236        5.6351467675        0.1844915482
 H         -5.0160177235        5.5419358486       -1.9457730980
 H         -6.0200606493        6.4123743669        0.1414300515
 C          3.3307202409       -3.5910452338        0.3259583228
 C          3.7438265100       -4.2865922916        1.4592545756
 C          3.9455526239       -3.8934525414       -0.8876330845
 C          4.7491401555       -5.2378240628        1.3910964826
 C          4.9500857034       -4.8410539468       -0.9727822447
 H          5.0568845022       -5.7562285554        2.2850454123
 C          5.3506932229       -5.5044716072        0.1741652638
 H          5.4090834536       -5.0476386883       -1.9262706914
 H          6.1415992202       -6.2341019173        0.1205915889
 H         -5.3201397076       -5.9638648003        0.3184396899
 H         -5.3941372462       -3.8038959773       -3.3808852599
 H          5.4579210248        5.8606908926        0.1991217832
 H          5.5761136854        3.4877069659       -3.3683393996
 Cl         2.9927946519       -3.9224268337        2.9726540968
 Cl         3.4318508534       -3.0534212803       -2.3069545072
 Cl        -3.4276366691        3.4751368136        2.9827146807
 Cl        -3.0609587353        3.5279633894       -2.3710404527
 Cl         3.4179911468        4.5648247001        1.6604535334
 Cl         3.5241287829        1.6302695408       -2.8589975559
 Cl        -3.4445017142       -4.4569792989        1.7993186365
 Cl        -3.5215140459       -1.7644250236       -2.8627199455
 Cl        -0.0160260438       -0.0025408626        2.7483381415
  78
       -160.30960643
 N         -0.0991976528       -2.0482897531       -0.0327287974
 N         -2.0193568026        0.1001235041       -0.0588023324
 C          2.2557509860       -2.5254158693        0.3932470053
 C          0.9374029176       -2.9090887167        0.1911238276
 C          0.4609331148       -4.2605423357        0.0816693003
 H          1.0663336742       -5.1352859247        0.2204511871
 C         -0.8499237539       -4.1924495343       -0.2598328185
 H         -1.5269713406       -5.0037968887       -0.4454983637
 C         -1.2040422506       -2.7988197018       -0.2936003724
 C         -2.4819789552       -2.2911503164       -0.5006453803
 C         -2.8627682337       -0.9401330550       -0.3105134096
 C         -4.2036441755       -0.4839316046       -0.2828966568
 H         -5.0704423366       -1.0938816424       -0.4420677743
 C         -4.1626470814        0.8582523983        0.0158131482
 H         -4.9926397805        1.5272394981        0.1285879836
 C         -2.7963934001        1.2097777398        0.1197833361
 C         -3.5347547365       -3.2204281044       -0.9698545622
 C         -4.2136530526       -4.0947677254       -0.1238655302
 C         -5.1779645179       -4.9641957932       -0.6118852949
 C         -5.4775304386       -4.9617033798       -1.9636985687
 H         -6.2237323303       -5.6389308820       -2.3494485289
 C         -4.8292222899       -4.0943469298       -2.8272824446
 C         -3.8697217123       -3.2324153403       -2.3248099376
 N          0.0617891018        2.0289456874       -0.1322606732
 N          1.9803734731       -0.1053762320       -0.0085042969
 C         -2.2955925085        2.5263509437        0.2732518552
 C         -0.9719724406        2.8945402161        0.0585729993
 C         -0.4997447309        4.2417884237       -0.1046751327
 H         -1.1078397148        5.1209047735       -0.0125662664
 C          0.8148526624        4.1630560262       -0.4316264665
 H          1.4940219714        4.9649061843       -0.6467000687
 C          1.1708322567        2.7701506727       -0.4050691511
 C          2.4553194741        2.2607127699       -0.5513867347
 C          2.8317877480        0.9187336678       -0.3001691800
 C          4.1702451863        0.4554322394       -0.2523755466
 H          5.0432208112        1.0506195873       -0.4369045860
 C          4.1193960026       -0.8748273176        0.0909066001
 H          4.9384294463       -1.5540751131        0.2246520562
 C          2.7493098115       -1.2107481241        0.2153926344
 C          3.5377571082        3.1885221638       -0.9506508718
 C          4.1803411385        4.0135186537       -0.0302747839
 C          5.2087072970        4.8585758674       -0.4142001237
 C          5.6053276268        4.8870630933       -1.7403513946
 H          6.4094398660        5.5399216620       -2.0439525106
 C          4.9792038036        4.0861640882       -2.6797047072
 C          3.9543382258        3.2460247375       -2.2784347780
 Fe        -0.0236332195        0.0011604513        0.3338846314
 C         -3.2410782081        3.5832274969        0.6938948210
 C         -3.2311744332        3.9868610110        2.0303322447
 C         -4.1459886577        4.1984439653       -0.1662262747
 C         -4.0982983004        4.9632246025        2.4938276426
 C         -5.0220290383        5.1748871276        0.2830383725
 H         -4.0708675274        5.2523006701        3.5322015181
 C         -4.9914748810        5.5517467429        1.6151923393
 H         -5.7140155258        5.6308483654       -0.4076683772
 H         -5.6700646822        6.3100924091        1.9728034987
 C          3.2482806198       -3.5657165114        0.7489343512
 C          3.5934234635       -3.7492705511        2.0873348365
 C          3.8691677476       -4.3667390189       -0.2047924259
 C          4.5258949542       -4.7014643008        2.4648338441
 C          4.8078210367       -5.3198593893        0.1568115364
 H          4.7724771646       -4.8249210679        3.5066473473
 C          5.1308077439       -5.4808487138        1.4933358482
 H          5.2788371537       -5.9233519011       -0.6020097938
 H          5.8619222993       -6.2208990332        1.7791606528
 H         -5.6875686176       -5.6327965024        0.0627948256
 H         -5.0589044535       -4.0853295481       -3.8810055006
 H          5.6880785176        5.4824719652        0.3224553260
 H          5.2752447569        4.1079426351       -3.7157803947
 Cl         2.8196431863       -2.7605387223        3.2755617646
 Cl         3.4589485036       -4.1446636884       -1.8673114852
 Cl        -2.1207978046        3.2232391229        3.1119549836
 Cl        -4.1574876868        3.7338046502       -1.8336741422
 Cl         3.6741502313        3.9568991920        1.6218551262
 Cl         3.1578421829        2.2428326296       -3.4401024683
 Cl        -3.8392215882       -4.0741797827        1.5629959035
 Cl        -3.0428092425       -2.1502844523       -3.3871946122
 Cl        -0.0537631660        0.0527331130        2.4673565787
  78
       -160.30958130
 N         -0.0725862391       -2.0153383286        0.1027000544
 N         -2.0049455890        0.1246676537        0.2260733213
 C          2.2990141489       -2.5426037572        0.3826101271
 C          0.9692128132       -2.8955833172        0.2156305867
 C          0.4905844733       -4.2307444649       -0.0021353342
 H          1.1005376909       -5.1128397535        0.0339834751
 C         -0.8338295139       -4.1345459595       -0.2778676961
 H         -1.5202565937       -4.9295036433       -0.4958093727
 C         -1.1788699547       -2.7409047388       -0.1971866771
 C         -2.4734132836       -2.2381977651       -0.3269762119
 C         -2.8548051209       -0.9008686644       -0.0775017209
 C         -4.1894082530       -0.4206247843       -0.1280785475
 H         -5.0551592447       -1.0074116859       -0.3624191852
 C         -4.1423164185        0.9178795962        0.1720057117
 H         -4.9649726471        1.6028582552        0.2355382233
 C         -2.7777685781        1.2465437789        0.3571531155
 C         -3.5082634523       -3.1886594153       -0.7792300894
 C         -4.5300923839       -3.6426557917        0.0545940784
 C         -5.4773609358       -4.5504128637       -0.3887358369
 C         -5.4102567241       -5.0264571166       -1.6860121931
 H         -6.1402539787       -5.7385492810       -2.0356631903
 C         -4.4044133940       -4.6022723559       -2.5388718798
 C         -3.4677073691       -3.6931465601       -2.0820975559
 N          0.0876975022        2.0621501013        0.2310516446
 N          2.0012326572       -0.0971394157        0.2201859496
 C         -2.2908223105        2.5683443201        0.4718588352
 C         -0.9595372856        2.9331488412        0.3505312924
 C         -0.4867548506        4.2762913073        0.1637343322
 H         -1.1001025383        5.1549293137        0.2220178699
 C          0.8345681507        4.1918010401       -0.1276448919
 H          1.5137987988        4.9889069145       -0.3564382109
 C          1.1909027755        2.7994702199       -0.0564293207
 C          2.4735500029        2.2876008558       -0.2328587770
 C          2.8489641497        0.9427352820       -0.0150164280
 C          4.1928663926        0.4872089279        0.0027052715
 H          5.0608112454        1.1008109076       -0.1369473529
 C          4.1498034752       -0.8621754216        0.2507830475
 H          4.9746883559       -1.5421818487        0.3412374200
 C          2.7809819290       -1.2153829687        0.3451854758
 C          3.5110875584        3.1925713977       -0.7706473680
 C          4.1133128424        4.2033749965       -0.0239864442
 C          5.0384914656        5.0668935301       -0.5911340174
 C          5.3792571785        4.9234991853       -1.9252573634
 H          6.0909820227        5.5991812917       -2.3731572263
 C          4.8125130350        3.9159045630       -2.6894552479
 C          3.8896066951        3.0630374002       -2.1083316669
 Fe        -0.0011651889        0.0100389169        0.5882780552
 C         -3.3016094245        3.6506508256        0.5373231445
 C         -3.7392445055        4.1549379634        1.7597305274
 C         -3.8465240234        4.1908685516       -0.6255017416
 C         -4.6954268752        5.1557523393        1.8226192443
 C         -4.8013093999        5.1928189328       -0.5806056888
 H         -5.0210223943        5.5266754481        2.7806430895
 C         -5.2240981539        5.6680754606        0.6497607367
 H         -5.2068003141        5.5918438843       -1.4959583856
 H         -5.9707078967        6.4453787831        0.6943600304
 C          3.2967807215       -3.6362799651        0.4200546344
 C          3.5643843399       -4.3354745710        1.5940430376
 C          3.9821999441       -4.0105204046       -0.7344680977
 C          4.4821916729       -5.3738178321        1.6208997822
 C          4.9062813066       -5.0426934333       -0.7235906760
 H          4.6701055665       -5.8992980053        2.5438570970
 C          5.1478823818       -5.7245902596        0.4580006975
 H          5.4215910516       -5.3062964785       -1.6327669312
 H          5.8684959349       -6.5313787966        0.4717876206
 H         -6.2491499369       -4.8864859086        0.2837512232
 H         -4.3435498817       -4.9741466834       -3.5478638662
 H          5.4821860569        5.8435533569        0.0119414653
 H          5.0732466788        3.7939355474       -3.7287792729
 Cl         2.7395997563       -3.8697052406        3.0386919825
 Cl         3.6561476987       -3.1682884613       -2.2056993357
 Cl        -3.0582353858        3.5028283700        3.2090589399
 Cl        -3.3045594368        3.5843163784       -2.1508831372
 Cl         3.7006696319        4.3624041328        1.6481037874
 Cl         3.1592743524        1.8176381493       -3.0602281542
 Cl        -4.5772263517       -3.0928504043        1.6924403625
 Cl        -2.2202214173       -3.1534942406       -3.1520529006
 Cl        -0.0080425786       -0.0271175106        2.7194536837
  78
       -160.30957115
 N         -0.0879391520       -2.0480477872        0.2595298806
 N         -2.0120185007        0.1057520228        0.1944082069
 C          2.2937918266       -2.5535449068        0.4443981064
 C          0.9552957952       -2.9181121495        0.3748182954
 C          0.4752838828       -4.2673334336        0.2649020352
 H          1.0857452781       -5.1451017608        0.3531650697
 C         -0.8559819252       -4.1915434960        0.0199934239
 H         -1.5511677179       -4.9939419419       -0.1343705967
 C         -1.2030033299       -2.7972980183        0.0258917327
 C         -2.4809156741       -2.2964752993       -0.1708624029
 C         -2.8564442399       -0.9426681323       -0.0302763521
 C         -4.1966614364       -0.4859074426       -0.0908533681
 H         -5.0571298238       -1.1061720722       -0.2500455323
 C         -4.1605038638        0.8712700497        0.1074641677
 H         -4.9885261133        1.5518275585        0.1393953223
 C         -2.7954402907        1.2263721000        0.2475144760
 C         -3.5193220314       -3.2373895042       -0.6522327042
 C         -4.3217712756       -3.9925650043        0.1970268462
 C         -5.2668346840       -4.8735837348       -0.3055336338
 C         -5.4161415394       -5.0038824259       -1.6754951871
 H         -6.1474463172       -5.6915909707       -2.0699798184
 C         -4.6361198802       -4.2613831810       -2.5441630344
 C         -3.6969835952       -3.3849774251       -2.0265737671
 N          0.0645317047        2.0430563976        0.1540556146
 N          1.9970959659       -0.1033705082        0.2742549587
 C         -2.3200115615        2.5547734158        0.3023128652
 C         -0.9801617202        2.9158864612        0.2237166191
 C         -0.4996571113        4.2588826633        0.0555879732
 H         -1.1141011603        5.1378992584        0.0778934669
 C          0.8384976509        4.1749027298       -0.1482102509
 H          1.5370622856        4.9712696307       -0.3188586549
 C          1.1866882145        2.7829834382       -0.0759731586
 C          2.4761228705        2.2816303699       -0.1849332544
 C          2.8493790330        0.9326251778        0.0132054050
 C          4.1832869272        0.4597311094       -0.0528453502
 H          5.0503446325        1.0590262024       -0.2499572718
 C          4.1363887608       -0.8922078905        0.1787968610
 H          4.9568498889       -1.5826119105        0.2029014537
 C          2.7719156074       -1.2280246666        0.3571969822
 C          3.5486426279        3.2201121261       -0.5857497026
 C          4.4709563182        3.7312065486        0.3241485732
 C          5.4842062059        4.5866474248       -0.0798100997
 C          5.5849403011        4.9381403031       -1.4147520748
 H          6.3752984667        5.5983471123       -1.7367969552
 C          4.6808187798        4.4502748511       -2.3423179340
 C          3.6710010260        3.6009426799       -1.9219726881
 Fe        -0.0144192335        0.0079941587        0.5998488650
 C         -3.3319126905        3.6342868928        0.2674004122
 C         -3.6433873683        4.3774325323        1.4041273268
 C         -4.0055565787        3.9395976682       -0.9148087039
 C         -4.6009584894        5.3794010120        1.3703125964
 C         -4.9631561412        4.9388487052       -0.9650932890
 H         -4.8253988262        5.9331613105        2.2672874870
 C         -5.2584342020        5.6527965645        0.1835207265
 H         -5.4641801570        5.1486129456       -1.8965139649
 H         -6.0058107234        6.4306700625        0.1512804049
 C          3.3045394790       -3.6342462055        0.3715153447
 C          4.0188703061       -4.0606007155        1.4880367258
 C          3.5771213119       -4.2457483790       -0.8523765563
 C          4.9737838556       -5.0615192891        1.3917768164
 C          4.5272305117       -5.2468916796       -0.9635403998
 H          5.5127222144       -5.3714769176        2.2720855231
 C          5.2230839366       -5.6492949957        0.1634360839
 H          4.7162467342       -5.6975294415       -1.9247104023
 H          5.9668633773       -6.4256019894        0.0820735422
 H         -5.8750467893       -5.4485721246        0.3734203980
 H         -4.7458988707       -4.3550688264       -3.6121506120
 H          6.1826998480        4.9674306640        0.6473017387
 H          4.7545638035        4.7173740009       -3.3841476158
 Cl         3.6880165542       -3.3189843518        3.0109569465
 Cl         2.7146728618       -3.7209701257       -2.2537394713
 Cl        -2.8179026356        4.0180741604        2.8784862849
 Cl        -3.6139594278        3.0567438869       -2.3470400775
 Cl         4.3250407958        3.2861501001        1.9866288037
 Cl         2.5426926666        2.9753400703       -3.0695179362
 Cl        -4.1182026309       -3.8120438858        1.9016321285
 Cl        -2.7114156657       -2.4521132348       -3.0913729785
 Cl        -0.0567999699        0.0720388515        2.7319277164
  78
       -160.30956684
 N         -0.1026473969       -2.0029836192       -0.1265252459
 N         -2.0088883054        0.0910983505        0.0008515970
 C          2.2743504413       -2.4314970470       -0.5492552656
 C          0.9252901937       -2.8197171077       -0.5091325176
 C          0.4265998382       -4.1299181637       -0.7323511654
 H          1.0080607931       -4.9711817178       -1.0576141859
 C         -0.9161014135       -4.0956788706       -0.4419035803
 H         -1.6198486303       -4.9046164557       -0.4925362899
 C         -1.2160917356       -2.7646285423       -0.0612399642
 C         -2.5171058524       -2.2801845652        0.2916821303
 C         -2.8692029874       -0.9425527631        0.2722000249
 C         -4.2072777076       -0.4204635587        0.3981817532
 H         -5.0724875687       -0.9931283313        0.6690507161
 C         -4.1477142992        0.8954931157        0.0777785217
 H         -4.9529019925        1.6035738520        0.0362441977
 C         -2.7656355978        1.2137351108       -0.1479247971
 C         -3.5017435234       -3.3113476911        0.6563866250
 C         -3.2684598957       -4.0957486358        1.7949273070
 C         -4.1654170114       -5.0700439353        2.1986826054
 C         -5.3197269741       -5.2791303746        1.4651039504
 H         -6.0267621313       -6.0263728160        1.7841649067
 C         -5.5664467165       -4.5399842423        0.3206863256
 C         -4.6540200036       -3.5792677908       -0.0836194844
 N          0.0872918064        2.0637187796       -0.0259523235
 N          1.9981115410       -0.0402899795       -0.0537885416
 C         -2.2903534716        2.4929895283       -0.4410375403
 C         -0.9473850322        2.8929194592       -0.3639039802
 C         -0.4591706375        4.2182167820       -0.5094379943
 H         -1.0494717364        5.0722228288       -0.7785059514
 C          0.8844853096        4.1767245823       -0.2233697433
 H          1.5810261595        4.9929657889       -0.2273699265
 C          1.1982757884        2.8262538605        0.0658603182
 C          2.5109251242        2.3215509643        0.3274313094
 C          2.8622638754        0.9887776980        0.2215006501
 C          4.2077781924        0.4733554599        0.2686315672
 H          5.0781080809        1.0524062843        0.5081189421
 C          4.1423156697       -0.8376804014       -0.0647700683
 H          4.9486202294       -1.5403222716       -0.1527110798
 C          2.7532834170       -1.1586777092       -0.2466918938
 C          3.5381910848        3.3213127432        0.6737443614
 C          3.4768218248        3.9677621235        1.9104289807
 C          4.4282132552        4.8996967414        2.2870467133
 C          5.4582215257        5.2084204853        1.4147938613
 H          6.2054727483        5.9301180501        1.7044091068
 C          5.5362064515        4.5994765318        0.1746225456
 C          4.5781634757        3.6676916666       -0.1880306878
 Fe        -0.0004631521        0.0194101607        0.3479408628
 C         -3.2713670962        3.5077006987       -0.8996390331
 C         -3.9020485606        4.4007197474       -0.0392008079
 C         -3.5660734244        3.5890203371       -2.2594830109
 C         -4.7899519306        5.3523513454       -0.5167029763
 C         -4.4463145419        4.5362555182       -2.7523067069
 H         -5.2638243281        6.0315534908        0.1727613631
 C         -5.0532149583        5.4163841538       -1.8739317575
 H         -4.6435758166        4.5792621782       -3.8041967896
 H         -5.7387916094        6.1587114677       -2.2512312521
 C          3.2445995183       -3.4972741228       -0.8943530643
 C          3.7850124360       -4.3323005237        0.0799168094
 C          3.5862876389       -3.7335489573       -2.2239272278
 C          4.6263886969       -5.3788223956       -0.2586821041
 C          4.4224963455       -4.7779826539       -2.5792055410
 H          5.0259726555       -6.0133845849        0.5149775220
 C          4.9337308527       -5.5996267200       -1.5893218409
 H          4.6543858445       -4.9448731187       -3.6176852917
 H          5.5749646269       -6.4219695220       -1.8612933119
 H         -3.9548318587       -5.6504891135        3.0835339182
 H         -6.4545296934       -4.7070756738       -0.2683596929
 H          4.3595507347        5.3754737327        3.2517402415
 H          6.3287818142        4.8478002059       -0.5130632620
 Cl         3.3682542799       -4.0471047765        1.7311248543
 Cl         2.9245669277       -2.7009098255       -3.4400131032
 Cl        -3.5538143863        4.3028524993        1.6510070937
 Cl        -2.7927721159        2.4869464165       -3.3399294474
 Cl         2.1933959459        3.5569841089        2.9924892303
 Cl         4.6501732489        2.9380644135       -1.7538923143
 Cl        -1.8527594822       -3.8016599927        2.7382638140
 Cl        -4.9397212299       -2.7227510594       -1.5539412783
 Cl         0.0279381430       -0.0349989780        2.4819625835
  78
       -160.30953878
 N         -0.0925086309       -2.0455229374       -0.4352556169
 N         -2.0266992503        0.0695541617       -0.3805642322
 C          2.3023811966       -2.5204850641       -0.5939296928
 C          0.9654736632       -2.8980470406       -0.5252253577
 C          0.5003501032       -4.2557106382       -0.4283602073
 H          1.1257296278       -5.1240126984       -0.5068478311
 C         -0.8338958616       -4.2005723819       -0.2041661923
 H         -1.5210248628       -5.0133765383       -0.0687510008
 C         -1.2018472687       -2.8086425225       -0.2072023804
 C         -2.4871378570       -2.3303841684       -0.0267288887
 C         -2.8836532712       -0.9758531671       -0.2155306997
 C         -4.2223126650       -0.5251179353       -0.2824863734
 H         -5.0943757954       -1.1389082468       -0.1753913311
 C         -4.1714060621        0.8287849037       -0.5148991656
 H         -4.9944557547        1.5052969552       -0.6389372762
 C         -2.8012316363        1.1863606395       -0.5515750393
 C         -3.4992295406       -3.2714878226        0.4987013543
 C         -3.4374814646       -3.6149535079        1.8519475710
 C         -4.3674624056       -4.4694993671        2.4204382871
 C         -5.3762229434       -4.9966025611        1.6330603109
 H         -6.1053971006       -5.6594348846        2.0718562678
 C         -5.4560591293       -4.6831278511        0.2871554535
 C         -4.5181112912       -3.8275966850       -0.2687624121
 N          0.0755067917        2.0472267477       -0.4942430291
 N          1.9976501605       -0.0775793229       -0.3886670586
 C         -2.3250266515        2.5082375427       -0.6416656134
 C         -0.9910134694        2.8910030141       -0.5596371646
 C         -0.5452258014        4.2496109393       -0.3973269335
 H         -1.1847521314        5.1105239694       -0.4204455389
 C          0.7870128148        4.2027564643       -0.1661377153
 H          1.4514721470        5.0216438172        0.0307034508
 C          1.1781598883        2.8176244998       -0.2449189261
 C          2.4622658042        2.3354928639       -0.0789378420
 C          2.8487739426        0.9750543541       -0.2679322901
 C          4.1877705242        0.5372291458       -0.3685720129
 H          5.0537758812        1.1682679113       -0.3263178555
 C          4.1443575407       -0.8263169986       -0.5452358028
 H          4.9709384960       -1.5024581121       -0.6504671124
 C          2.7765345494       -1.1950304071       -0.5421208873
 C          3.5048978649        3.2510337554        0.4250198350
 C          3.9376789264        3.0956251586        1.7452771459
 C          4.8759175214        3.9500208636        2.2982138299
 C          5.4023095429        4.9726387961        1.5275857687
 H          6.1307818079        5.6437345549        1.9549015315
 C          5.0028671481        5.1418933659        0.2129547760
 C          4.0594915366        4.2833157322       -0.3288845082
 Fe        -0.0129947059        0.0059995020       -0.0706682804
 C         -3.3330623463        3.5949459471       -0.6722312388
 C         -3.9223001663        4.0439784283        0.5089571525
 C         -3.6960472663        4.2185933076       -1.8621070244
 C         -4.8388739810        5.0820214341        0.5057509505
 C         -4.6129388979        5.2568862614       -1.8824909973
 H         -5.2740138347        5.4133007243        1.4349087558
 C         -5.1785117827        5.6846801008       -0.6937874954
 H         -4.8746772909        5.7231872791       -2.8187662969
 H         -5.8886835950        6.4970775627       -0.7008171731
 C          3.3208915059       -3.5952752956       -0.5317984560
 C          3.6201286913       -4.1845499751        0.6964900129
 C          4.0187017910       -4.0342287477       -1.6530115847
 C          4.5826920890       -5.1743766212        0.8069292638
 C          4.9833101135       -5.0253675294       -1.5590660591
 H          4.7927721748       -5.6075215152        1.7720872847
 C          5.2615071554       -5.5882173896       -0.3260443570
 H          5.5080926536       -5.3475327182       -2.4441612401
 H          6.0145003265       -6.3574011554       -0.2470287019
 H         -4.2960375974       -4.7107880283        3.4685351653
 H         -6.2360151575       -5.0973528317       -0.3311430072
 H          5.1807813513        3.8152253320        3.3233459474
 H          5.4160314826        5.9332978089       -0.3919000510
 Cl         2.7698363876       -3.6426121815        2.1016222284
 Cl         3.6589407396       -3.3196357843       -3.1832567686
 Cl        -3.4678568974        3.2867016500        1.9947590053
 Cl        -2.9752571118        3.6729907625       -3.3337503212
 Cl         3.2463972415        1.8316042555        2.7016699538
 Cl         3.5692687358        4.4698422827       -1.9727966199
 Cl        -2.1823284936       -2.9346051654        2.8273415559
 Cl        -4.5875435509       -3.4548210428       -1.9559032289
 Cl        -0.0060551506        0.0397995207        2.0630029149
  78
       -160.30943616
 N         -0.0724537455       -2.0461470979       -0.2710529131
 N         -1.9983920389        0.0718452837       -0.3306632224
 C          2.3046816615       -2.5223563538       -0.5770105022
 C          0.9704741448       -2.8985069329       -0.4479918941
 C          0.4956841592       -4.2536920107       -0.3695646901
 H          1.1062984200       -5.1243722595       -0.5034359777
 C         -0.8259974427       -4.1949525128       -0.0731301608
 H         -1.5112124211       -5.0061987479        0.0754522826
 C         -1.1807768853       -2.8023430433       -0.0266552487
 C         -2.4634310172       -2.3055063217        0.1539291307
 C         -2.8542386176       -0.9579322090       -0.0704571358
 C         -4.1907934336       -0.4956348653       -0.1165458965
 H         -5.0674850070       -1.0847802682        0.0679966268
 C         -4.1371656350        0.8387530107       -0.4409260553
 H         -4.9611896933        1.5125732960       -0.5722582145
 C         -2.7659276820        1.1797620899       -0.5564985474
 C         -3.5080637525       -3.2387938180        0.6229933534
 C         -3.5137643467       -3.6401534234        1.9597147065
 C         -4.4983344534       -4.4755216522        2.4582952034
 C         -5.5020885035       -4.9220851435        1.6133707139
 H         -6.2769899088       -5.5667848866        1.9971983202
 C         -5.5165836311       -4.5527913712        0.2790398420
 C         -4.5196532485       -3.7210810461       -0.2052350370
 N          0.1081438370        2.0344119859       -0.4946301258
 N          2.0148024135       -0.0823889966       -0.3050201704
 C         -2.2833111024        2.4931922988       -0.7475640185
 C         -0.9469221412        2.8754410985       -0.6819544722
 C         -0.4860531531        4.2366365294       -0.6405351148
 H         -1.1043840432        5.0991280363       -0.8004793533
 C          0.8331956276        4.1986847172       -0.3315331510
 H          1.4972521968        5.0274027137       -0.1873953025
 C          1.2065401889        2.8118343173       -0.2571912414
 C          2.4754591628        2.3259076182        0.0184173898
 C          2.8662974640        0.9625920597       -0.1228297935
 C          4.2041895307        0.5132230338       -0.1818781237
 H          5.0737456001        1.1254596836       -0.0602787621
 C          4.1556481446       -0.8414573907       -0.4190517960
 H          4.9815649906       -1.5181930092       -0.5362462553
 C          2.7870944866       -1.1987552484       -0.4774152159
 C          3.4888034430        3.2442012117        0.5763806096
 C          3.7951722142        3.1191735870        1.9365799848
 C          4.7155065823        3.9527329570        2.5467552071
 C          5.3425561741        4.9365027826        1.8006063467
 H          6.0642369728        5.5824323685        2.2692246079
 C          5.0586946562        5.0857284648        0.4529041048
 C          4.1407279546        4.2374830938       -0.1480476861
 Fe         0.0075635905        0.0160796714        0.0160771110
 C         -3.3061364485        3.5593365704       -0.8464574428
 C         -3.6219339043        4.3393429971        0.2686166344
 C         -4.0077019809        3.7949381251       -2.0258763131
 C         -4.6032442388        5.3150468977        0.2096634943
 C         -4.9950754018        4.7669796098       -2.0995989325
 H         -4.8283290117        5.8940162278        1.0894978253
 C         -5.2861332756        5.5227268327       -0.9769844352
 H         -5.5215256501        4.9225895567       -3.0274509006
 H         -6.0584083166        6.2760477126       -1.0254906939
 C          3.3277555060       -3.5874972695       -0.6790139524
 C          3.7155731192       -4.3091744324        0.4508252106
 C          3.9624809284       -3.8761408171       -1.8837962790
 C          4.7066722138       -5.2741864397        0.3849029278
 C          4.9541491048       -4.8401811994       -1.9669095517
 H          4.9894408374       -5.8066572311        1.2780134369
 C          5.3250897396       -5.5320776763       -0.8267245397
 H          5.4315426717       -5.0395470107       -2.9126909733
 H          6.1035540121       -6.2751849440       -0.8837477591
 H         -4.4778029187       -4.7651002351        3.4972535136
 H         -6.2903379537       -4.9066666963       -0.3853844527
 H          4.9356902440        3.8277050520        3.5939678284
 H          5.5464240338        5.8489867408       -0.1331065027
 Cl         2.9504667198       -3.9568197560        1.9578442010
 Cl         3.4873482027       -3.0062926086       -3.2986286126
 Cl        -2.7776431621        4.0481860454        1.7491593045
 Cl        -3.6274081299        2.8439510638       -3.4168713987
 Cl         2.9662570053        1.9110441476        2.8610310267
 Cl         3.8189478197        4.3953800861       -1.8411508176
 Cl        -2.2563652093       -3.0653555973        3.0034910823
 Cl        -4.4998990892       -3.2846309190       -1.8771686376
 Cl        -0.0224617568        0.1416062389        2.1447601327
  78
       -160.30943263
 N         -0.0975599781       -2.0506103997        0.2194488745
 N         -2.0230856948        0.0958619662        0.2837203630
 C          2.2955916883       -2.5592819183        0.2235969658
 C          0.9522453993       -2.9256072560        0.3003621704
 C          0.4590567576       -4.2646553047        0.3441149600
 H          1.0624231896       -5.1451127112        0.4494008035
 C         -0.8985129269       -4.1868066469        0.2230952689
 H         -1.6095339904       -4.9898173339        0.2088778882
 C         -1.2218262944       -2.8026782747        0.1423264694
 C         -2.5297095775       -2.2958632675       -0.0184278914
 C         -2.8835429781       -0.9587935468        0.0889970613
 C         -4.2255198499       -0.4739321535       -0.0217087863
 H         -5.0908514595       -1.0893253982       -0.1706921564
 C         -4.1689012554        0.8781300540        0.1110364565
 H         -4.9803508210        1.5794982241        0.0966564334
 C         -2.7911347333        1.2212322098        0.2680149921
 C         -3.5535337556       -3.2649884817       -0.4690808422
 C         -4.5378979109       -3.7962454639        0.3600561998
 C         -5.4739693881       -4.6977743865       -0.1241188294
 C         -5.4348272572       -5.0746260611       -1.4554099246
 H         -6.1642295344       -5.7722781238       -1.8364119992
 C         -4.4663099664       -4.5658474073       -2.3035721690
 C         -3.5340463529       -3.6731734373       -1.8036913673
 N          0.0708820108        2.0490342205        0.2563373935
 N          1.9915049908       -0.1055582760        0.1994547438
 C         -2.3255900598        2.5459945681        0.3120819440
 C         -0.9832886716        2.9187393398        0.3361621827
 C         -0.5015591354        4.2621381169        0.3067820094
 H         -1.1126655608        5.1412218425        0.3670520006
 C          0.8556168404        4.1900522164        0.1853132382
 H          1.5582359607        4.9990673584        0.1392661657
 C          1.1895437835        2.8052950121        0.1350941143
 C          2.4920701052        2.2984975838       -0.0610684536
 C          2.8353917172        0.9517366405       -0.0459230564
 C          4.1525976328        0.4619240803       -0.3148591588
 H          4.9980146984        1.0717758492       -0.5652660998
 C          4.1011537947       -0.8929719648       -0.2078719950
 H          4.8969546158       -1.5975848761       -0.3503600179
 C          2.7518231577       -1.2322958048        0.1111156221
 C          3.5509399882        3.2824186579       -0.3679533744
 C          4.5847839383        3.5609854800        0.5267265258
 C          5.5765467167        4.4782312873        0.2181012790
 C          5.5446056962        5.1352739713       -0.9996029849
 H          6.3164076866        5.8483904642       -1.2432056096
 C          4.5299742013        4.8836411323       -1.9070423984
 C          3.5458718387        3.9642470945       -1.5863597759
 Fe        -0.0078832955       -0.0044609814        0.6107415032
 C         -3.3197675137        3.6256312989        0.1089017029
 C         -3.7741502097        4.4416589033        1.1413530716
 C         -3.8019541234        3.8715642205       -1.1771939605
 C         -4.6761650869        5.4676904707        0.9032680101
 C         -4.7027414780        4.8910482644       -1.4309403566
 H         -5.0112774568        6.0853411268        1.7206346842
 C         -5.1345482774        5.6872418820       -0.3838219839
 H         -5.0516096162        5.0556773392       -2.4367344357
 H         -5.8348612120        6.4863694923       -0.5758783125
 C          3.2936455943       -3.6419508628        0.1174455054
 C          4.2378946669       -3.8656118844        1.1217453061
 C          3.3263479874       -4.4786802297       -1.0008273390
 C          5.1696611372       -4.8864152349        1.0220982282
 C          4.2474963125       -5.5068753352       -1.1085549339
 H          5.8845920559       -5.0340234358        1.8138008846
 C          5.1661163822       -5.7072547571       -0.0923675440
 H          4.2417071948       -6.1354784761       -1.9845996906
 H          5.8854137633       -6.5068630664       -0.1719548609
 H         -6.2220316673       -5.0980103627        0.5405715484
 H         -4.4280615990       -4.8505181465       -3.3427682281
 H          6.3626074381        4.6727796841        0.9297743002
 H          4.4985668693        5.3888951901       -2.8586843648
 Cl         4.2160776013       -2.8549273245        2.5193538561
 Cl         2.2193964291       -4.2009380037       -2.2977191938
 Cl        -3.1930584063        4.1520892574        2.7415998986
 Cl        -3.2338966919        2.8841320658       -2.4780130602
 Cl         4.6070088858        2.7541613788        2.0520619320
 Cl         2.2941646610        3.6247364265       -2.7268508682
 Cl        -4.5683395119       -3.3225808160        2.0205625420
 Cl        -2.3211446670       -3.0233004972       -2.8493007215
 Cl         0.0368358782       -0.0290875467        2.7435781152
  78
       -160.30942694
 N         -0.0969283036       -2.0421951803       -0.0548102912
 N         -2.0287278866        0.1010907420        0.0315832205
 C          2.2527250073       -2.5423083181        0.3517884163
 C          0.9337714693       -2.9159524141        0.1395002813
 C          0.4505754800       -4.2610535698       -0.0116653627
 H          1.0477507326       -5.1451434170        0.1027649258
 C         -0.8602334393       -4.1742044068       -0.3503557941
 H         -1.5453310872       -4.9750875070       -0.5519314793
 C         -1.2056340710       -2.7767273664       -0.3411460416
 C         -2.4888531249       -2.2707787159       -0.4975399519
 C         -2.8758366822       -0.9315237234       -0.2328849745
 C         -4.2151478706       -0.4761332270       -0.1790519056
 H         -5.0825291296       -1.0787522131       -0.3537225385
 C         -4.1711673921        0.8595105562        0.1491737263
 H         -5.0022563201        1.5207079341        0.2898168055
 C         -2.8034867230        1.2087627419        0.2410002978
 C         -3.5376433951       -3.1963077178       -0.9827786999
 C         -4.4418404506       -3.8307607672       -0.1340690425
 C         -5.4234055135       -4.6738406207       -0.6291363215
 C         -5.5114443852       -4.8892870180       -1.9950684729
 H         -6.2777236648       -5.5366261445       -2.3845105027
 C         -4.6206657200       -4.2813270001       -2.8622574844
 C         -3.6421133639       -3.4444879827       -2.3506535475
 N          0.0584889227        2.0329607330       -0.0199287989
 N          1.9731302784       -0.1095987690        0.0139367098
 C         -2.3024465028        2.5242800449        0.3783981948
 C         -0.9802668221        2.8943554991        0.1575716860
 C         -0.5172475520        4.2416792576       -0.0386162326
 H         -1.1309039264        5.1182458664        0.0366650037
 C          0.7942789173        4.1635144893       -0.3771994454
 H          1.4622732068        4.9677921522       -0.6175354511
 C          1.1616526551        2.7745275406       -0.3227243939
 C          2.4425624292        2.2681149547       -0.4792596581
 C          2.8229508758        0.9223051748       -0.2373517271
 C          4.1608192114        0.4656501570       -0.1808026293
 H          5.0383545741        1.0631524224       -0.3259464091
 C          4.1109919553       -0.8758146811        0.1218982079
 H          4.9330624301       -1.5522710448        0.2455451213
 C          2.7442298740       -1.2203082150        0.2120829608
 C          3.5234222615        3.1735594893       -0.9289573592
 C          4.1599944832        4.0727058850       -0.0760343218
 C          5.1916003653        4.8847421923       -0.5241955581
 C          5.5957495405        4.8036098006       -1.8438907052
 H          6.4013603496        5.4286774095       -2.1953827297
 C          4.9827764034        3.9201604751       -2.7176109742
 C          3.9552207983        3.1173389845       -2.2534094612
 Fe        -0.0260985794       -0.0078109082        0.3855960267
 C         -3.2627057497        3.5939363065        0.7306443730
 C         -3.3131809348        4.0535206998        2.0462566855
 C         -4.1253118322        4.1762862717       -0.1939982180
 C         -4.1973160159        5.0481533085        2.4323176539
 C         -5.0137589808        5.1724911130        0.1750694262
 H         -4.2128148059        5.3744912893        3.4582409461
 C         -5.0468103531        5.6019322824        1.4910475801
 H         -5.6684429084        5.6077094980       -0.5620027855
 H         -5.7387442299        6.3762961617        1.7830652066
 C          3.2586865569       -3.5780787247        0.6773080378
 C          3.6415097960       -3.7606734508        2.0057981431
 C          3.8870131247       -4.3480407972       -0.2965951492
 C          4.6273611163       -4.6671241445        2.3513686433
 C          4.8793029394       -5.2534637027        0.0334184369
 H          4.9027569926       -4.7814791515        3.3867233712
 C          5.2466992056       -5.4043753572        1.3593335403
 H          5.3586373119       -5.8251811354       -0.7431994958
 H          6.0272356172       -6.0972464195        1.6205810099
 H         -6.1088052503       -5.1530184786        0.0515542040
 H         -4.6783951562       -4.4463078090       -3.9258142311
 H          5.6687254555        5.5682012473        0.1607302649
 H          5.2914934449        3.8504933399       -3.7476343390
 Cl         2.8566200926       -2.8154000227        3.2219515853
 Cl         3.4318638753       -4.1282975718       -1.9478447539
 Cl        -2.2418081990        3.3476215694        3.2051189312
 Cl        -4.0596042938        3.6501684711       -1.8403910814
 Cl         3.6616325574        4.1429732138        1.5739249499
 Cl         3.1708226707        2.0130074822       -3.3277447241
 Cl        -4.3063933266       -3.5539539470        1.5686121297
 Cl        -2.5250183141       -2.6743433739       -3.4216042867
 Cl        -0.0199295122       -0.0276622431        2.5206178249
  78
       -160.30941597
 N         -0.1203458283       -1.9893329960       -0.2106342422
 N         -2.0242782803        0.1071323985       -0.1178522111
 C          2.2440563328       -2.4272933025       -0.6775742101
 C          0.8940523905       -2.8160630652       -0.5966319166
 C          0.3831865875       -4.1287088149       -0.7815617034
 H          0.9495117255       -4.9741676112       -1.1193353711
 C         -0.9483999344       -4.0861081406       -0.4420423782
 H         -1.6572907043       -4.8901752866       -0.4480750472
 C         -1.2351612163       -2.7458078783       -0.0903287578
 C         -2.5262866398       -2.2487155557        0.2738062906
 C         -2.8889350358       -0.9185587270        0.1861677927
 C         -4.2288327176       -0.3964951399        0.2531434790
 H         -5.1012528478       -0.9645427661        0.5107657974
 C         -4.1616960719        0.9080584531       -0.1080225040
 H         -4.9711366793        1.6087639655       -0.1941576415
 C         -2.7726935336        1.2237142614       -0.3095622155
 C         -3.4708722563       -3.2613780590        0.7830104920
 C         -3.1978448909       -3.8396760428        2.0266521147
 C         -4.0198277328       -4.8124611430        2.5695717288
 C         -5.1341398343       -5.2317225645        1.8631418834
 H         -5.7771836942       -5.9934545301        2.2760941081
 C         -5.4267709953       -4.6837272479        0.6256419753
 C         -4.5969616279       -3.7080024682        0.0951885273
 N          0.0662456162        2.0764614423       -0.0862285118
 N          1.9701461748       -0.0420484367       -0.1523554147
 C         -2.2933182044        2.5112382841       -0.5774820864
 C         -0.9497887034        2.9130396182       -0.4454983169
 C         -0.4451775709        4.2347359183       -0.5683924920
 H         -1.0077758108        5.0940353208       -0.8715659332
 C          0.8852729067        4.1872766795       -0.2232958218
 H          1.5838647586        5.0002432247       -0.1881416387
 C          1.1821637990        2.8327510787        0.0550041909
 C          2.4763619052        2.3050366097        0.3320791120
 C          2.8328856787        0.9823005540        0.1553955113
 C          4.1819342692        0.4824313265        0.1390813559
 H          5.0550662445        1.0663235148        0.3557883554
 C          4.1166600061       -0.8193428992       -0.2331920416
 H          4.9283219481       -1.5062885216       -0.3724358272
 C          2.7260717465       -1.1467386622       -0.3924560409
 C          3.5140656489        3.2524799830        0.7992597127
 C          3.6294299580        3.4941776124        2.1683624697
 C          4.5980884536        4.3494025552        2.6677535629
 C          5.4639049469        4.9789067518        1.7904951346
 H          6.2220184488        5.6443435229        2.1722793515
 C          5.3670442397        4.7633388440        0.4261772778
 C          4.3948836109        3.9023383901       -0.0580766239
 Fe        -0.0231653797        0.0298487866        0.2696960192
 C         -3.2818899707        3.5157690728       -1.0200616799
 C         -3.6695811564        4.6009224104       -0.2333159459
 C         -3.8622020114        3.3936153037       -2.2850200201
 C         -4.5856664728        5.5346715805       -0.6911395984
 C         -4.7773937385        4.3190644926       -2.7571704352
 H         -4.8665139312        6.3593606699       -0.0569216982
 C         -5.1334306861        5.3885890846       -1.9548370820
 H         -5.1990225001        4.1974028132       -3.7419419709
 H         -5.8430468797        6.1124924099       -2.3152917817
 C          3.2335220331       -3.4833721806       -0.9811908155
 C          3.5223315137       -4.4881241982       -0.0576400537
 C          3.9110483177       -3.5076732890       -2.2007256624
 C          4.4427970274       -5.4843356318       -0.3415169020
 C          4.8292963722       -4.5008455534       -2.4999210964
 H          4.6507078330       -6.2440448129        0.3948849786
 C          5.0885932952       -5.4889380345       -1.5653064854
 H          5.3287940554       -4.4949840128       -3.4538665468
 H          5.8014342628       -6.2649800684       -1.7920817462
 H         -3.7814685580       -5.2293848375        3.5338839904
 H         -6.2876224158       -5.0120885947        0.0657837487
 H          4.6702262727        4.5124455495        3.7304918970
 H          6.0390659281        5.2522973000       -0.2602776422
 Cl         2.7358721727       -4.4602697220        1.4786325628
 Cl         3.5748192503       -2.2734395978       -3.3620607712
 Cl        -3.0177885890        4.7482046347        1.3599704441
 Cl        -3.4043902911        2.0640664329       -3.2888702239
 Cl         2.5398853335        2.6836545947        3.2379329582
 Cl         4.2649724797        3.6128905963       -1.7575561137
 Cl        -1.8108330536       -3.2958626459        2.9069439709
 Cl        -4.9360417896       -3.0625819584       -1.4731856303
 Cl         0.0065239258       -0.0522702677        2.4017968113
  78
       -160.30937133
 N         -0.0940898414       -2.0282512830       -0.4930719612
 N         -2.0335828730        0.0929220036       -0.3526056466
 C          2.3026882774       -2.5055031563       -0.6366805472
 C          0.9641156489       -2.8792951517       -0.5585678115
 C          0.5062604584       -4.2384793098       -0.4310511677
 H          1.1383480373       -5.1034981819       -0.4870578841
 C         -0.8271291638       -4.1854751511       -0.2115004663
 H         -1.5120666068       -4.9964555992       -0.0564694872
 C         -1.2018681191       -2.7944875205       -0.2480259183
 C         -2.4819941843       -2.3199793786       -0.0613966091
 C         -2.8821787536       -0.9636462924       -0.2342776932
 C         -4.2229235887       -0.5302553346       -0.3247592296
 H         -5.0880495153       -1.1611215325       -0.2689781113
 C         -4.1836619408        0.8311752648       -0.5132263375
 H         -5.0127579847        1.4992162394       -0.6422578933
 C         -2.8167264089        1.2067209887       -0.5036701660
 C         -3.4923071701       -3.2642675497        0.4686133997
 C         -3.5404696975       -3.4600679258        1.8499956191
 C         -4.4433588729       -4.3430485141        2.4198299029
 C         -5.3140064106       -5.0428873601        1.6023199552
 H         -6.0178649345       -5.7344706131        2.0394014241
 C         -5.2899157102       -4.8666022024        0.2291622637
 C         -4.3801001672       -3.9801892615       -0.3267674831
 N          0.0573324737        2.0667442523       -0.5077395439
 N          1.9903888795       -0.0643366188       -0.4662229887
 C         -2.3481184877        2.5339803449       -0.5664330944
 C         -1.0077069705        2.9117223561       -0.5223947418
 C         -0.5560148685        4.2684287130       -0.3476556405
 H         -1.1965977603        5.1292163389       -0.3314633671
 C          0.7832424287        4.2190611502       -0.1681256772
 H          1.4579859472        5.0324756010        0.0129231175
 C          1.1711699853        2.8352502072       -0.2823151605
 C          2.4556059234        2.3510650352       -0.1559565725
 C          2.8387821953        0.9918586376       -0.3726526473
 C          4.1774466509        0.5614839147       -0.5110389367
 H          5.0412279871        1.1969053599       -0.4952469534
 C          4.1375870496       -0.8034015797       -0.6705093120
 H          4.9647912152       -1.4738004709       -0.7987325252
 C          2.7718049540       -1.1788268740       -0.6272658409
 C          3.5263068671        3.2321098348        0.3504754414
 C          3.9946907445        3.0094636477        1.6495399145
 C          5.0006431977        3.7865659645        2.1956748980
 C          5.5579804376        4.8050304939        1.4407772614
 H          6.3438261924        5.4124304709        1.8609371060
 C          5.1164666519        5.0476508139        0.1518231036
 C          4.1078108144        4.2620407550       -0.3844165784
 Fe        -0.0122894677        0.0199385441       -0.1001327633
 C         -3.3682456222        3.6044495516       -0.5666117017
 C         -4.1363688126        3.8648370109        0.5698473052
 C         -3.5986040958        4.3877264663       -1.6972529004
 C         -5.1051092811        4.8546566727        0.5748053560
 C         -4.5681206836        5.3774515307       -1.7090113123
 H         -5.6792629022        5.0333630286        1.4695926851
 C         -5.3207430414        5.6035845751       -0.5695716672
 H         -4.7287927574        5.9585926536       -2.6030939396
 H         -6.0797104046        6.3697502224       -0.5719671548
 C          3.3145954035       -3.5797625835       -0.5002634631
 C          3.5663669403       -4.1041050328        0.7692076060
 C          4.0377156892       -4.0927524140       -1.5720778753
 C          4.5006893219       -5.1077082622        0.9641764599
 C          4.9771536447       -5.0972412059       -1.3932244465
 H          4.6716035880       -5.4913678873        1.9571537170
 C          5.2021131497       -5.6002312934       -0.1233381403
 H          5.5225047953       -5.4781401938       -2.2422827584
 H          5.9316152974       -6.3823490462        0.0217197006
 H         -4.4533373310       -4.4747955823        3.4895838460
 H         -5.9652465995       -5.4116521577       -0.4108685581
 H          5.3370690178        3.5917899336        3.2009433182
 H          5.5509823505        5.8360959405       -0.4413322261
 Cl         2.6891950239       -3.4647001117        2.1167792377
 Cl         3.7420351505       -3.4608108257       -3.1543507024
 Cl        -3.8424960934        2.9446576035        2.0031939402
 Cl        -2.6583430671        4.0946791335       -3.1166238930
 Cl         3.2674592191        1.7511231912        2.5885069675
 Cl         3.5782905534        4.5369491184       -2.0053193614
 Cl        -2.4371441863       -2.5715963808        2.8448400383
 Cl        -4.3223409244       -3.7566989307       -2.0404997003
 Cl         0.0530753959        0.0196751464        2.0328214460
  78
       -160.30929744
 N         -0.0896866617       -2.0573470066       -0.3394355142
 N         -1.9994197516        0.0813460449       -0.3224743408
 C          2.2997143701       -2.5106916062        0.0437035154
 C          0.9539930730       -2.9080065666       -0.2274464361
 C          0.5219941527       -4.2404039425       -0.4314290807
 H          1.1521471530       -5.1086949198       -0.4123192997
 C         -0.8323666551       -4.1826782588       -0.6585491832
 H         -1.5024263742       -4.9975156282       -0.8542662200
 C         -1.2029639713       -2.8146256205       -0.5712486079
 C         -2.5129756760       -2.3082981017       -0.6046091107
 C         -2.8629241893       -0.9707223204       -0.4282924274
 C         -4.2112068467       -0.5084867543       -0.2496734524
 H         -5.0852848132       -1.1306378796       -0.2920544081
 C         -4.1475458583        0.8188308361        0.0099552402
 H         -4.9572425406        1.4920789372        0.2130156312
 C         -2.7598468279        1.1955307751       -0.0686029243
 C         -3.6094499768       -3.2979114094       -0.7220233527
 C         -4.0192528255       -4.0368913571        0.3859141444
 C         -5.0385959938       -4.9714714185        0.2939522938
 C         -5.6591774238       -5.1764503892       -0.9253044099
 H         -6.4529922481       -5.9039362402       -1.0073242004
 C         -5.2722072826       -4.4584890719       -2.0450537397
 C         -4.2549628445       -3.5247566332       -1.9348332530
 N          0.0977130304        2.0274524048       -0.3841542595
 N          2.0148452666       -0.1099602654       -0.3587869090
 C         -2.2826056767        2.4863385065        0.0400143399
 C         -0.9396085392        2.8812011150       -0.2325303184
 C         -0.5019520181        4.2174963247       -0.4034497066
 H         -1.1247397509        5.0884626461       -0.3474663439
 C          0.8469890159        4.1574815227       -0.6535933821
 H          1.5207246227        4.9725555000       -0.8333614124
 C          1.2102917779        2.7845074528       -0.6180564927
 C          2.5218773745        2.2806418619       -0.6566590839
 C          2.8739868725        0.9442364362       -0.4727239597
 C          4.2238105280        0.4845539038       -0.3041510653
 H          5.0985672566        1.1032337069       -0.3656368847
 C          4.1637624544       -0.8366757156       -0.0163512289
 H          4.9765972772       -1.5003420119        0.1979138340
 C          2.7781043093       -1.2212198348       -0.0891417646
 C          3.6042063008        3.2859388288       -0.7629600220
 C          4.2884023453        3.7177161997        0.3736155011
 C          5.2606329905        4.7013925933        0.2978721228
 C          5.5578532709        5.2715865065       -0.9285010598
 H          6.3067594606        6.0445435894       -0.9903484331
 C          4.9000833279        4.8587254717       -2.0748303786
 C          3.9331538948        3.8707199434       -1.9836197150
 Fe         0.0108123811       -0.0108299730        0.0212216503
 C         -3.1817722330        3.5448316251        0.5433491707
 C         -3.0330721096        3.9519526231        1.8715104264
 C         -4.1682533767        4.1577949216       -0.2216496143
 C         -3.8502493482        4.9264488432        2.4186446884
 C         -4.9866817681        5.1413290276        0.3091893219
 H         -3.7204157905        5.2107051467        3.4499163343
 C         -4.8233847505        5.5181827208        1.6306460137
 H         -5.7413784599        5.5991535056       -0.3097782337
 H         -5.4607361406        6.2794832273        2.0526386904
 C          3.1828342925       -3.5439294055        0.6193658471
 C          2.9123788597       -3.9777394556        1.9219932999
 C          4.2921725040       -4.0883983794       -0.0261534830
 C          3.7388407706       -4.8812443308        2.5685666304
 C          5.1296760694       -4.9937529684        0.6102962203
 H          3.5129102470       -5.1812935925        3.5788163145
 C          4.8541800491       -5.3774409859        1.9108316320
 H          5.9866516581       -5.3878758367        0.0858146172
 H          5.5085120232       -6.0717445245        2.4165714472
 H         -5.3333275946       -5.5256147576        1.1702631847
 H         -5.7529379911       -4.6170787522       -2.9967134064
 H          5.7701819846        5.0183194791        1.1932515341
 H          5.1299398917        5.2979330236       -3.0309586871
 Cl         1.5307391660       -3.3313254783        2.7439141920
 Cl         4.6112940042       -3.6413142716       -1.6656031047
 Cl        -1.8177299151        3.1873100163        2.8371483750
 Cl        -4.3594981926        3.6751574311       -1.8733275728
 Cl         3.8828171575        3.0178553206        1.9008575604
 Cl         3.1085289712        3.3349019635       -3.4064593569
 Cl        -3.2381171068       -3.7548628780        1.9001352852
 Cl        -3.7521908914       -2.6209913713       -3.3193926017
 Cl         0.0472454879        0.0296767889        2.1554663315
  78
       -160.30921510
 N         -0.0581910957       -2.0547176044       -0.0671228591
 N         -1.9731000520        0.0579248355       -0.0901763044
 C          2.3005425351       -2.5010069342       -0.5064830916
 C          0.9841702475       -2.8954678562       -0.3274275636
 C          0.5091499929       -4.2533118325       -0.3062782634
 H          1.1151875742       -5.1188770218       -0.4937666939
 C         -0.8039154383       -4.2097336604        0.0316417248
 H         -1.4851131947       -5.0260640326        0.1662873909
 C         -1.1613446643       -2.8223180615        0.1445219320
 C         -2.4459647608       -2.3250347948        0.3529868660
 C         -2.8294257434       -0.9796117883        0.1581563332
 C         -4.1664708786       -0.5297501157        0.0427002041
 H         -5.0422720509       -1.1328935426        0.1836175151
 C         -4.1083180051        0.7975986843       -0.3151871669
 H         -4.9311354678        1.4615259421       -0.4987764625
 C         -2.7379807723        1.1455047319       -0.3833384726
 C         -3.5101523715       -3.2685316183        0.7590874893
 C         -3.8917596972       -3.3187206659        2.1001432737
 C         -4.8819915699       -4.1853200755        2.5316350684
 C         -5.5122386084       -5.0088792265        1.6138955780
 H         -6.2868270901       -5.6821415771        1.9457778401
 C         -5.1564549875       -4.9764119096        0.2766091960
 C         -4.1599284148       -4.1095480293       -0.1405361520
 N          0.1153123840        2.0190850993       -0.1897597373
 N          2.0293755721       -0.0837233256       -0.0645826506
 C         -2.2458799727        2.4562968446       -0.6311378026
 C         -0.9224540842        2.8494104843       -0.4935473035
 C         -0.4362338317        4.2034717744       -0.5529671714
 H         -1.0302004821        5.0567692246       -0.8141732945
 C          0.8713183532        4.1719594840       -0.1932664279
 H          1.5551530396        4.9949937419       -0.1102152487
 C          1.2159191661        2.7941703505        0.0109642130
 C          2.4920447746        2.3087461914        0.2948589863
 C          2.8853481819        0.9595111809        0.1623307548
 C          4.2206845254        0.4956247847        0.1152011710
 H          5.0942927242        1.0991745226        0.2664091746
 C          4.1634261322       -0.8432146313       -0.1993918991
 H          4.9821624195       -1.5224112386       -0.3278094941
 C          2.7932436893       -1.1852652463       -0.2899182118
 C          3.4995157821        3.2870281653        0.7632343705
 C          3.5520507643        3.5717726588        2.1280718727
 C          4.4464396776        4.4992628556        2.6370357088
 C          5.3050117292        5.1562760781        1.7711376521
 H          6.0047016437        5.8828185379        2.1579359493
 C          5.2782989388        4.8896195443        0.4120925758
 C          4.3768121713        3.9597911631       -0.0816923870
 Fe         0.0256766386       -0.0044729569        0.2880420516
 C         -3.2470355044        3.4824667134       -0.9917075591
 C         -3.6567848737        4.4649872879       -0.0913593501
 C         -3.8222776373        3.4909442401       -2.2624706094
 C         -4.5924456400        5.4238345704       -0.4450417626
 C         -4.7584400507        4.4415879322       -2.6307373492
 H         -4.8888408587        6.1704008317        0.2724209062
 C         -5.1391257963        5.4074325159       -1.7159702206
 H         -5.1765292313        4.4214850097       -3.6228478385
 H         -5.8684467185        6.1510866598       -1.9960483184
 C          3.2732673313       -3.5167906637       -0.9719374256
 C          3.8735404920       -4.4474361857       -0.1278537489
 C          3.5926441147       -3.5685847260       -2.3297919402
 C          4.7541579766       -5.4020526875       -0.6171675114
 C          4.4641657368       -4.5173073849       -2.8346569662
 H          5.2030508642       -6.1097533158        0.0623609264
 C          5.0414536684       -5.4345158008       -1.9708141042
 H          4.6833608057       -4.5394511944       -3.8901351218
 H          5.7191414528       -6.1800689747       -2.3574688009
 H         -5.1522611728       -4.2082199839        3.5750274265
 H         -5.6471985230       -5.6120829948       -0.4428989105
 H          4.4606430077        4.7022451575        3.6940046499
 H          5.9465004124        5.3999342418       -0.2640366333
 Cl         3.5089386266       -4.3929298785        1.5612172174
 Cl         2.8496303241       -2.4255660730       -3.3948509298
 Cl        -2.9952933846        4.4662903181        1.5037449670
 Cl        -3.3262146139        2.2907714901       -3.3994278634
 Cl         2.4605945666        2.7317311522        3.1791817040
 Cl         4.3183791284        3.6230040485       -1.7762459525
 Cl        -3.0874603533       -2.2804054313        3.2233037601
 Cl        -3.7068508477       -4.0448530694       -1.8078378373
 Cl         0.0136041866        0.0714117749        2.4200157032
  78
       -160.30914775
 N         -0.0733224909       -2.0288639336        0.0126194525
 N         -1.9644358957        0.0798865664       -0.0591213314
 C          2.2987494193       -2.4714484588       -0.4426039447
 C          0.9522116240       -2.8639274622       -0.3162612531
 C          0.4639048950       -4.1934664075       -0.4152474662
 H          1.0510842144       -5.0574555897       -0.6584988800
 C         -0.8776740597       -4.1449208817       -0.1168317314
 H         -1.5744473236       -4.9600990310       -0.0913616499
 C         -1.1889116030       -2.7876930775        0.1342756117
 C         -2.4967217950       -2.2681460604        0.3802846200
 C         -2.8390113697       -0.9374222804        0.2478577296
 C         -4.1784807155       -0.4093504178        0.2820218495
 H         -5.0529021862       -0.9731342283        0.5422928769
 C         -4.1002452199        0.8896451876       -0.0914632428
 H         -4.9000020778        1.5976531917       -0.1927459931
 C         -2.7076120734        1.1918348210       -0.2938559326
 C         -3.5300971116       -3.2670276931        0.7155013905
 C         -3.4697041117       -3.9304727377        1.9429727524
 C         -4.3981389342       -4.8982241396        2.2873315656
 C         -5.4050797590       -5.2219419186        1.3943913307
 H         -6.1291326703       -5.9777817967        1.6549855623
 C         -5.4874928079       -4.5863487375        0.1674845866
 C         -4.5534955266       -3.6201624692       -0.1632612487
 N          0.1291729517        2.0319363340       -0.0836759426
 N          2.0306437608       -0.0858665686        0.0601128666
 C         -2.2206644651        2.4626556185       -0.6264892886
 C         -0.8693424272        2.8485313140       -0.5319654852
 C         -0.3386971288        4.1443852782       -0.7724406539
 H         -0.8774240106        4.9795935158       -1.1751967168
 C          0.9831485117        4.1086669953       -0.3966215703
 H          1.6965137238        4.9085859793       -0.4263708401
 C          1.2506828979        2.7826481840        0.0186271910
 C          2.5347812779        2.2814679799        0.3890014349
 C          2.8936198343        0.9503854135        0.3193164463
 C          4.2433117538        0.4498375686        0.3235614866
 H          5.1137805737        1.0428489459        0.5273479137
 C          4.1801490714       -0.8559449465       -0.0321981965
 H          4.9907583730       -1.5452262761       -0.1676367514
 C          2.7872141596       -1.1941479707       -0.1610191352
 C          3.5209095770        3.2947450315        0.8227608939
 C          3.4427770178        3.7692512494        2.1329010493
 C          4.3075985610        4.7463468078        2.5970346403
 C          5.2622906663        5.2667502759        1.7406143573
 H          5.9317731211        6.0360030869        2.0933709296
 C          5.3629807123        4.8138960241        0.4364005404
 C          4.4950054531        3.8318981038       -0.0127641715
 Fe         0.0215872058        0.0117935741        0.3969678633
 C         -3.2060262169        3.4685039787       -1.0634728973
 C         -3.4723496436        4.6280213726       -0.3312454439
 C         -3.9227042636        3.2816350046       -2.2494237781
 C         -4.3929224389        5.5659593000       -0.7694343986
 C         -4.8525265748        4.2046104591       -2.6936088758
 H         -4.5682538411        6.4510716247       -0.1798118264
 C         -5.0805741047        5.3504643319       -1.9506121259
 H         -5.3859582066        4.0245565727       -3.6131071572
 H         -5.8018730176        6.0774616353       -2.2933697690
 C          3.2402601289       -3.4932225873       -0.9539300954
 C          4.0961120527       -4.2280831747       -0.1382034661
 C          3.2651777229       -3.7520704657       -2.3246414397
 C          4.9536584341       -5.1799727889       -0.6680159933
 C          4.1163230758       -4.6982098955       -2.8697223902
 H          5.6044647342       -5.7365082364       -0.0128593481
 C          4.9597469460       -5.4086346639       -2.0333577898
 H          4.1123809006       -4.8692832302       -3.9343045481
 H          5.6265522221       -6.1479363293       -2.4488539831
 H         -4.3259522290       -5.3892014071        3.2440205498
 H         -6.2639348114       -4.8400253649       -0.5362586947
 H          4.2264867500        5.0918500096        3.6146141936
 H          6.1037165416        5.2212572948       -0.2342701189
 Cl         4.0625308379       -3.9462493445        1.5668099905
 Cl         2.2096640519       -2.8517396300       -3.3549543978
 Cl        -2.6777970997        4.8717400722        1.1837241878
 Cl        -3.6208063691        1.8615557246       -3.2015727875
 Cl         2.2369074110        3.0970961843        3.1747459001
 Cl         4.5958012911        3.2677603647       -1.6423133867
 Cl        -2.2151137132       -3.5044405084        3.0533432831
 Cl        -4.6240603529       -2.8620775786       -1.7217138971
 Cl        -0.0448472642        0.0774576491        2.5281716074
  78
       -160.30911796
 N         -0.0765628051       -2.0251605023       -0.0354989469
 N         -2.0233674842        0.0954518678        0.0845457602
 C          2.2782324440       -2.5172421001        0.3801314194
 C          0.9570467816       -2.8927794851        0.1426266298
 C          0.4944384448       -4.2366254490       -0.0522726077
 H          1.1032978858       -5.1151709518        0.0432740247
 C         -0.8182571843       -4.1560502701       -0.3886434084
 H         -1.4965711688       -4.9541363389       -0.6191934812
 C         -1.1778833337       -2.7638712102       -0.3487609072
 C         -2.4634241974       -2.2669150948       -0.5016323153
 C         -2.8603707652       -0.9297792612       -0.2236820077
 C         -4.2044541155       -0.4780343621       -0.1942612953
 H         -5.0669755510       -1.0769737279       -0.4117223143
 C         -4.1741825931        0.8449271878        0.1708188538
 H         -5.0095979368        1.5008220048        0.3095586785
 C         -2.8068452533        1.2010001021        0.3017127454
 C         -3.5127234857       -3.1874390484       -0.9898374065
 C         -4.4811770983       -3.7385608657       -0.1527982928
 C         -5.4847505813       -4.5579254704       -0.6445141763
 C         -5.5329730122       -4.8355348591       -1.9999875822
 H         -6.3173335754       -5.4638516768       -2.3928725465
 C         -4.5779182843       -4.3159213998       -2.8566778696
 C         -3.5764156788       -3.5056508151       -2.3461671651
 N          0.0573704263        2.0469039838        0.1269645696
 N          1.9778525689       -0.0868876468        0.1137627816
 C         -2.3241130340        2.5119017477        0.4562192629
 C         -0.9944300284        2.8961939042        0.2576564059
 C         -0.5589748832        4.2409109888        0.0101057151
 H         -1.1950681861        5.1055913113        0.0364252800
 C          0.7558224253        4.1762436267       -0.3189531192
 H          1.4062260169        4.9819807856       -0.5979317573
 C          1.1503678575        2.7968968490       -0.2067613273
 C          2.4308515782        2.2984647903       -0.3783819245
 C          2.8201969389        0.9520864793       -0.1159343680
 C          4.1645845494        0.5113773950       -0.0387824119
 H          5.0289797747        1.1330471795       -0.1649186797
 C          4.1270919118       -0.8319044086        0.2451149876
 H          4.9567244088       -1.4998320848        0.3708567425
 C          2.7581288318       -1.1967274590        0.3042899656
 C          3.4976086871        3.1669838077       -0.9146609197
 C          4.0807525575        4.2149936426       -0.2024799782
 C          5.1134557583        4.9668480651       -0.7424916745
 C          5.5814399192        4.6757643903       -2.0124123331
 H          6.3920507042        5.2517021592       -2.4296731104
 C          5.0199726992        3.6456141349       -2.7486177907
 C          3.9903233404        2.9035007664       -2.1976100653
 Fe        -0.0253506836       -0.0053773513        0.4698003659
 C         -3.2941790309        3.5931599634        0.7381661373
 C         -3.3597779562        4.1382705686        2.0209939846
 C         -4.1349033108        4.1219463812       -0.2382069249
 C         -4.2376943546        5.1663799948        2.3236373500
 C         -5.0189644254        5.1491212907        0.0489709693
 H         -4.2643626114        5.5673089024        3.3242139817
 C         -5.0646230620        5.6660867285        1.3330320971
 H         -5.6546711762        5.5407780190       -0.7279561812
 H         -5.7499648482        6.4677036947        1.5601881459
 C          3.2900619018       -3.5685971910        0.6296468547
 C          3.6469511187       -3.8943556053        1.9359352601
 C          3.9453111714       -4.2208992452       -0.4130244127
 C          4.6427963521       -4.8256400864        2.1977250361
 C          4.9427887132       -5.1565575786       -0.1670313783
 H          4.9066055782       -5.0552214495        3.2191070688
 C          5.2905559384       -5.4500343699        1.1416584767
 H          5.4375697004       -5.6432141739       -0.9931983164
 H          6.0817750197       -6.1660941980        1.3392733560
 H         -6.2171552486       -4.9665507098        0.0324079086
 H         -4.6055580243       -4.5247718940       -3.9128596340
 H          5.5498855952        5.7645112675       -0.1622352625
 H          5.3747019267        3.4121939508       -3.7404414371
 Cl         2.8187908420       -3.1035849357        3.2315739014
 Cl         3.5055183759       -3.8251893503       -2.0372724226
 Cl        -2.3199160336        3.4936649955        3.2406445176
 Cl        -4.0395215550        3.4942850641       -1.8466842670
 Cl         3.5289811683        4.5495272373        1.4017653075
 Cl         3.2750047800        1.6272437668       -3.1188205609
 Cl        -4.3977784691       -3.3942748866        1.5409216854
 Cl        -2.3779222752       -2.8540235777       -3.4110550733
 Cl        -0.0547631747       -0.1041132266        2.6015202666
  78
       -160.30910054
 N         -0.0821459011       -2.0559429949       -0.1944015948
 N         -2.0069078679        0.0765962772       -0.2180813647
 C          2.2765825588       -2.5003114775        0.3166612376
 C          0.9550737625       -2.9077652487       -0.0133690805
 C          0.5334441346       -4.2391445131       -0.2690167101
 H          1.1498561066       -5.1127326008       -0.1990577032
 C         -0.7857508365       -4.1702682268       -0.6351174502
 H         -1.4222886474       -4.9800230186       -0.9361303324
 C         -1.1715055210       -2.8029739502       -0.5418432603
 C         -2.4756582232       -2.2967444616       -0.6756842340
 C         -2.8509997984       -0.9622125811       -0.4455030666
 C         -4.2079993802       -0.5126305156       -0.3148607989
 H         -5.0749130283       -1.1304131710       -0.4428859184
 C         -4.1629875615        0.7995627039        0.0320711446
 H         -4.9859016068        1.4594847272        0.2268212184
 C         -2.7808395470        1.1795808132        0.0561795944
 C         -3.5528082425       -3.2598208161       -0.9830713966
 C         -3.9250421368       -4.2574759144       -0.0796161467
 C         -4.9192473099       -5.1728278020       -0.3805411781
 C         -5.5674659868       -5.1000060144       -1.6013338466
 H         -6.3411369965       -5.8121761366       -1.8416213972
 C         -5.2356194716       -4.1123771917       -2.5129609499
 C         -4.2389448903       -3.2052226916       -2.1978227858
 N          0.0726766720        2.0147279381       -0.2073016416
 N          1.9915071796       -0.1030154954       -0.1058432723
 C         -2.3015166197        2.4676759147        0.2268178161
 C         -0.9607341514        2.8677154788       -0.0262543060
 C         -0.5218323486        4.2043023335       -0.2166141727
 H         -1.1368186592        5.0798703411       -0.1378709332
 C          0.8087831847        4.1381721556       -0.5472315407
 H          1.4753776604        4.9481990020       -0.7721060207
 C          1.1753142554        2.7636382289       -0.4984794594
 C          2.4777405725        2.2545261609       -0.5968382051
 C          2.8462480051        0.9321340235       -0.3189416317
 C          4.1961611332        0.4823232271       -0.1426754412
 H          5.0677144356        1.0973410069       -0.2540191539
 C          4.1356889898       -0.8249481652        0.2218510241
 H          4.9481233405       -1.4839811050        0.4550272628
 C          2.7510051753       -1.2021894234        0.2016022324
 C          3.5535258850        3.2211148800       -0.9200569556
 C          4.2413494137        3.9066400151        0.0781757550
 C          5.2354590823        4.8208915280       -0.2304011077
 C          5.5462063158        5.0652170322       -1.5567576362
 H          6.3141920627        5.7810911076       -1.8058633609
 C          4.8751841823        4.4041274163       -2.5704271950
 C          3.8864155823        3.4894299667       -2.2442483365
 Fe        -0.0184424469       -0.0184416174        0.2160178926
 C         -3.2027989881        3.5423535899        0.6969670675
 C         -3.1301827126        3.9259002348        2.0366504666
 C         -4.0739938855        4.2344618963       -0.1386156582
 C         -3.9011270709        4.9653086782        2.5282003044
 C         -4.8451908054        5.2830327086        0.3369068847
 H         -3.8255503950        5.2400581560        3.5673766278
 C         -4.7518388775        5.6421665003        1.6710016002
 H         -5.5028448867        5.8151342192       -0.3315064117
 H         -5.3454713857        6.4615249332        2.0452650370
 C          3.2182403913       -3.5337236306        0.7999303864
 C          3.4736217039       -3.6214037385        2.1689266408
 C          3.8740532632       -4.4233376069       -0.0452020045
 C          4.3511071899       -4.5637580312        2.6794359477
 C          4.7477598056       -5.3768659612        0.4504779182
 H          4.5277724397       -4.6036570737        3.7418452725
 C          4.9826729593       -5.4397437867        1.8138630644
 H          5.2374823525       -6.0544662244       -0.2297893717
 H          5.6660836125       -6.1765560972        2.2061724159
 H         -5.1822385962       -5.9291271613        0.3409465939
 H         -5.7409079831       -4.0428943944       -3.4622244982
 H          5.7503841806        5.3388801034        0.5623597546
 H          5.1041822222        4.5913922399       -3.6065041924
 Cl         2.6477981760       -2.5273737274        3.2274989093
 Cl         3.6028373756       -4.3051145046       -1.7481800163
 Cl        -2.0496409947        3.0665207037        3.0768020436
 Cl        -4.1590734244        3.7820999028       -1.8039853114
 Cl         3.8130190996        3.6078785254        1.7230601519
 Cl         3.0333263819        2.6675289819       -3.4968035083
 Cl        -3.1575776300       -4.3198520785        1.4677962275
 Cl        -3.8225226967       -1.9701023001       -3.3373611050
 Cl        -0.0843765696        0.0049304939        2.3489284994
  78
       -160.30913417
 N         -0.1030584800       -2.0602745429        0.0462065371
 N         -1.9881327763        0.0457701944       -0.0204538088
 C          2.2742193445       -2.4936592149       -0.3688208278
 C          0.9273751838       -2.8803769169       -0.3261425039
 C          0.4246802530       -4.1888500224       -0.5586759541
 H          1.0080762915       -5.0344718915       -0.8674899547
 C         -0.9223339288       -4.1470416937       -0.2926308004
 H         -1.6320275302       -4.9487661958       -0.3592282032
 C         -1.2237262310       -2.8114888051        0.0734327067
 C         -2.5371787322       -2.3068130708        0.3475281672
 C         -2.8704887305       -0.9686841195        0.2629353925
 C         -4.2055700443       -0.4271058780        0.3220074775
 H         -5.0846912627       -0.9816556829        0.5849848075
 C         -4.1184135333        0.8780612117       -0.0292451036
 H         -4.9098240787        1.5978415877       -0.1158107656
 C         -2.7260264574        1.1708585700       -0.2284807456
 C         -3.5672292606       -3.3116657925        0.6598427383
 C         -3.4552674783       -4.0700044254        1.8300258196
 C         -4.3997576465       -5.0232427371        2.1703733341
 C         -5.4822181614       -5.2389266110        1.3347769065
 H         -6.2248314367       -5.9757544580        1.5971317799
 C         -5.6114145880       -4.5204346283        0.1591390409
 C         -4.6557318046       -3.5745570641       -0.1733288816
 N          0.1274383895        1.9973599697       -0.0181035023
 N          2.0090825349       -0.1087267657        0.1520581590
 C         -2.2251430364        2.4333218799       -0.5523583026
 C         -0.8757971215        2.8084154977       -0.4749534510
 C         -0.3469771018        4.0978118831       -0.7514370484
 H         -0.8980760330        4.9284168796       -1.1471857106
 C          0.9837403220        4.0579794183       -0.4162979274
 H          1.7030529162        4.8500946622       -0.4919380926
 C          1.2501145492        2.7426736441        0.0399624082
 C          2.5399076038        2.2563585591        0.4336909010
 C          2.8757090083        0.9166573051        0.4439034584
 C          4.2066425735        0.3800227671        0.5820211255
 H          5.0697184049        0.9428829416        0.8790023888
 C          4.1409893031       -0.9292940115        0.2397774158
 H          4.9401649088       -1.6440478281        0.1978385036
 C          2.7588995309       -1.2323133977       -0.0113003401
 C          3.5322709032        3.3008523024        0.7386386124
 C          3.3117062367        4.1508815625        1.8284440778
 C          4.1764147162        5.1897476945        2.1275403233
 C          5.2865182639        5.4005735281        1.3283404032
 H          5.9622347478        6.2118320536        1.5507742821
 C          5.5299789594        4.5835990011        0.2378602959
 C          4.6547887620        3.5498006991       -0.0522373093
 Fe        -0.0060303477       -0.0234622804        0.4548378334
 C         -3.1844962797        3.4734361514       -0.9838041703
 C         -3.5500217043        4.5282717955       -0.1496249026
 C         -3.7231216516        3.4415032623       -2.2699683084
 C         -4.4193233735        5.5177968481       -0.5799780590
 C         -4.5829203336        4.4295570942       -2.7183189072
 H         -4.6889048501        6.3179248954        0.0898408000
 C         -4.9260878816        5.4655250451       -1.8670256343
 H         -4.9706642432        4.3841149594       -3.7233610556
 H         -5.5947880664        6.2384474612       -2.2106521889
 C          3.2452324781       -3.4758992566       -0.9065079531
 C          3.9508152871       -4.3786067168       -0.1175478776
 C          3.4614183175       -3.5035877170       -2.2840005917
 C          4.8476669236       -5.2745438105       -0.6791752207
 C          4.3496230568       -4.3949058935       -2.8609207051
 H          5.3849756426       -5.9615263856       -0.0452689219
 C          5.0415322802       -5.2773302699       -2.0497084169
 H          4.4910602261       -4.3898050646       -3.9296754433
 H          5.7378260661       -5.9732237528       -2.4910575284
 H         -4.2820211518       -5.5845351033        3.0831721208
 H         -6.4414915351       -4.6922415240       -0.5074070275
 H          3.9732660266        5.8251384485        2.9738965924
 H          6.3839140201        4.7509243267       -0.3993074436
 Cl         3.6877632259       -4.3667017966        1.5894765914
 Cl         2.5915531442       -2.3880745612       -3.2757079779
 Cl        -2.9047174069        4.5802258856        1.4519624714
 Cl        -3.2787505065        2.1440353564       -3.3199666051
 Cl         1.9299916462        3.8762764283        2.8291280778
 Cl         4.9275463454        2.5939454472       -1.4692549863
 Cl        -2.1177073918       -3.7782424768        2.8832795847
 Cl        -4.7903487788       -2.7376334723       -1.6856285398
 Cl        -0.1062077957        0.0216933572        2.5851387861
  78
       -160.30900767
 N         -0.0941984759       -2.0111488165       -0.1187271829
 N         -1.9817099818        0.1061813745       -0.0398834980
 C          2.2497195216       -2.4609276080       -0.6632938086
 C          0.8960763079       -2.8333166171       -0.5792136382
 C          0.3483317295       -4.1219229004       -0.8241146392
 H          0.8746448377       -4.9635526504       -1.2317780395
 C         -0.9709330634       -4.0726550273       -0.4422860876
 H         -1.6884121402       -4.8674646356       -0.4693043612
 C         -1.2200366670       -2.7476369045       -0.0106073768
 C         -2.4920636663       -2.2377040511        0.4075597867
 C         -2.8362664028       -0.9030133489        0.3502019866
 C         -4.1597432412       -0.3531563679        0.5181347060
 H         -5.0120194171       -0.8976326399        0.8757426500
 C         -4.1025680321        0.9381414256        0.1140745816
 H         -4.8985231991        1.6556343726        0.0753246887
 C         -2.7287310909        1.2212323934       -0.2169878207
 C         -3.4701126438       -3.2367588099        0.8742878656
 C         -3.2111567132       -3.9355641235        2.0576056211
 C         -4.1064695895       -4.8669021668        2.5571762851
 C         -5.2782985402       -5.1222341061        1.8663530622
 H         -5.9826887722       -5.8408677008        2.2536384355
 C         -5.5499603976       -4.4679917434        0.6765937824
 C         -4.6468505073       -3.5382606361        0.1878077023
 N          0.1028951019        2.0465794451       -0.1292457196
 N          2.0069664454       -0.0661844792       -0.1548319829
 C         -2.2564864180        2.4884227622       -0.5970532015
 C         -0.9026869119        2.8698666145       -0.5517721018
 C         -0.3655026938        4.1610521438       -0.8092865088
 H         -0.9072507091        5.0027257390       -1.1970337806
 C          0.9666306969        4.1117369993       -0.4693498117
 H          1.6855454614        4.9059120179       -0.5242467956
 C          1.2335094235        2.7854040143       -0.0607985700
 C          2.5231595819        2.2742746805        0.3004861402
 C          2.8752540099        0.9443415520        0.1884669547
 C          4.2073704087        0.4013838237        0.2903819040
 H          5.0781778135        0.9564672828        0.5821904323
 C          4.1323513462       -0.8973266306       -0.0866371541
 H          4.9274909355       -1.6155771765       -0.1537422467
 C          2.7449739058       -1.1893620195       -0.3405052200
 C          3.4798216969        3.2635295471        0.8302202292
 C          3.2071801833        3.8384104509        2.0767300701
 C          4.0681709321        4.7570625524        2.6534930511
 C          5.2221191503        5.1231321513        1.9814926339
 H          5.9002536834        5.8336842650        2.4291246628
 C          5.5103603158        4.5872966453        0.7380196313
 C          4.6385897381        3.6698385332        0.1710736930
 Fe         0.0237845060        0.0178643671        0.3115013268
 C         -3.2497137715        3.4671222939       -1.0731633370
 C         -3.5170051154        4.6694358422       -0.4117438891
 C         -3.9562578571        3.2151370392       -2.2539728055
 C         -4.4187327299        5.5914901396       -0.9186835187
 C         -4.8600997525        4.1265015060       -2.7721074308
 H         -4.6012009546        6.5096411904       -0.3825742145
 C         -5.0802726827        5.3193833347       -2.1045310148
 H         -5.3778151555        3.8988317316       -3.6895442895
 H         -5.7817353821        6.0349079750       -2.5058526357
 C          3.2257824261       -3.4929785198       -1.0630106730
 C          3.4590682846       -4.6369963816       -0.2956880924
 C          3.9499054901       -3.3518773800       -2.2495898526
 C          4.3595415012       -5.6072494302       -0.7083875144
 C          4.8546495854       -4.3119201612       -2.6687783867
 H          4.5132422956       -6.4795946833       -0.0933722689
 C          5.0524801846       -5.4419225281       -1.8938028431
 H          5.3917836285       -4.1760289320       -3.5937399123
 H          5.7509666942       -6.1985423059       -2.2153761103
 H         -3.8808485673       -5.3791543948        3.4792310044
 H         -6.4516877670       -4.6767584661        0.1235873950
 H          3.8295071711        5.1755329016        3.6176224726
 H          6.4001360861        4.8794811133        0.2032753849
 Cl         2.6337112957       -4.8365588600        1.2033603236
 Cl         3.6828947551       -1.9576942068       -3.2332525729
 Cl        -2.7433945928        4.9832881243        1.1015913632
 Cl        -3.6838056232        1.7264857876       -3.0911328012
 Cl         1.7776375083        3.3514703376        2.9183084351
 Cl         4.9695428064        3.0486969527       -1.4103072756
 Cl        -1.7542255597       -3.6010239322        2.9210717716
 Cl        -4.9576973006       -2.7699824155       -1.3295052701
 Cl         0.0902617827        0.0054470615        2.4430108613
  78
       -160.30898430
 N         -0.0356708309       -2.0378217487        0.2912997176
 N         -1.9362603630        0.0548235820       -0.0169433300
 C          2.3342029962       -2.5193287899       -0.0141665033
 C          1.0286348516       -2.8900512934        0.2656559461
 C          0.5765096855       -4.2337422655        0.5098265426
 H          1.2130593576       -5.0948783915        0.5690207556
 C         -0.7639321538       -4.1721735888        0.6907441912
 H         -1.4363699183       -4.9727873669        0.9309188198
 C         -1.1502046817       -2.8033215490        0.4739924752
 C         -2.4481601478       -2.3511055786        0.2857392996
 C         -2.7732905425       -1.0229777203       -0.0840856911
 C         -4.0263053675       -0.6317811683       -0.6112797198
 H         -4.8555338228       -1.2847557538       -0.8039990332
 C         -3.9517009677        0.7212455906       -0.8404052342
 H         -4.7096057582        1.3580580926       -1.2530268397
 C         -2.6590698079        1.1307435199       -0.4397011190
 C         -3.5730765203       -3.3009218483        0.3514728266
 C         -4.5868697718       -3.1300006819        1.2990689711
 C         -5.6779387153       -3.9804959338        1.3536680082
 C         -5.7723912004       -5.0282539062        0.4540356646
 H         -6.6213888864       -5.6923827896        0.4905929151
 C         -4.7883372785       -5.2227618887       -0.4988381871
 C         -3.7064677672       -4.3597586669       -0.5488878547
 N          0.1501259901        2.0427532311       -0.1139585030
 N          2.0602301320       -0.0651257830        0.1537241568
 C         -2.2275680892        2.4862046782       -0.4199953043
 C         -0.9156331697        2.8878887500       -0.2414353774
 C         -0.4621961732        4.2519761973       -0.1492871710
 H         -1.0975879839        5.1143272265       -0.2055600968
 C          0.8792944346        4.2115894619        0.0221748149
 H          1.5600711851        5.0334739160        0.1323634364
 C          1.2586349337        2.8233162403        0.0401451106
 C          2.5596094764        2.3551024817        0.1545152362
 C          2.9283477202        0.9908047928        0.1289960006
 C          4.2557438989        0.5245537322       -0.0337712370
 H          5.1309723561        1.1428895932       -0.0777758093
 C          4.1819641249       -0.8425614763       -0.1465260952
 H          4.9874669740       -1.5380554103       -0.2811702201
 C          2.8142829894       -1.1876228855       -0.0213386026
 C          3.6568895018        3.3451949069        0.2149067021
 C          4.3334680572        3.5923720229        1.4086940790
 C          5.3645322905        4.5156220446        1.4734576737
 C          5.7387453572        5.1992941955        0.3296607689
 H          6.5435608038        5.9162671321        0.3739079118
 C          5.0905528357        4.9698148038       -0.8716702804
 C          4.0557985108        4.0504240888       -0.9194341213
 Fe         0.0460070352        0.0395311401        0.4597986856
 C         -3.3020443132        3.4854243485       -0.5548650388
 C         -4.3091448886        3.5621062418        0.4133583163
 C         -3.4055634396        4.3317695760       -1.6594440666
 C         -5.3804409708        4.4267045690        0.2777630966
 C         -4.4720760760        5.2028822419       -1.8059876009
 H         -6.1425240209        4.4526353769        1.0396402006
 C         -5.4606243020        5.2412259863       -0.8385105077
 H         -4.5277121548        5.8345323149       -2.6788318714
 H         -6.3003054410        5.9086994206       -0.9556390393
 C          3.2516851617       -3.5747276016       -0.4998143067
 C          3.9464899596       -4.4620106129        0.3145687331
 C          3.3899436505       -3.7141537340       -1.8824074791
 C          4.7438616667       -5.4593652117       -0.2254919143
 C          4.1813362717       -4.7033177798       -2.4368439217
 H          5.2672786935       -6.1368778697        0.4289783201
 C          4.8535161434       -5.5767757807       -1.5995229358
 H          4.2576323585       -4.7874190215       -3.5088279274
 H          5.4669162895       -6.3547445015       -2.0237402727
 H         -6.4439935459       -3.8161188559        2.0935221472
 H         -4.8588990243       -6.0289268140       -1.2107853725
 H          5.8638246749        4.6930973085        2.4118066047
 H          5.3810900332        5.4940233627       -1.7675274637
 Cl         3.8050528494       -4.3015875667        2.0291410974
 Cl         2.5253405719       -2.6288866144       -2.9120957120
 Cl        -4.1973231118        2.5646630051        1.8195458414
 Cl        -2.2023826892        4.2541200290       -2.8972034185
 Cl         3.8455579908        2.7343021435        2.8253738237
 Cl         3.2477732463        3.7443183125       -2.4153698577
 Cl        -4.4608612946       -1.8344370949        2.4331056598
 Cl        -2.5281325469       -4.5678374069       -1.7979266364
 Cl        -0.0323236508        0.2884502469        2.5773073385
  78
       -160.30887682
 N         -0.0962681344       -2.0088615571       -0.1574604700
 N         -1.9882768846        0.1012198318       -0.1365043797
 C          2.2584839162       -2.4578323847       -0.6564655214
 C          0.9080214663       -2.8413476452       -0.5658705030
 C          0.3782037163       -4.1430393651       -0.7740032629
 H          0.9292819147       -4.9933937742       -1.1278262181
 C         -0.9530966884       -4.0876906755       -0.4318629119
 H         -1.6712091641       -4.8845586075       -0.4575616179
 C         -1.2204643617       -2.7503418097       -0.0539821007
 C         -2.5035869095       -2.2369940193        0.3309046100
 C         -2.8525186081       -0.9058815541        0.2328069196
 C         -4.1768046310       -0.3568511660        0.3704016604
 H         -5.0389769958       -0.9015355650        0.7024469908
 C         -4.1105180406        0.9374850108       -0.0223635495
 H         -4.9040519733        1.6576975739       -0.0713436729
 C         -2.7296137444        1.2220040830       -0.3120728941
 C         -3.4563959456       -3.2299950462        0.8571036629
 C         -3.1482547655       -3.8632165562        2.0668988917
 C         -3.9994867928       -4.7949734125        2.6354913686
 C         -5.1832567378       -5.1146200588        1.9945654801
 H         -5.8559555268       -5.8328543570        2.4357699306
 C         -5.5078769338       -4.5202368988        0.7876782621
 C         -4.6458061057       -3.5911832437        0.2269644272
 N          0.0994912922        2.0558498849       -0.1383439925
 N          2.0003166314       -0.0631196957       -0.1526320830
 C         -2.2492461586        2.4973638216       -0.6448211315
 C         -0.9028328046        2.8905098361       -0.5471955850
 C         -0.3717310928        4.1964412833       -0.7370468490
 H         -0.9175831333        5.0485632817       -1.0913014201
 C          0.9534546822        4.1392932457       -0.3798251657
 H          1.6685592714        4.9390906410       -0.3867035471
 C          1.2226717848        2.7951435051       -0.0240597321
 C          2.5128177760        2.2769767638        0.3179698353
 C          2.8692044058        0.9519160727        0.1736630035
 C          4.2093252663        0.4268071415        0.2185083774
 H          5.0805457301        0.9980567455        0.4742008464
 C          4.1368046962       -0.8714834597       -0.1605296060
 H          4.9371869464       -1.5789932989       -0.2629483391
 C          2.7452285249       -1.1789240796       -0.3638281606
 C          3.4829337997        3.2509249151        0.8597070316
 C          3.3157799680        3.6638733178        2.1841140387
 C          4.1925985471        4.5608743254        2.7715454453
 C          5.2445471573        5.0661174888        2.0286803648
 H          5.9295344854        5.7663164157        2.4816162185
 C          5.4240837263        4.6847331490        0.7089357885
 C          4.5438244629        3.7834181347        0.1330070118
 Fe         0.0074069099        0.0209914447        0.2736083027
 C         -3.2478785728        3.4840945792       -1.0987497211
 C         -3.5792850397        4.6255132298       -0.3655094497
 C         -3.9156049363        3.2776327136       -2.3100558526
 C         -4.5194275383        5.5333496763       -0.8289107242
 C         -4.8612844347        4.1718646587       -2.7799664300
 H         -4.7560045465        6.3994903699       -0.2320972893
 C         -5.1555989728        5.3029150044       -2.0368136544
 H         -5.3572914762        3.9789994984       -3.7179516382
 H         -5.8940949629        6.0016419501       -2.3960115112
 C          3.2366943129       -3.4948736722       -1.0434284586
 C          3.5453205950       -4.5691790172       -0.2088673465
 C          3.8739759354       -3.4326560379       -2.2834839496
 C          4.4441374295       -5.5491787709       -0.5998610184
 C          4.7732404921       -4.4051918349       -2.6870476411
 H          4.6623336046       -6.3670835631        0.0681919423
 C          5.0507172471       -5.4648923178       -1.8406782331
 H          5.2415328573       -4.3262215207       -3.6550311588
 H          5.7468306842       -6.2286613703       -2.1499826646
 H         -3.7327524172       -5.2527930387        3.5746433345
 H         -6.4223882906       -4.7718366194        0.2744524007
 H          4.0458034509        4.8506594845        3.7993368455
 H          6.2338041215        5.0861628363        0.1226855500
 Cl         2.8115699165       -4.6522997366        1.3517599444
 Cl         3.5056767569       -2.1199414466       -3.3425573748
 Cl        -2.8344321419        4.8832268792        1.1727696129
 Cl        -3.5362111867        1.8778224519       -3.2462326292
 Cl         2.0012652689        3.0018665147        3.0920309153
 Cl         4.7447603564        3.3104986776       -1.5173698132
 Cl        -1.6897598587       -3.4275769437        2.8848633610
 Cl        -5.0395419852       -2.8951972594       -1.3107503403
 Cl         0.0104325799        0.0077146330        2.4074544827
  78
       -160.30884663
 N         -0.0632759165       -2.0365387085       -0.3135178285
 N         -1.9831572559        0.0985492699       -0.3522099791
 C          2.3066496214       -2.4839893409        0.1975723054
 C          0.9790070244       -2.8811190417       -0.1610475183
 C          0.5744374803       -4.2062674936       -0.4459771513
 H          1.2096059522       -5.0698698782       -0.4179061378
 C         -0.7598334152       -4.1470942309       -0.7746837212
 H         -1.3960772167       -4.9588534474       -1.0663120726
 C         -1.1526662510       -2.7891278133       -0.6499890070
 C         -2.4675904080       -2.2890396919       -0.7147818984
 C         -2.8310466927       -0.9577926479       -0.5004461978
 C         -4.1850748716       -0.5190804573       -0.2894566307
 H         -5.0499533025       -1.1509985484       -0.3495550976
 C         -4.1339480100        0.7943086940        0.0341211430
 H         -4.9540330766        1.4389467190        0.2838545685
 C         -2.7526825179        1.1948339694       -0.0443338100
 C         -3.5501558823       -3.2764792927       -0.9144631685
 C         -3.8411724077       -4.2350568505        0.0592670200
 C         -4.8372503874       -5.1772826148       -0.1349620193
 C         -5.5682294113       -5.1663337552       -1.3102739478
 H         -6.3445065065       -5.8997442777       -1.4668346660
 C         -5.3166352271       -4.2173607670       -2.2854546692
 C         -4.3155690608       -3.2821196027       -2.0797882790
 N          0.1010504615        2.0374849140       -0.3128814382
 N          2.0214855378       -0.0919986034       -0.2291505545
 C         -2.2817294887        2.4847003516        0.1090509461
 C         -0.9392310616        2.8874232801       -0.1781481529
 C         -0.5094830216        4.2195831820       -0.3936301453
 H         -1.1379205173        5.0877473166       -0.3553124256
 C          0.8362866864        4.1585438355       -0.6660610496
 H          1.5015888291        4.9728066690       -0.8794650280
 C          1.2072671388        2.7891753186       -0.5879829318
 C          2.5180478989        2.2827400459       -0.6365121051
 C          2.8771482551        0.9585730794       -0.3893113427
 C          4.2274034337        0.5087579911       -0.1883518539
 H          5.0998731165        1.1280949929       -0.2691388439
 C          4.1668306358       -0.7997376085        0.1583541795
 H          4.9825992447       -1.4479945419        0.4095251058
 C          2.7835376069       -1.1917271298        0.0786630910
 C          3.5896025834        3.2738695445       -0.8958690287
 C          4.2925101024        3.8792326448        0.1447442551
 C          5.2508377184        4.8504723819       -0.1042948708
 C          5.5135974096        5.2262525845       -1.4107598146
 H          6.2454640365        5.9932993933       -1.6115863168
 C          4.8377580556        4.6324756015       -2.4652600118
 C          3.8830066055        3.6635991817       -2.2003992253
 Fe         0.0076747503        0.0014429112        0.0883437915
 C         -3.1599487439        3.5267060937        0.6727279780
 C         -2.8787499423        3.9838229994        1.9652612497
 C         -4.2534603328        4.0809308380        0.0108583982
 C         -3.6728178592        4.9362722165        2.5825653397
 C         -5.0575426585        5.0327816131        0.6198400751
 H         -3.4311517580        5.2623001230        3.5825106020
 C         -4.7660104857        5.4517188641        1.9071646352
 H         -5.8990211878        5.4412513074        0.0835421974
 H         -5.3920211979        6.1873553759        2.3890225527
 C          3.1545910907       -3.5352748432        0.7947896953
 C          2.8248506067       -3.9759656994        2.0808142348
 C          4.2674440639       -4.1077926538        0.1788637621
 C          3.5887775655       -4.9247047789        2.7402036907
 C          5.0379749843       -5.0633929630        0.8273544249
 H          3.3154053250       -5.2276750620        3.7376960529
 C          4.6989617785       -5.4608318412        2.1088988554
 H          5.8925726315       -5.4905942605        0.3217912592
 H          5.3006440328       -6.1985282949        2.6180253890
 H         -5.0366623242       -5.9059527204        0.6341127471
 H         -5.8864784810       -4.1985188986       -3.2005666548
 H          5.7778577503        5.3074834484        0.7183759563
 H          5.0410666103        4.9212085541       -3.4848822418
 Cl         1.4446554620       -3.2823549626        2.8670989233
 Cl         4.6685372644       -3.6407259452       -1.4365653206
 Cl        -1.5311065447        3.3110599090        2.8135641766
 Cl        -4.5878450765        3.5931858981       -1.6153905513
 Cl         3.9363362205        3.4062872424        1.7651093360
 Cl         3.0298402447        2.9119983864       -3.4995017345
 Cl        -2.9611186801       -4.2201423178        1.5445566307
 Cl        -3.9867215454       -2.1043136253       -3.2988613637
 Cl        -0.1130649015       -0.0294533660        2.2178719066
  78
       -160.30883274
 N         -0.0714797043       -2.0335250452        0.1971101460
 N         -1.9961611085        0.1100329720        0.2563928541
 C          2.3147547257       -2.5273069214        0.4403340210
 C          0.9772429712       -2.8955659830        0.2822702617
 C          0.5247786757       -4.2320140554        0.0283361263
 H          1.1482892812       -5.1053146874        0.0366818451
 C         -0.8005343020       -4.1530729178       -0.2562079452
 H         -1.4643682916       -4.9514295494       -0.5256115674
 C         -1.1763901415       -2.7720396744       -0.1204697115
 C         -2.4582407024       -2.2675619340       -0.2763369367
 C         -2.8382076925       -0.9207811430       -0.0272701593
 C         -4.1814786177       -0.4679558932       -0.0228356628
 H         -5.0422922065       -1.0822756313       -0.1981539593
 C         -4.1472292452        0.8745199948        0.2594608795
 H         -4.9726561025        1.5553988854        0.3385871618
 C         -2.7790467910        1.2270164233        0.4015518101
 C         -3.5053353231       -3.1770916656       -0.7887486440
 C         -4.0529655690       -4.2077686094       -0.0249228608
 C         -4.9990341135       -5.0716291782       -0.5533284343
 C         -5.4133832774       -4.9106413690       -1.8639000384
 H         -6.1437788406       -5.5856635120       -2.2812617462
 C         -4.8983988933       -3.8895583580       -2.6430821257
 C         -3.9546711602       -3.0317071119       -2.1029585978
 N          0.0823397448        2.0537040367        0.2349587483
 N          2.0043843288       -0.0936905475        0.2096109710
 C         -2.3021563921        2.5463044207        0.4851519062
 C         -0.9615185695        2.9190160720        0.3564402461
 C         -0.4933164206        4.2642977554        0.1926789979
 H         -1.1016387076        5.1444711113        0.2729275143
 C          0.8316203885        4.1896010833       -0.0956136564
 H          1.5098474284        4.9969134424       -0.2984846775
 C          1.1912251345        2.7998069108       -0.0508848995
 C          2.4638271125        2.2902520561       -0.2635386429
 C          2.8450468646        0.9398918379       -0.0559092427
 C          4.1904153456        0.4901219075       -0.0510829044
 H          5.0505166865        1.1075078614       -0.2247792793
 C          4.1589866050       -0.8488704552        0.2369291696
 H          4.9874939141       -1.5231002167        0.3392629281
 C          2.7900757868       -1.2087910567        0.3558934513
 C          3.4935642187        3.1811665399       -0.8479381527
 C          4.2195638227        4.1236153349       -0.1261538975
 C          5.1553149749        4.9389892962       -0.7476153436
 C          5.3686227699        4.8205089049       -2.1123167795
 H          6.0958110855        5.4550595659       -2.5974598357
 C          4.6635253585        3.8917238456       -2.8562718491
 C          3.7425242514        3.0793097890       -2.2195516163
 Fe         0.0081994680        0.0066555937        0.6157974537
 C         -3.3121412492        3.6304764572        0.5042119630
 C         -3.9687328943        4.0026162940        1.6760822534
 C         -3.6408525123        4.3077002659       -0.6707643272
 C         -4.9116605269        5.0201862595        1.6802337502
 C         -4.5795478514        5.3265065741       -0.6823048363
 H         -5.4004498168        5.2880814179        2.6027236355
 C         -5.2103119151        5.6784311377        0.5000700369
 H         -4.8104540017        5.8294056493       -1.6077172601
 H         -5.9434889002        6.4713038093        0.4941909835
 C          3.3140624750       -3.6151931905        0.5311810708
 C          3.5291307815       -4.2828101966        1.7350229485
 C          4.0545931071       -4.0111113181       -0.5811412981
 C          4.4619084405       -5.3047217906        1.8327289948
 C          4.9858279790       -5.0331105576       -0.4987414535
 H          4.6111115495       -5.7995240853        2.7783248316
 C          5.1855876557       -5.6730324463        0.7124946899
 H          5.5403845783       -5.3205503041       -1.3775324097
 H          5.9113155451       -6.4684361987        0.7824597601
 H         -5.4027512922       -5.8611239206        0.0608480917
 H         -5.2149375877       -3.7561258710       -3.6652239507
 H          5.7097367506        5.6586678638       -0.1656280677
 H          4.8181824910        3.7937680018       -3.9196442083
 Cl         2.6125643695       -3.8033953735        3.1166768552
 Cl         3.7803466479       -3.2173076083       -2.0907956058
 Cl        -3.5773608965        3.1751625850        3.1394307616
 Cl        -2.8644457915        3.8414802581       -2.1429638398
 Cl         3.9610232090        4.2544271088        1.5776841893
 Cl         2.8492703477        1.9128264785       -3.1315002835
 Cl        -3.5472839650       -4.3855078734        1.6161971489
 Cl        -3.2862063672       -1.7762833898       -3.0778018069
 Cl         0.0965368634       -0.0354241759        2.7502093336
  78
       -160.30868922
 N         -0.1268568979       -2.0199105862       -0.0119148404
 N         -2.0472188275        0.1150549275       -0.0690081417
 C          2.2573882372       -2.4683161521        0.3834839458
 C          0.9068984371       -2.8748005168        0.1754050537
 C          0.4651814094       -4.2088324272        0.0030890141
 H          1.0744371131       -5.0863113993        0.0949136851
 C         -0.8682527217       -4.1439522570       -0.3232201559
 H         -1.5332869849       -4.9608543871       -0.5252870173
 C         -1.2254365428       -2.7687923303       -0.3182361786
 C         -2.5178193662       -2.2532617682       -0.5226436324
 C         -2.8915236501       -0.9244652363       -0.3176114241
 C         -4.2516415977       -0.4647353733       -0.2457626509
 H         -5.1127569730       -1.0779470783       -0.4274047961
 C         -4.2140204278        0.8368551455        0.1328232606
 H         -5.0403893036        1.4952822716        0.3169687992
 C         -2.8265155183        1.2187315713        0.1838962518
 C         -3.5258507630       -3.2297438683       -0.9985695007
 C         -4.4352536767       -3.8660582700       -0.1580119253
 C         -5.2847808823       -4.8563338288       -0.6328764185
 C         -5.2375200484       -5.2149516807       -1.9692403886
 H         -5.8754881716       -6.0049848240       -2.3356428823
 C         -4.3664181131       -4.5769600964       -2.8366374980
 C         -3.5208216993       -3.5949913574       -2.3460828893
 N          0.0365771200        2.0545771650       -0.1080415525
 N          1.9414430514       -0.0818630158       -0.0807526052
 C         -2.3486987468        2.5063895821        0.3359647953
 C         -1.0106348985        2.9000677362        0.0073512337
 C         -0.6101075772        4.2134154913       -0.3391893113
 H         -1.2479066860        5.0760360562       -0.3494621397
 C          0.7183146609        4.1416155522       -0.6853601797
 H          1.3439677756        4.9425723978       -1.0275602167
 C          1.1185465714        2.7903275990       -0.5044329529
 C          2.4204491847        2.2737720981       -0.6252630464
 C          2.7849969948        0.9508330802       -0.3415388651
 C          4.1469779644        0.5066461716       -0.2064404834
 H          5.0091287956        1.1262836061       -0.3533599763
 C          4.1066818407       -0.7950065474        0.1643086606
 H          4.9261487672       -1.4520955920        0.3743584267
 C          2.7194863849       -1.1795953862        0.1975844971
 C          3.5085694111        3.1826820878       -1.0391183661
 C          3.9551667331        4.2314902104       -0.2340131389
 C          5.0107026363        5.0426247195       -0.6230887153
 C          5.6414419979        4.8092045265       -1.8336476245
 H          6.4707613459        5.4307293014       -2.1375785137
 C          5.2193135976        3.7803025301       -2.6586171101
 C          4.1602828365        2.9811242306       -2.2594819186
 Fe        -0.0508264261        0.0265816424        0.3381661487
 C         -3.2262869431        3.5836576918        0.8336838054
 C         -3.0056367143        4.0582933199        2.1295748700
 C         -4.2357450375        4.1818852599        0.0820334103
 C         -3.7804752332        5.0722498218        2.6673893204
 C         -5.0161037408        5.1999903699        0.6073210544
 H         -3.5918553123        5.4121168963        3.6727189852
 C         -4.7857456743        5.6370710811        1.9007154072
 H         -5.7873416032        5.6482699253        0.0020729281
 H         -5.3910613077        6.4283843478        2.3149946296
 C          3.2163907941       -3.5327784719        0.7447583293
 C          3.1945657849       -4.0636722622        2.0359106003
 C          4.1464197085       -4.0482907792       -0.1567712721
 C          4.0629817754       -5.0731860694        2.4157115578
 C          5.0199729797       -5.0602988366        0.2101889778
 H          4.0242771987       -5.4594020575        3.4212943505
 C          4.9713525629       -5.5710766241        1.4964730850
 H          5.7264935911       -5.4388148347       -0.5101810549
 H          5.6461759652       -6.3642973040        1.7817930250
 H         -5.9646500373       -5.3469345778        0.0451927396
 H         -4.3287511633       -4.8406892323       -3.8817460517
 H          5.3422031598        5.8396599725        0.0220711314
 H          5.7069976682        3.5947084284       -3.6020707496
 Cl         2.0669304226       -3.4092025789        3.1742151419
 Cl         4.1836037580       -3.4310531570       -1.7705271405
 Cl        -1.7471023634        3.3303708708        3.0686793940
 Cl        -4.4826831953        3.6627574394       -1.5486095867
 Cl         3.2079264972        4.4839767357        1.3045631764
 Cl         3.6216413846        1.7037409113       -3.2909702236
 Cl        -4.4682593842       -3.4322286083        1.5157306631
 Cl        -2.4133519638       -2.8040418806       -3.4097057534
 Cl        -0.0429244348        0.0837979104        2.4712811997
  78
       -160.30862227
 N         -0.1131909811       -2.0572062602        0.2253448591
 N         -2.0441891847        0.0738578277        0.1727787241
 C          2.2833394646       -2.5390920480        0.2525955653
 C          0.9560315210       -2.9077033995        0.1456742427
 C          0.4916929854       -4.2503779631       -0.0750831691
 H          1.1304941358       -5.1074231600       -0.1679584984
 C         -0.8605121927       -4.1962898484       -0.1211720419
 H         -1.5545689058       -5.0015946808       -0.2659859328
 C         -1.2307436756       -2.8172779580        0.0592104888
 C         -2.5351104490       -2.3420257518        0.0306601284
 C         -2.9063403899       -0.9833493699        0.1282735071
 C         -4.2461459898       -0.5200507270        0.1230618913
 H         -5.1189937385       -1.1431172085        0.1059004906
 C         -4.1893321479        0.8516676211        0.1425720878
 H         -5.0072986131        1.5454633520        0.1430004825
 C         -2.8176131888        1.2012833065        0.1528224894
 C         -3.6222069658       -3.3172614782       -0.2169552768
 C         -4.1696680207       -4.0884604704        0.8047686622
 C         -5.1847667279       -4.9987910068        0.5538447809
 C         -5.6598594255       -5.1492352366       -0.7370402773
 H         -6.4478732114       -5.8578493566       -0.9384813797
 C         -5.1336702058       -4.3977344721       -1.7740074742
 C         -4.1249539982       -3.4883230303       -1.5058794765
 N          0.0693818574        2.0305690799        0.1290030910
 N          1.9748184075       -0.0925468021        0.3566705096
 C         -2.3293914426        2.5217732253        0.0366802710
 C         -0.9936169490        2.8768753036       -0.0299639990
 C         -0.5157731735        4.2009466976       -0.3212984217
 H         -1.1445185073        5.0517545497       -0.4982588371
 C          0.8361771897        4.1352167896       -0.3493919707
 H          1.5323422356        4.9233051082       -0.5591390431
 C          1.1959314776        2.7779910400       -0.0356458155
 C          2.4978930031        2.3070793774        0.0886343140
 C          2.8383468010        0.9633902496        0.3752802817
 C          4.1617257700        0.5065286405        0.5906090291
 H          5.0281387656        1.1289633324        0.6964672418
 C          4.1034380284       -0.8653040381        0.6302532204
 H          4.9141196559       -1.5532729182        0.7676254373
 C          2.7452096528       -1.2168093524        0.4570551730
 C          3.6268327937        3.2078079558       -0.2090999983
 C          3.9550141182        4.3024803243        0.5915636633
 C          5.0343007830        5.1189529073        0.2956226646
 C          5.8147889451        4.8449311287       -0.8129500902
 H          6.6606454657        5.4732188319       -1.0430734923
 C          5.5150712949        3.7686769773       -1.6308980543
 C          4.4295642311        2.9658463966       -1.3284822860
 Fe        -0.0490265051       -0.0021469966        0.5919076695
 C         -3.3347910854        3.6001118865       -0.1154001262
 C         -3.7628376945        4.3451393224        0.9803515957
 C         -3.8707386705        3.9037556319       -1.3646945214
 C         -4.6941165442        5.3618508950        0.8380974115
 C         -4.7981226515        4.9201093844       -1.5240462493
 H         -5.0092953241        5.9215401150        1.7035826675
 C         -5.2048400556        5.6447849601       -0.4167802318
 H         -5.1906657474        5.1366858306       -2.5043750035
 H         -5.9264626144        6.4380346478       -0.5341560873
 C          3.3397331998       -3.5229783954       -0.0815237225
 C          3.9823642518       -4.3201011248        0.8585861080
 C          3.7644257113       -3.6028970120       -1.4074376627
 C          5.0205581436       -5.1633713321        0.4935906801
 C          4.7956926345       -4.4422877088       -1.7888443396
 H          5.5103812681       -5.7633290794        1.2430050980
 C          5.4231798150       -5.2169302736       -0.8290041367
 H          5.1028826479       -4.4762668167       -2.8210939980
 H          6.2365896688       -5.8644146094       -1.1152030751
 H         -5.5931964554       -5.5788897462        1.3651686490
 H         -5.4960991069       -4.5128617929       -2.7825776359
 H          5.2614443458        5.9551389027        0.9367319350
 H          6.1141559282        3.5468700128       -2.4985930319
 Cl         3.4742725027       -4.2272578239        2.5058965453
 Cl         2.9821571331       -2.6082368702       -2.5848450291
 Cl        -3.1080332490        3.9731750730        2.5342720343
 Cl        -3.3454048663        2.9881956964       -2.7314897346
 Cl         3.0129389408        4.6174671445        2.0051963189
 Cl         4.0416505658        1.6501896119       -2.3795637596
 Cl        -3.5638682162       -3.8827918785        2.4082861932
 Cl        -3.4514005843       -2.5436354964       -2.7856770466
 Cl        -0.1609958109        0.0533268365        2.7214151188
  78
       -160.30860971
 N         -0.0973636318       -2.0221171714       -0.2178691892
 N         -2.0375780414        0.0583286186       -0.1245003899
 C          2.2680585118       -2.4319729022       -0.6659351441
 C          0.9576535989       -2.8471221391       -0.4269543976
 C          0.5376030162       -4.2150530730       -0.2602627340
 H          1.1741394621       -5.0699183231       -0.3861877795
 C         -0.7629999159       -4.1875754309        0.1164848472
 H         -1.4083002342       -5.0142137507        0.3438371312
 C         -1.1710970225       -2.8048420324        0.1159627928
 C         -2.4516970789       -2.3369085247        0.3196366264
 C         -2.8708439738       -1.0011538433        0.0233564980
 C         -4.2013718958       -0.6151483104       -0.2591006963
 H         -5.0602816137       -1.2555233378       -0.2171525688
 C         -4.1592055342        0.7091077051       -0.6246820560
 H         -4.9783545752        1.3277397064       -0.9346330119
 C         -2.8067825923        1.1263388605       -0.5070753564
 C         -3.4697994898       -3.2539030793        0.8796284396
 C         -3.5609322171       -3.3658382194        2.2679002796
 C         -4.5010362996       -4.1923808549        2.8616217368
 C         -5.3668541235       -4.9177086636        2.0616355727
 H         -6.1039770556       -5.5601001606        2.5181755464
 C         -5.2967782693       -4.8287133124        0.6819412588
 C         -4.3486383693       -4.0003067600        0.1025659189
 N          0.0404068109        2.0447603962       -0.2268595953
 N          1.9614200737       -0.0356074239       -0.1678392367
 C         -2.3370383492        2.4415533842       -0.6723905422
 C         -1.0254883741        2.8579300837       -0.4164200925
 C         -0.6361414966        4.2232892477       -0.1831798012
 H         -1.2912928521        5.0693208588       -0.2692932888
 C          0.6583000302        4.2043236203        0.2156395739
 H          1.2583518563        5.0370887260        0.5241971707
 C          1.1041929304        2.8361978866        0.1297324825
 C          2.3942756335        2.3678516521        0.2793972420
 C          2.7899546274        1.0300445089       -0.0667599642
 C          4.1071344485        0.6560316070       -0.4145315127
 H          4.9555375614        1.3120191881       -0.4356790395
 C          4.0671298749       -0.6818817565       -0.7331970991
 H          4.8800197639       -1.3031811632       -1.0548985306
 C          2.7260047760       -1.1060323846       -0.5526671113
 C          3.4576421801        3.2192434076        0.8346762701
 C          4.0498498088        2.8279708186        2.0438802354
 C          5.0401297086        3.5869201854        2.6444705353
 C          5.4599306331        4.7600499610        2.0422531948
 H          6.2225610203        5.3606590760        2.5124071879
 C          4.9115820977        5.1619985476        0.8361063638
 C          3.9294540093        4.3890798769        0.2382250231
 Fe        -0.0332914998        0.0122467659        0.2260452917
 C         -3.2872232321        3.4803595141       -1.1207058180
 C         -4.3294481588        3.9540369023       -0.3249345267
 C         -3.1391305183        4.0355470376       -2.3943987590
 C         -5.1991412488        4.9304417871       -0.7850514917
 C         -4.0022701703        5.0091834569       -2.8670153276
 H         -5.9941037475        5.2792935107       -0.1449604387
 C         -5.0333462330        5.4507532865       -2.0566620291
 H         -3.8628811307        5.4116245405       -3.8573688237
 H         -5.7118084850        6.2089818643       -2.4175549460
 C          3.2779827772       -3.4660408180       -0.9830266517
 C          4.1867292223       -3.9120833911       -0.0257170277
 C          3.3581395325       -4.0134603480       -2.2630235088
 C          5.1424363436       -4.8685456267       -0.3298734812
 C          4.3116748398       -4.9647478617       -2.5839533445
 H          5.8287935330       -5.1958195770        0.4342665494
 C          5.2011734411       -5.3876656593       -1.6111977692
 H          4.3531616122       -5.3615401251       -3.5858916640
 H          5.9468691029       -6.1284408937       -1.8544284220
 H         -4.5486903697       -4.2596337243        3.9361489341
 H         -5.9688152041       -5.3943645105        0.0568431179
 H          5.4689648085        3.2568622660        3.5773427338
 H          5.2469669728        6.0650668117        0.3516217721
 Cl         4.0949653242       -3.2582950957        1.5710933901
 Cl         2.2478552602       -3.4650165987       -3.4653335462
 Cl        -4.5092354430        3.3345915436        1.2768861462
 Cl        -1.8580032489        3.4731310780       -3.4047171909
 Cl         3.4997197967        1.3889571298        2.8229253791
 Cl         3.3354080182        4.8563828446       -1.3165825346
 Cl        -2.4703376925       -2.4397771618        3.2394943538
 Cl        -4.2355715890       -3.8865793523       -1.6197772330
 Cl        -0.0044797905        0.0131894924        2.3588570949
  78
       -160.30847510
 N         -0.0333246948       -2.0380131454        0.2591768390
 N         -1.9186433670        0.0503891726       -0.1043729727
 C          2.3490382594       -2.5188655197        0.0655344718
 C          1.0324589658       -2.8872707653        0.3032932552
 C          0.5722057901       -4.2268653779        0.5561972040
 H          1.2066402213       -5.0846495719        0.6604273161
 C         -0.7745709681       -4.1659968895        0.6753704186
 H         -1.4569227252       -4.9619716327        0.9023627229
 C         -1.1544330423       -2.8027520444        0.4108463369
 C         -2.4431248987       -2.3543006118        0.1698356642
 C         -2.7480128865       -1.0246272779       -0.2246166870
 C         -3.9817004970       -0.6266359119       -0.7899552467
 H         -4.7976003891       -1.2781255587       -1.0334269871
 C         -3.9111582817        0.7340827317       -0.9698482151
 H         -4.6589304036        1.3802553766       -1.3845603390
 C         -2.6353961417        1.1364918035       -0.5146041916
 C         -3.5913420502       -3.2734852502        0.2359849122
 C         -4.6378612647       -3.0189453163        1.1303443348
 C         -5.7724955766       -3.8103899020        1.1650790410
 C         -5.8780757501       -4.8897629683        0.3039965760
 H         -6.7627236040       -5.5064900811        0.3220335499
 C         -4.8582077472       -5.1747864530       -0.5873103407
 C         -3.7339140370       -4.3667263292       -0.6213998597
 N          0.1597467322        2.0476042129       -0.1284145405
 N          2.0710431606       -0.0590448516        0.1683009379
 C         -2.2184056715        2.4900121260       -0.4155127455
 C         -0.9120677460        2.8928880524       -0.2151134071
 C         -0.4659868731        4.2549108869       -0.0805023619
 H         -1.1094882013        5.1131196060       -0.1003439251
 C          0.8778527537        4.2159342518        0.0669408529
 H          1.5545150813        5.0371385238        0.2019614315
 C          1.2659220861        2.8285363825        0.0306390736
 C          2.5712081499        2.3640042736        0.1122428571
 C          2.9370996299        0.9945299198        0.1003573224
 C          4.2626392323        0.5245651636       -0.0654690012
 H          5.1375944422        1.1394019686       -0.1466821609
 C          4.1919653033       -0.8457536750       -0.1210056959
 H          4.9992418745       -1.5429694981       -0.2340760430
 C          2.8260897175       -1.1891219837        0.0256174036
 C          3.6676530541        3.3521314096        0.1161425703
 C          4.4982775982        3.5141562010        1.2264724106
 C          5.5385693894        4.4288894642        1.2240918658
 C          5.7675923585        5.1985201497        0.0965756532
 H          6.5785267783        5.9101080834        0.0877422628
 C          4.9642593763        5.0597761971       -1.0218253565
 C          3.9261872886        4.1438683259       -1.0049984403
 Fe         0.0497848325        0.0395677392        0.4291357495
 C         -3.3199633236        3.4708078134       -0.4558755523
 C         -4.2590594785        3.4782543839        0.5803681304
 C         -3.5233900240        4.3442211067       -1.5219138907
 C         -5.3637043627        4.3103359965        0.5476474822
 C         -4.6290778127        5.1781092390       -1.5702068080
 H         -6.0709903931        4.2879669736        1.3605536207
 C         -5.5480608850        5.1522026630       -0.5358804365
 H         -4.7699395539        5.8286177108       -2.4179778731
 H         -6.4168988791        5.7897278137       -0.5748481017
 C          3.2823056179       -3.5881317549       -0.3555745296
 C          3.9020213665       -4.4852710442        0.5075888530
 C          3.5099623922       -3.7404188476       -1.7251809613
 C          4.7046639651       -5.5085114884        0.0269839923
 C          4.3091209574       -4.7542296776       -2.2202069996
 H          5.1657088225       -6.1946033802        0.7183262149
 C          4.8998957775       -5.6405330653       -1.3363144994
 H          4.4533420165       -4.8474052799       -3.2842965440
 H          5.5159362246       -6.4404900416       -1.7157376699
 H         -6.5636712407       -3.5743925643        1.8575700231
 H         -4.9342002970       -6.0079395161       -1.2669079659
 H          6.1588467304        4.5331374123        2.1002623501
 H          5.1392932010        5.6494448830       -1.9068788070
 Cl         3.6606079193       -4.3044047374        2.2094220916
 Cl         2.7432614264       -2.6455736800       -2.8203827269
 Cl        -4.0173088632        2.4290826606        1.9318182358
 Cl        -2.3936683417        4.3446468163       -2.8293475191
 Cl         4.1944505364        2.5653049173        2.6369061494
 Cl         2.9490957496        3.9485129834       -2.4168833031
 Cl        -4.5006774961       -1.6897136040        2.2248954192
 Cl        -2.5141988858       -4.6867583440       -1.8057965975
 Cl        -0.0933364987        0.2779883263        2.5443530610
  78
       -160.30837083
 N         -0.0371410718       -2.1221459161       -0.2836640829
 N         -1.9781192501       -0.0009670247       -0.2749292980
 C          2.3629851824       -2.5474115555       -0.3900704627
 C          1.0350659350       -2.9524285692       -0.2634238755
 C          0.5936604404       -4.3140587540       -0.0905357106
 H          1.2431179178       -5.1680879306       -0.0637090390
 C         -0.7507955617       -4.2791405209        0.0547559662
 H         -1.4292656146       -5.0960130210        0.2086467974
 C         -1.1519705033       -2.9018776264       -0.0910020050
 C         -2.4386838717       -2.4286286148       -0.1160685362
 C         -2.7849531542       -1.0762262025       -0.4508856682
 C         -4.0455587589       -0.6763694694       -0.9429535230
 H         -4.8584199472       -1.3318656578       -1.1915103518
 C         -4.0045303590        0.6935563236       -1.0563438718
 H         -4.7749264299        1.3449353116       -1.4205226024
 C         -2.7277287570        1.1034583412       -0.5959725968
 C         -3.5812096724       -3.2341293005        0.3681010938
 C         -3.9196439302       -3.0999836389        1.7172553631
 C         -5.0429460192       -3.7153905851        2.2418512748
 C         -5.8503326878       -4.4725176368        1.4093773078
 H         -6.7395288040       -4.9361152041        1.8063786476
 C         -5.5310858102       -4.6341432150        0.0726276393
 C         -4.3980863241       -4.0177400870       -0.4384638084
 N          0.0532061522        1.9755729792       -0.0820663500
 N          2.0182506262       -0.1136753488       -0.1491518467
 C         -2.3234932237        2.4336642638       -0.3882085109
 C         -1.0233570032        2.7966908207       -0.0269479877
 C         -0.6151503444        4.1092547742        0.4001851962
 H         -1.2810545991        4.9319021185        0.5754884222
 C          0.7273660633        4.0720324211        0.5570832073
 H          1.3780914419        4.8599500690        0.8832330599
 C          1.1530300758        2.7366515839        0.2166451931
 C          2.4596376878        2.3080946499        0.1215351543
 C          2.8484911091        0.9651698303       -0.1598054088
 C          4.1710158650        0.5621443387       -0.4594680945
 H          5.0146613162        1.2178229509       -0.5526778805
 C          4.1453036541       -0.8027682746       -0.6034552796
 H          4.9660845377       -1.4558259797       -0.8269452100
 C          2.8003423753       -1.2108551153       -0.4031859731
 C          3.5164029425        3.3263456138        0.2716513294
 C          4.4051120182        3.3046533513        1.3477012626
 C          5.3562660860        4.2967240688        1.5188753858
 C          5.4353558898        5.3306217065        0.6042887026
 H          6.1695837394        6.1099837313        0.7380361005
 C          4.5802723298        5.3722445879       -0.4828632509
 C          3.6319041451        4.3767953828       -0.6418123830
 Fe         0.0061892449       -0.0905013065        0.1860984253
 C         -3.3131559511        3.5094944306       -0.5569056555
 C         -4.4760867643        3.5778928461        0.2157223254
 C         -3.1110122523        4.5220447931       -1.5008187439
 C         -5.3963181288        4.5996338423        0.0509604483
 C         -4.0178933366        5.5540231843       -1.6672119134
 H         -6.2825488734        4.6196351631        0.6640498935
 C         -5.1626190772        5.5870298040       -0.8902786396
 H         -3.8244657981        6.3186057770       -2.4017550110
 H         -5.8741146464        6.3874254035       -1.0176505352
 C          3.3981813052       -3.6054763396       -0.4620926562
 C          3.8707092619       -4.2147305544        0.6989215996
 C          3.9232507688       -4.0277446631       -1.6804254944
 C          4.8294321916       -5.2136762787        0.6498007464
 C          4.8834771883       -5.0243156846       -1.7467836376
 H          5.1749802825       -5.6674894446        1.5644040540
 C          5.3303873165       -5.6138040415       -0.5769699575
 H          5.2698550143       -5.3318224571       -2.7048585047
 H          6.0760195524       -6.3920829926       -0.6220801830
 H         -5.2824961307       -3.5875633441        3.2848696289
 H         -6.1601091078       -5.2197728594       -0.5781289465
 H          6.0176852953        4.2597980021        2.3686399503
 H          4.6379827523        6.1714094650       -1.2043382877
 Cl         3.2361645587       -3.6927105217        2.2189154485
 Cl         3.3477155864       -3.2860672257       -3.1298445573
 Cl        -4.7524304260        2.3915030523        1.4415741745
 Cl        -1.7103629570        4.4702016979       -2.5124985021
 Cl         4.2741052133        2.0319293926        2.5071961670
 Cl         2.5831921055        4.4260036117       -2.0145582379
 Cl        -2.9065083909       -2.1187375173        2.7235648933
 Cl        -3.9936409984       -4.1999072615       -2.1066486108
 Cl        -0.0235046552       -0.1984312584        2.3163833533
  78
       -160.30830548
 N         -0.0741112812       -2.0042443932       -0.3291459049
 N         -2.0249141478        0.0937064909       -0.3972294549
 C          2.2894439083       -2.4147466350        0.2154014327
 C          0.9967817386       -2.8207456934       -0.2555259232
 C          0.6392465222       -4.1270698827       -0.6708913619
 H          1.3077170198       -4.9638486052       -0.7316381619
 C         -0.6992647522       -4.0892801705       -0.9769653779
 H         -1.3145631475       -4.8927525528       -1.3368308120
 C         -1.1394246454       -2.7606547837       -0.7257673163
 C         -2.4681126916       -2.3028005252       -0.7280056184
 C         -2.8538994221       -0.9841838874       -0.4709680613
 C         -4.1995489474       -0.5786385039       -0.1607914428
 H         -5.0485730135       -1.2347479234       -0.1461767978
 C         -4.1598294946        0.7382206907        0.1480904470
 H         -4.9741311068        1.3638361423        0.4566097002
 C         -2.7998470690        1.1776445882       -0.0465026913
 C         -3.5268364806       -3.3206526839       -0.8898471163
 C         -3.7380944568       -4.2979782251        0.0848873625
 C         -4.7213417797       -5.2624114328       -0.0634653226
 C         -5.5090413069       -5.2649363840       -1.2017432288
 H         -6.2728103586       -6.0168366860       -1.3215084304
 C         -5.3247618062       -4.3083255286       -2.1847352809
 C         -4.3425448106       -3.3454268139       -2.0206569755
 N          0.0547131268        2.0600588185       -0.3629318577
 N          1.9786255191       -0.0304732087       -0.2052261999
 C         -2.3402341178        2.4745329129        0.0414306499
 C         -1.0168302507        2.8755726670       -0.3564121596
 C         -0.6415331094        4.1726548045       -0.7778011955
 H         -1.3054979054        5.0116187371       -0.8749111933
 C          0.7087654983        4.1279732662       -1.0338302601
 H          1.3326394892        4.9232702761       -1.3924746011
 C          1.1401711403        2.8086658328       -0.7263570522
 C          2.4631076096        2.3456575653       -0.6307215949
 C          2.8095717358        1.0422550943       -0.2465704177
 C          4.1182344649        0.6556327303        0.2120979143
 H          4.9566829424        1.3188436079        0.3030805128
 C          4.0553235162       -0.6548330223        0.5443621914
 H          4.8304488732       -1.2667904287        0.9624426941
 C          2.7254216786       -1.1074701538        0.2189870698
 C          3.5640432686        3.2926712267       -0.8836073606
 C          3.7602908665        4.4364696052       -0.1056970246
 C          4.7887850669        5.3255570914       -0.3737747978
 C          5.6564321038        5.0728288201       -1.4212924431
 H          6.4594435488        5.7612969759       -1.6328092018
 C          5.5041557892        3.9364268154       -2.1964228872
 C          4.4658190883        3.0621120856       -1.9260382004
 Fe        -0.0406529272        0.0323145986        0.0781305240
 C         -3.1459099182        3.5184647970        0.6972727800
 C         -2.6827107236        4.0065245794        1.9268222095
 C         -4.3389297066        4.0419918721        0.2050080637
 C         -3.3986537699        4.9448022329        2.6480597554
 C         -5.0668062697        4.9816464020        0.9189717350
 H         -3.0210479694        5.2871167523        3.5971630339
 C         -4.5965700739        5.4221227512        2.1431549266
 H         -5.9904723178        5.3618252773        0.5136821595
 H         -5.1641743997        6.1444639178        2.7088480875
 C          3.1340619697       -3.4940795861        0.7548359361
 C          2.6932361076       -4.1848520971        1.8888128870
 C          4.3486475968       -3.8846296369        0.1902368241
 C          3.4381315164       -5.2093895514        2.4471881149
 C          5.1033316979       -4.9069109449        0.7419942065
 H          3.0699400929       -5.7157136180        3.3247495590
 C          4.6452959151       -5.5639125736        1.8713256096
 H          6.0377700153       -5.1865134178        0.2829552101
 H          5.2321973168       -6.3602253829        2.3008941770
 H         -4.8631125612       -5.9987859892        0.7110151266
 H         -5.9328793460       -4.3055892286       -3.0747004187
 H          4.9062490065        6.2015014867        0.2434779928
 H          6.1810588704        3.7264579075       -3.0075935591
 Cl         1.2000124121       -3.7184984286        2.6242666593
 Cl         4.8973801913       -3.1103568632       -1.2528972380
 Cl        -1.2073456056        3.3801044636        2.5770321839
 Cl        -4.9038628873        3.5391821466       -1.3513599909
 Cl         2.7339485792        4.7225624069        1.2535164900
 Cl         4.2669468227        1.6605495343       -2.9171926765
 Cl        -2.7740136830       -4.2796696629        1.5169331358
 Cl        -4.0981575663       -2.1564895336       -3.2488207807
 Cl        -0.1514199834        0.0320809804        2.2090643741
  78
       -160.30827253
 N         -0.0661233505       -2.0213676722        0.0503316249
 N         -2.0133580511        0.0961003420        0.1374059174
 C          2.2896301460       -2.5153579274        0.4671804549
 C          0.9739576080       -2.8858813698        0.1998700481
 C          0.5286447712       -4.2236767157       -0.0806463449
 H          1.1527372545       -5.0950839174       -0.0354969510
 C         -0.7793426591       -4.1399449362       -0.4283868294
 H         -1.4419960943       -4.9331171339       -0.7172038917
 C         -1.1565201535       -2.7543212450       -0.3192152510
 C         -2.4390857386       -2.2601024380       -0.4793851889
 C         -2.8444740446       -0.9246657451       -0.1983397086
 C         -4.1876926154       -0.4716626225       -0.2060167592
 H         -5.0466977125       -1.0655780857       -0.4498232462
 C         -4.1637235898        0.8509007472        0.1599481744
 H         -4.9970988828        1.5136534383        0.2793396948
 C         -2.7993460072        1.2030290456        0.3314542772
 C         -3.4913612083       -3.1722346563       -0.9812048233
 C         -4.4470492250       -3.7346039896       -0.1393784424
 C         -5.4676433724       -4.5327872947       -0.6313173298
 C         -5.5380044853       -4.7816575770       -1.9913525213
 H         -6.3357763866       -5.3921437283       -2.3841435149
 C         -4.5959377599       -4.2502802009       -2.8524737764
 C         -3.5815560611       -3.4563583349       -2.3425873371
 N          0.0665844431        2.0471407819        0.2172100215
 N          1.9842281844       -0.0832491471        0.2468594720
 C         -2.3219308476        2.5147424962        0.4972480585
 C         -0.9875029204        2.8962327625        0.3447175474
 C         -0.5501569893        4.2411472145        0.1010634935
 H         -1.1792160646        5.1077049093        0.1535423738
 C          0.7604314403        4.1752916128       -0.2415729616
 H          1.4049505614        4.9810775427       -0.5314997827
 C          1.1567506655        2.7967474673       -0.1263457799
 C          2.4350741915        2.2936685523       -0.3041570189
 C          2.8220604596        0.9508576946       -0.0068264940
 C          4.1673406503        0.5159625859        0.0751263485
 H          5.0293697719        1.1338232852       -0.0668218942
 C          4.1357117374       -0.8243345284        0.3739698757
 H          4.9705061659       -1.4826412261        0.5086823683
 C          2.7683051188       -1.1923872409        0.4414935032
 C          3.4831892024        3.1360144913       -0.9090721018
 C          4.0367336203        4.2624093291       -0.2980036665
 C          5.0058431123        5.0273902894       -0.9309645813
 C          5.4588695753        4.6606191942       -2.1850121291
 H          6.2198355004        5.2491438158       -2.6760733970
 C          4.9475582973        3.5342899808       -2.8103137277
 C          3.9705539572        2.7894229874       -2.1748204961
 Fe        -0.0247930083       -0.0042622038        0.5690208385
 C         -3.3086675517        3.5986154828        0.6965011211
 C         -3.4379899921        4.2002484474        1.9486981921
 C         -4.1111519826        4.0725759727       -0.3387765628
 C         -4.3381740502        5.2306224185        2.1628557782
 C         -5.0174071509        5.1015673453       -0.1392754316
 H         -4.4171060109        5.6754699703        3.1413705045
 C         -5.1256940573        5.6768570637        1.1147930874
 H         -5.6223567653        5.4448922179       -0.9625792073
 H         -5.8246652300        6.4803010957        1.2806690723
 C          3.3122692710       -3.5774008272        0.6091298163
 C          3.6474500996       -4.0861897254        1.8613364804
 C          4.0012767969       -4.0603353367       -0.5006936202
 C          4.6441888780       -5.0389386244        2.0054849131
 C          5.0004356139       -5.0111966083       -0.3740664616
 H          4.8879447629       -5.4149783196        2.9853187923
 C          5.3186049381       -5.4923167849        0.8849343131
 H          5.5214073087       -5.3628043144       -1.2493895940
 H          6.1027736304       -6.2266692556        0.9942759313
 H         -6.1944186980       -4.9519005085        0.0447859574
 H         -4.6491924699       -4.4325207718       -3.9123574395
 H          5.4074282459        5.8958057793       -0.4318333279
 H          5.2979088844        3.2286760678       -3.7825948294
 Cl         2.7955349218       -3.4936997226        3.2415463687
 Cl         3.5889010600       -3.4413760693       -2.0603083850
 Cl        -2.4538316789        3.6191836107        3.2461182016
 Cl        -3.9469809415        3.3728605080       -1.9129893000
 Cl         3.5399919664        4.6873649917        1.3034743843
 Cl         3.3087778198        1.4083281970       -2.9798076048
 Cl        -4.3433953006       -3.4149044317        1.5559049837
 Cl        -2.4046759101       -2.7751792815       -3.4109638919
 Cl        -0.1011882441       -0.0972230503        2.6987850445
  78
       -160.30826462
 N         -0.1033949909       -2.0805931138        0.1050317533
 N         -2.0021088670        0.0324126982        0.0757188977
 C          2.2900782367       -2.5168477341       -0.2115761107
 C          0.9462226043       -2.9139234664       -0.1577947667
 C          0.4789424074       -4.2509521465       -0.2709380400
 H          1.0919982039       -5.1088939316       -0.4682521972
 C         -0.8725410791       -4.2161450262       -0.0401400673
 H         -1.5542269488       -5.0433911182       -0.0194091250
 C         -1.2179475480       -2.8533318458        0.1584971308
 C         -2.5363297573       -2.3499440491        0.3188866155
 C         -2.8765181905       -1.0088337020        0.2510136399
 C         -4.2246606826       -0.5127399026        0.1911439156
 H         -5.1036759215       -1.1165378271        0.3070418757
 C         -4.1458234233        0.8163100023       -0.0625719915
 H         -4.9507805417        1.5163066487       -0.1791419070
 C         -2.7517568981        1.1510766540       -0.1381642463
 C         -3.6282767337       -3.3380013723        0.4582491942
 C         -4.2544969054       -3.5404016336        1.6881934467
 C         -5.2687877581       -4.4725765833        1.8349168937
 C         -5.6722024408       -5.2182813943        0.7404450191
 H         -6.4586447279       -5.9486605749        0.8493239637
 C         -5.0780742027       -5.0310220288       -0.4954853959
 C         -4.0674926413       -4.0927012094       -0.6283504057
 N          0.1186878973        1.9869120939        0.0645342236
 N          2.0066998758       -0.1206417322        0.2578634188
 C         -2.2580779628        2.4332025983       -0.3890610551
 C         -0.9018644634        2.8043212985       -0.3309229790
 C         -0.3872018007        4.0919102297       -0.6364531041
 H         -0.9560813690        4.9235153224       -1.0005943203
 C          0.9606992980        4.0495893116       -0.3830672056
 H          1.6761935565        4.8389355016       -0.5072754401
 C          1.2501775700        2.7352403866        0.0606853285
 C          2.5487670920        2.2574713154        0.3986748579
 C          2.8753432702        0.9142685132        0.4963118595
 C          4.2047043578        0.3904138473        0.6554749898
 H          5.0670244224        0.9656762606        0.9313233421
 C          4.1406500669       -0.9350152658        0.3714840273
 H          4.9411858892       -1.6493773862        0.3647892837
 C          2.7631999786       -1.2463421430        0.1276903143
 C          3.6068155688        3.2734571011        0.5354272296
 C          3.5346328380        4.2351986955        1.5486374124
 C          4.5068116191        5.2106523544        1.6948657246
 C          5.5798367849        5.2418972358        0.8207472248
 H          6.3406418567        5.9981909805        0.9332029251
 C          5.6734785705        4.3144334285       -0.2018918079
 C          4.6904122392        3.3495569674       -0.3434798586
 Fe        -0.0140178585       -0.0410591119        0.5220302451
 C         -3.2278010071        3.4892279107       -0.7427678689
 C         -3.4698639095        4.5751094944        0.1009233778
 C         -3.9201278036        3.4450244110       -1.9543212656
 C         -4.3574536168        5.5791429888       -0.2495585212
 C         -4.8095024920        4.4422219481       -2.3176921417
 H         -4.5215228796        6.4031269957        0.4257636465
 C         -5.0221418684        5.5087903371       -1.4618385077
 H         -5.3222280920        4.3814090929       -3.2641191374
 H         -5.7106288287        6.2910154415       -1.7416697779
 C          3.2783057517       -3.4521285207       -0.7991522125
 C          4.0447409474       -4.3630395899       -0.0814885902
 C          3.4782291107       -3.3733045752       -2.1788669069
 C          4.9911956676       -5.1589001577       -0.7119102600
 C          4.4165078029       -4.1607621224       -2.8226977290
 H          5.5789923766       -5.8512926149       -0.1310786805
 C          5.1749687848       -5.0487497225       -2.0791705637
 H          4.5491723048       -4.0685327306       -3.8888311079
 H          5.9173197559       -5.6577308752       -2.5717499344
 H         -5.7331281338       -4.6107472362        2.7978777485
 H         -5.3923017042       -5.6003916340       -1.3554364618
 H          4.4170203237        5.9342880776        2.4887725893
 H          6.4971781424        4.3395166312       -0.8971499590
 Cl         3.8074150273       -4.4833262627        1.6254207554
 Cl         2.5312659846       -2.2480790955       -3.0856947296
 Cl        -2.6616490248        4.6457203340        1.6266686666
 Cl        -3.6324978340        2.1305336970       -3.0378197947
 Cl         2.2140031036        4.1838977441        2.6572978261
 Cl         4.7849252156        2.2565886893       -1.6826133549
 Cl        -3.7327338562       -2.6088450971        3.0462607057
 Cl        -3.3480127356       -3.8223285891       -2.1749475651
 Cl        -0.1236834495       -0.0304824468        2.6530694796
  78
       -160.30826390
 N         -0.1121785965       -1.9803346785        0.0263311744
 N         -2.0343121543        0.1483672101        0.0256352898
 C          2.2474850762       -2.4768652580        0.4121353430
 C          0.9207389663       -2.8449415026        0.2481885033
 C          0.4445432122       -4.1935798017        0.1210735145
 H          1.0452547203       -5.0721088996        0.2552146540
 C         -0.8632484236       -4.1179432667       -0.2313230165
 H         -1.5436473447       -4.9240689899       -0.4253660513
 C         -1.2090353264       -2.7224124602       -0.2633920283
 C         -2.4965364004       -2.2237525480       -0.4653848079
 C         -2.8867946281       -0.8836102991       -0.2424384558
 C         -4.2218186859       -0.4083461859       -0.2360713535
 H         -5.0953380656       -0.9993723843       -0.4290913539
 C         -4.1694833289        0.9289795945        0.0794904058
 H         -4.9893347817        1.6123253195        0.1834268533
 C         -2.7998334723        1.2636251696        0.2046901795
 C         -3.4966193549       -3.1949789590       -0.9550181070
 C         -4.4997182383       -3.7337920899       -0.1517429004
 C         -5.3832793219       -4.6821008336       -0.6435037801
 C         -5.2708591877       -5.1090205369       -1.9557058002
 H         -5.9569937811       -5.8515730894       -2.3345644823
 C         -4.2827493030       -4.5960429441       -2.7779418546
 C         -3.4061771976       -3.6513776680       -2.2731489928
 N          0.0469170542        2.0889458719       -0.1245855273
 N          1.9650553390       -0.0613805311       -0.0080279072
 C         -2.3001706670        2.5853396965        0.3267904475
 C         -0.9906750058        2.9603746301        0.0569596892
 C         -0.5240565211        4.3004256226       -0.1655931288
 H         -1.1379253225        5.1778571014       -0.0959531489
 C          0.7832645447        4.2111755475       -0.5212845093
 H          1.4518808489        5.0066789711       -0.7905595120
 C          1.1475017720        2.8221212753       -0.4406999628
 C          2.4314398175        2.3024596205       -0.5825225014
 C          2.8095199609        0.9635287186       -0.3062095981
 C          4.1522408080        0.5071972816       -0.2471976073
 H          5.0269817914        1.1033287483       -0.4213325564
 C          4.1073074465       -0.8215755978        0.0980104276
 H          4.9312973350       -1.4932773434        0.2366890976
 C          2.7405324149       -1.1648329960        0.2159102020
 C          3.5426046612        3.1720174369       -1.0232678419
 C          4.1253503679        4.1331933874       -0.2000926959
 C          5.2494369465        4.8413611677       -0.6008954170
 C          5.8042112807        4.5974229756       -1.8454426324
 H          6.6912627174        5.1316551561       -2.1527470527
 C          5.2329944705        3.6668476602       -2.6969470823
 C          4.1129053234        2.9659679552       -2.2828684351
 Fe        -0.0302553448        0.0687621766        0.3776060910
 C         -3.2782537052        3.6076229590        0.7651720461
 C         -3.4677482085        3.7819441208        2.1368986421
 C         -4.0570964238        4.3641166951       -0.1043957540
 C         -4.4040477204        4.6765522447        2.6260807378
 C         -5.0022428998        5.2597698337        0.3710951548
 H         -4.5296584599        4.7898493794        3.6904817839
 C         -5.1730707023        5.4076023674        1.7364241627
 H         -5.5986694309        5.8274143824       -0.3253268618
 H         -5.9144092285        6.0962911972        2.1117436577
 C          3.2196204843       -3.5525229359        0.7049365801
 C          3.3414037121       -4.0433457968        2.0046771839
 C          4.0126013329       -4.1257824082       -0.2866481325
 C          4.2325038479       -5.0588986811        2.3104854094
 C          4.9052395695       -5.1445456384        0.0028923073
 H          4.3086506848       -5.4140762456        3.3254992306
 C          5.0116232591       -5.6037539148        1.3044748417
 H          5.5039185009       -5.5742448902       -0.7844140887
 H          5.7039728385       -6.3971805730        1.5372810834
 H         -6.1419813747       -5.0913689286        0.0046411316
 H         -4.1807221390       -4.9256458777       -3.7997079205
 H          5.6896397361        5.5626711991        0.0682773009
 H          5.6552335806        3.4733311368       -3.6702444604
 Cl         2.3562556653       -3.3503471477        3.2434344536
 Cl         3.8444947821       -3.5618936752       -1.9091034675
 Cl        -2.4999925892        2.8401391098        3.2195452367
 Cl        -3.8409390730        4.1559524785       -1.8047836811
 Cl         3.4618644630        4.3976807189        1.3733994709
 Cl         3.3967397066        1.8003137999       -3.3365254336
 Cl        -4.6027604395       -3.2373698813        1.4986646046
 Cl        -2.1679663179       -3.0117806185       -3.2902577077
 Cl        -0.0056830926        0.1879089186        2.5070888640
  78
       -160.30818265
 N         -0.0952767856       -2.0415436076       -0.1228844125
 N         -2.0002010296        0.0720113539       -0.1409036898
 C          2.2535178505       -2.4761763522       -0.6577615810
 C          0.9197580060       -2.8837598574       -0.4748092117
 C          0.4200744288       -4.2121837765       -0.5348890621
 H          0.9860643770       -5.0809839872       -0.8105860888
 C         -0.9037671760       -4.1561606831       -0.1663887622
 H         -1.5983911912       -4.9694955676       -0.0897048220
 C         -1.2002917091       -2.7928796254        0.0720927596
 C         -2.4974571967       -2.2692219848        0.3642830399
 C         -2.8650701226       -0.9528185673        0.1615118018
 C         -4.2135473709       -0.4559253424        0.1127966293
 H         -5.0910432573       -1.0359975468        0.3228862365
 C         -4.1466859025        0.8356253146       -0.2939749525
 H         -4.9579606157        1.5150584517       -0.4647497946
 C         -2.7531624266        1.1707901520       -0.4094171114
 C         -3.4766176208       -3.2292061063        0.9160375853
 C         -3.3789362048       -3.5598230763        2.2690596993
 C         -4.2582132022       -4.4535457019        2.8564947708
 C         -5.2449368941       -5.0419976785        2.0846193829
 H         -5.9282946889       -5.7415883290        2.5391006417
 C         -5.3566830246       -4.7433731919        0.7374578815
 C         -4.4762924432       -3.8389161434        0.1651822695
 N          0.0928045217        2.0252949771       -0.1836472988
 N          1.9884380912       -0.0765345236       -0.1678455125
 C         -2.2674445247        2.4537555770       -0.6817705760
 C         -0.9294086335        2.8577848956       -0.5328574138
 C         -0.4407445420        4.1898035486       -0.6032741524
 H         -1.0226018652        5.0507022965       -0.8624898669
 C          0.8886638945        4.1449942131       -0.2526756702
 H          1.5827908149        4.9610428156       -0.1907023075
 C          1.1968344685        2.7854217266       -0.0062912527
 C          2.4935588428        2.2724312297        0.2979833997
 C          2.8590174795        0.9488020833        0.1233226882
 C          4.2020986007        0.4425215453        0.0985934447
 H          5.0869092190        1.0111728075        0.3138606727
 C          4.1293840923       -0.8570218484       -0.2870533972
 H          4.9387891808       -1.5455330557       -0.4335925037
 C          2.7366439225       -1.1823024582       -0.4157826430
 C          3.4773332578        3.2369005480        0.8315030553
 C          3.3282846718        3.6557949597        2.1570888982
 C          4.2299592191        4.5304439540        2.7393007795
 C          5.2880530653        5.0174683233        1.9907578392
 H          5.9950537158        5.6961188300        2.4419491008
 C          5.4422082748        4.6417165378        0.6684395802
 C          4.5389810002        3.7572148071        0.0991065684
 Fe        -0.0031109223       -0.0019677780        0.2601778338
 C         -3.2521923268        3.4813225567       -1.0944784497
 C         -3.9986922863        4.2002217806       -0.1652775888
 C         -3.4633164120        3.7455753787       -2.4459214443
 C         -4.9297762094        5.1457080903       -0.5634255372
 C         -4.3875206209        4.6891751571       -2.8612953116
 H         -5.4963536471        5.6847276550        0.1780756145
 C         -5.1194656515        5.3838705492       -1.9133342504
 H         -4.5267943206        4.8697596862       -3.9135744121
 H         -5.8441424635        6.1159019226       -2.2367516102
 C          3.2432054426       -3.4901045439       -1.0773882764
 C          3.6904084766       -4.4959804553       -0.2209463411
 C          3.7701105020       -3.4580157877       -2.3687438006
 C          4.6196432193       -5.4365039456       -0.6349574144
 C          4.6963865304       -4.3938404048       -2.7987123722
 H          4.9474152324       -6.1975889493        0.0541099857
 C          5.1166272076       -5.3815384228       -1.9263182615
 H          5.0800181532       -4.3429360571       -3.8048919729
 H          5.8374771253       -6.1151899319       -2.2518936956
 H         -4.1601917422       -4.6795371436        3.9061741148
 H         -6.1164344413       -5.2086398537        0.1302585534
 H          4.0923005246        4.8243303770        3.7677239155
 H          6.2539618172        5.0309793457        0.0736792833
 Cl         3.0895958303       -4.5366993179        1.3992198310
 Cl         3.2342069918       -2.2211258473       -3.4510683129
 Cl        -3.7434832129        3.8889678689        1.5151474234
 Cl        -2.5503350290        2.8568353118       -3.6128738838
 Cl         2.0006197514        3.0303467920        3.0753524969
 Cl         4.7108363416        3.3031694953       -1.5617193591
 Cl        -2.1303504241       -2.8096034599        3.2053808023
 Cl        -4.5989118234       -3.4684521151       -1.5183425764
 Cl         0.0032770782        0.0312836006        2.3926729312
  78
       -160.30815550
 N         -0.0815634226       -1.9981427210        0.0733148269
 N         -1.9473968122        0.1209016591        0.2598938388
 C          2.2816131359       -2.4529007682       -0.4352161880
 C          0.9305473416       -2.8259937916       -0.3265460218
 C          0.4198600142       -4.1347018656       -0.5337726098
 H          0.9915740470       -4.9841188895       -0.8527357611
 C         -0.9213189961       -4.0862045041       -0.2410448444
 H         -1.6327618246       -4.8880942698       -0.2928366989
 C         -1.2071668693       -2.7515807798        0.1351275068
 C         -2.5019103260       -2.2500397231        0.4703687621
 C         -2.8131674468       -0.9085064748        0.5496725604
 C         -4.1375100406       -0.3681552040        0.7305269248
 H         -4.9942260351       -0.9332236866        1.0422912246
 C         -4.0702630398        0.9468978295        0.4184640343
 H         -4.8613781699        1.6713835296        0.4181292417
 C         -2.6955416477        1.2376651137        0.1069163832
 C         -3.6010179592       -3.2289302370        0.5785896312
 C         -3.6400916798       -4.1605618549        1.6177048023
 C         -4.6806911074       -5.0679003735        1.7355266142
 C         -5.7035156965       -5.0566056156        0.8028305990
 H         -6.5192791828       -5.7563723193        0.8941546349
 C         -5.6842217645       -4.1591173078       -0.2504098325
 C         -4.6367023351       -3.2606491576       -0.3589696077
 N          0.1395696653        2.0625686024        0.0820762033
 N          2.0487031427       -0.0561401961        0.0359790684
 C         -2.2370148703        2.4937157657       -0.3213204759
 C         -0.8853977359        2.8772946943       -0.3249383882
 C         -0.3640146624        4.1528373304       -0.6641595465
 H         -0.9265718435        4.9808959234       -1.0464887520
 C          0.9857276938        4.1113316628       -0.4033301995
 H          1.7054309820        4.8956842040       -0.5322692858
 C          1.2710374829        2.8019748159        0.0464774760
 C          2.5883798570        2.3061421810        0.3227611512
 C          2.9327893348        0.9732906848        0.2578308693
 C          4.2765860700        0.4482741728        0.2553598712
 H          5.1583882311        1.0269103193        0.4481010698
 C          4.1872608361       -0.8619716798       -0.0685494516
 H          4.9813362201       -1.5709483401       -0.1990252064
 C          2.7854602637       -1.1788374359       -0.1750246039
 C          3.6089695415        3.3248240410        0.6320577914
 C          3.5205362390        4.0180088518        1.8434920481
 C          4.4501503056        4.9813208299        2.1941594229
 C          5.4883024140        5.2736950252        1.3256576575
 H          6.2176048986        6.0215678912        1.5940002071
 C          5.5923769184        4.6167797996        0.1122619137
 C          4.6552579172        3.6538200246       -0.2284003468
 Fe         0.0708711236        0.0288680772        0.5247077182
 C         -3.2678873531        3.3848797785       -0.8846178809
 C         -3.6153659100        4.6266065460       -0.3534185083
 C         -3.9705940012        2.9557688253       -2.0200336219
 C         -4.6042758973        5.4109932839       -0.9287871976
 C         -4.9681964614        3.7214726360       -2.5938088205
 H         -4.8459522969        6.3670944541       -0.4921970726
 C         -5.2809722338        4.9547943001       -2.0458807935
 H         -5.4899317973        3.3499022863       -3.4614010016
 H         -6.0580355238        5.5561958224       -2.4904991228
 C          3.2357345808       -3.4949747095       -0.8818340828
 C          4.0236400390       -4.2134837211        0.0130681875
 C          3.3654081404       -3.7776782265       -2.2408296195
 C          4.9171978679       -5.1771052246       -0.4274355201
 C          4.2524267237       -4.7386936443       -2.6970337471
 H          5.5178150144       -5.7182890515        0.2852904896
 C          5.0264620280       -5.4329725947       -1.7833691668
 H          4.3307507278       -4.9314386855       -3.7543760582
 H          5.7211354943       -6.1800549996       -2.1339978454
 H         -4.6860528179       -5.7692416743        2.5540828403
 H         -6.4704403721       -4.1533404075       -0.9880055463
 H          4.3568349712        5.4910701351        3.1399839403
 H          6.3905825658        4.8487521595       -0.5749022777
 Cl         3.8646573271       -3.8851805892        1.7026691664
 Cl         2.3976202477       -2.8933708136       -3.3626825984
 Cl        -2.8383767445        5.1783695054        1.0889265476
 Cl        -3.5677878497        1.4399063172       -2.7484756997
 Cl         2.2314546957        3.6263784192        2.9224511405
 Cl         4.7585650408        2.8763410390       -1.7677483545
 Cl        -2.3742328740       -4.1515388365        2.7904786810
 Cl        -4.5936389294       -2.1832659503       -1.7154155891
 Cl         0.2129457391        0.0218339248        2.6531478712
  78
       -160.30808345
 N         -0.0733219662       -2.0622376963       -0.2405066228
 N         -1.9880392227        0.0565767655       -0.2117781797
 C          2.2900495300       -2.5156592824       -0.6379559384
 C          0.9628418330       -2.9073786267       -0.4898781672
 C          0.4787872076       -4.2627310091       -0.4622356930
 H          1.0663416391       -5.1355333366       -0.6713536808
 C         -0.8267390553       -4.2131585400       -0.0979790180
 H         -1.5057717184       -5.0274246916        0.0582440987
 C         -1.1769074868       -2.8239438138        0.0119485070
 C         -2.4455188425       -2.3208842175        0.2608172703
 C         -2.8406046671       -0.9747261724        0.0446688542
 C         -4.1767515806       -0.5269258299       -0.0557124847
 H         -5.0507175385       -1.1304080369        0.0985518513
 C         -4.1225141966        0.8022205052       -0.4116471433
 H         -4.9464540159        1.4647245805       -0.5891450276
 C         -2.7522216884        1.1514878217       -0.4823691702
 C         -3.4805363414       -3.2124191628        0.8291843440
 C         -3.6729205182       -3.1749688065        2.2120426676
 C         -4.6503093823       -3.9450527846        2.8211842991
 C         -5.4529953691       -4.7611271020        2.0416771317
 H         -6.2232163184       -5.3555240250        2.5103098172
 C         -5.2818723047       -4.8196803749        0.6693003701
 C         -4.2949383215       -4.0480758308        0.0730811620
 N          0.1070420782        2.0103067149       -0.3095852395
 N          2.0169350143       -0.0941088119       -0.1894839451
 C         -2.2583941265        2.4607231242       -0.7071778491
 C         -0.9328428290        2.8488473141       -0.5746751615
 C         -0.4620194647        4.2084405681       -0.5380835899
 H         -1.0686714764        5.0696986705       -0.7418691930
 C          0.8438315947        4.1658903865       -0.1733796817
 H          1.5196004233        4.9867995502       -0.0268278851
 C          1.1994572031        2.7788068678       -0.0435913457
 C          2.4695187668        2.2890601799        0.2415803958
 C          2.8712631145        0.9379201991        0.0748073083
 C          4.2045136745        0.4660116626        0.0583630510
 H          5.0797892880        1.0509478276        0.2573262670
 C          4.1484601898       -0.8670126498       -0.2768992908
 H          4.9661266370       -1.5528718004       -0.3912508316
 C          2.7780488621       -1.2008146023       -0.4131681985
 C          3.4668535635        3.2435158704        0.7719001662
 C          3.3571607639        3.6439584162        2.1056051265
 C          4.2753864994        4.5114640903        2.6740521801
 C          5.3182007300        4.9952424328        1.9028859158
 H          6.0392734279        5.6683207910        2.3413539112
 C          5.4451229580        4.6266285966        0.5745429087
 C          4.5196539870        3.7571097186        0.0192152423
 Fe         0.0128626018       -0.0180099115        0.1475129360
 C         -3.2838758637        3.4944614604       -0.9837623838
 C         -3.9472149420        4.1428917265        0.0565310131
 C         -3.6535706277        3.8045478833       -2.2892600375
 C         -4.9524359384        5.0627767375       -0.1979204421
 C         -4.6590439430        4.7179003730       -2.5591397255
 H         -5.4482295207        5.5495274658        0.6275875946
 C         -5.3075110230        5.3401778047       -1.5063881959
 H         -4.9294261274        4.9285217354       -3.5815279404
 H         -6.0966991980        6.0476417926       -1.7079908979
 C          3.2970988842       -3.5356240813       -0.9979883397
 C          3.7004963921       -4.5409662587       -0.1197654642
 C          3.8960390797       -3.4995419526       -2.2597229080
 C          4.6430093713       -5.4868771641       -0.4906605920
 C          4.8390908109       -4.4379224842       -2.6420009003
 H          4.9339316476       -6.2526064797        0.2108724390
 C          5.2051309651       -5.4346030412       -1.7539252432
 H          5.2755564243       -4.3831079892       -3.6268135073
 H          5.9376366131       -6.1705951570       -2.0461154048
 H         -4.7766572834       -3.8972163081        3.8903911818
 H         -5.9103472665       -5.4519006470        0.0623007291
 H          4.1707665057        4.7971675101        3.7078841897
 H          6.2531833214        5.0081244132       -0.0295336510
 Cl         3.0363330354       -4.5782255353        1.4743504251
 Cl         3.4246447436       -2.2602264985       -3.3715707745
 Cl        -3.4912012313        3.7770739677        1.6782130014
 Cl        -2.8343085824        3.0097517734       -3.5866121970
 Cl         2.0539694848        3.0151231475        3.0550580958
 Cl         4.6441657033        3.3121755453       -1.6452695608
 Cl        -2.6535063029       -2.1379128380        3.1506127156
 Cl        -4.0735342369       -4.0925951610       -1.6393913837
 Cl         0.0116094574        0.0327890383        2.2790114629
  78
       -160.30804962
 N         -0.0619581831       -2.0673267336       -0.1334915273
 N         -1.9756187617        0.0656266788       -0.1615570212
 C          2.3044092313       -2.5016535772        0.3627083368
 C          0.9792342876       -2.9169486574        0.0426794946
 C          0.5659141866       -4.2443013552       -0.2300282222
 H          1.1860551448       -5.1164598530       -0.1712967563
 C         -0.7547312297       -4.1776448946       -0.6022623625
 H         -1.3969502227       -4.9812275580       -0.9050057285
 C         -1.1427317113       -2.8121480406       -0.5023862737
 C         -2.4423245129       -2.2990061210       -0.6638490762
 C         -2.8154764816       -0.9715629662       -0.4050846225
 C         -4.1755606198       -0.5290214246       -0.2660268780
 H         -5.0427621967       -1.1466066544       -0.3986921042
 C         -4.1368582909        0.7749135801        0.1061356817
 H         -4.9648902555        1.4257048284        0.3117883366
 C         -2.7542259184        1.1629292322        0.1289374159
 C         -3.5279409210       -3.2049130716       -1.0890558984
 C         -4.0304506384       -4.2202077185       -0.2749627447
 C         -5.0856460717       -5.0187754814       -0.6859219448
 C         -5.6612827443       -4.8094287914       -1.9286846127
 H         -6.4902720606       -5.4213088906       -2.2481877468
 C         -5.1824312532       -3.8135486722       -2.7625433483
 C         -4.1278996336       -3.0233632904       -2.3386258839
 N          0.0974518650        2.0013659314       -0.1423379025
 N          2.0159344401       -0.1104689000       -0.0854883845
 C         -2.2778817405        2.4473668122        0.3064994363
 C         -0.9387995223        2.8523165934        0.0422353273
 C         -0.5092783199        4.1873948248       -0.1668220333
 H         -1.1318011357        5.0577475177       -0.0829761485
 C          0.8198682438        4.1227705475       -0.5042337931
 H          1.4813114333        4.9340659423       -0.7373885890
 C          1.1899601182        2.7493625241       -0.4598762067
 C          2.4925342231        2.2390246983       -0.6075208792
 C          2.8667922645        0.9183865570       -0.3379561254
 C          4.2225739542        0.4547751609       -0.2293594072
 H          5.0952387287        1.0560473369       -0.3984397060
 C          4.1705406545       -0.8445338627        0.1584808755
 H          4.9901051261       -1.5091520605        0.3523762645
 C          2.7823434681       -1.2146141545        0.2024251229
 C          3.5275708740        3.2058381227       -1.0355597782
 C          4.3894165052        3.8294126276       -0.1358461784
 C          5.3110451599        4.7755339550       -0.5627299605
 C          5.3825856637        5.1023810553       -1.9075877006
 H          6.0887706767        5.8482906603       -2.2400222614
 C          4.5458354051        4.4901046436       -2.8255626067
 C          3.6263174317        3.5518965446       -2.3825562571
 Fe         0.0120706669       -0.0311371017        0.2793774450
 C         -3.1891821463        3.5069917212        0.7854255619
 C         -3.0953368698        3.9090292569        2.1198142324
 C         -4.1183297043        4.1483734963       -0.0274790063
 C         -3.9041128046        4.9131897358        2.6255280468
 C         -4.9304038728        5.1589541762        0.4630322871
 H         -3.8107826635        5.2035511298        3.6598607852
 C         -4.8164275011        5.5357891202        1.7907845659
 H         -5.6317767100        5.6478558451       -0.1927723028
 H         -5.4360589040        6.3351295614        2.1791642237
 C          3.2191613572       -3.5333526671        0.9019806567
 C          3.2878423229       -3.6823265986        2.2877520674
 C          4.0025946986       -4.3656713151        0.1114420301
 C          4.1095774388       -4.6337699673        2.8682726229
 C          4.8340880143       -5.3212740025        0.6778301852
 H          4.1456636172       -4.7278658027        3.9408854580
 C          4.8803186907       -5.4485372097        2.0559908745
 H          5.4356576519       -5.9537501514        0.0475508464
 H          5.5279472676       -6.1859556629        2.4989406951
 H         -5.4565244519       -5.7878865774       -0.0284280601
 H         -5.6227956250       -3.6412697055       -3.7323806301
 H          5.9573188680        5.2566456443        0.1527964167
 H          4.5967695970        4.7400370462       -3.8721613321
 Cl         2.3114365301       -2.6496627047        3.2744590781
 Cl         3.9265758790       -4.1848413688       -1.6062179116
 Cl        -1.9490667828        3.1135579468        3.1377134775
 Cl        -4.2230820731        3.6965434477       -1.6898744491
 Cl         4.2779583404        3.4163330609        1.5395832892
 Cl         2.5718035081        2.7764652678       -3.5080700299
 Cl        -3.3513987845       -4.4478367817        1.2970135382
 Cl        -3.5256472132       -1.7819554229       -3.3793537570
 Cl        -0.0377261254       -0.0276617685        2.4124530174
  78
       -160.30800286
 N         -0.0857092360       -2.0549135281        0.0542134321
 N         -2.0145827022        0.0685622832        0.0970371387
 C          2.3030928698       -2.4953677745        0.4347034334
 C          0.9592288332       -2.9070471241        0.1870030957
 C          0.5416686595       -4.2289630733       -0.0963777101
 H          1.1689728482       -5.0986222515       -0.0626909199
 C         -0.7877474003       -4.1571317736       -0.4431071277
 H         -1.4364291910       -4.9606101715       -0.7334022811
 C         -1.1669914753       -2.7941773171       -0.3242995765
 C         -2.4665978934       -2.2771796723       -0.4772324109
 C         -2.8492471120       -0.9747525531       -0.1487271324
 C         -4.2116147853       -0.5519701402        0.0379597052
 H         -5.0677347179       -1.1872124867       -0.0833159072
 C         -4.1765383670        0.7398317852        0.4427047173
 H         -5.0026078246        1.3656467508        0.7218818497
 C         -2.7973499744        1.1564786177        0.4000843051
 C         -3.4988427330       -3.1499072537       -1.0836410799
 C         -4.2858533861       -4.0439131722       -0.3648989273
 C         -5.2562713572       -4.8113118939       -0.9914438535
 C         -5.4454105225       -4.6904362011       -2.3574336858
 H         -6.2039039612       -5.2806742879       -2.8480434914
 C         -4.6709003311       -3.8171448722       -3.1006416833
 C         -3.7073326765       -3.0572211415       -2.4600709665
 N          0.0477647262        2.0120543741        0.0129084760
 N          1.9707592553       -0.1113897649       -0.0102628483
 C         -2.3377643599        2.4570099653        0.4828895599
 C         -1.0061798518        2.8540141339        0.1388355423
 C         -0.6258457175        4.1588377384       -0.2499544380
 H         -1.2672334346        5.0194499516       -0.2533028738
 C          0.6923464840        4.0890125673       -0.6363508873
 H          1.3019542999        4.8825138407       -1.0206835102
 C          1.1078488683        2.7458830546       -0.4350126612
 C          2.4141535605        2.2383495715       -0.5958920732
 C          2.7989264516        0.9251888504       -0.2971590669
 C          4.1652719532        0.4908064117       -0.1758542220
 H          5.0258526409        1.1114466146       -0.3382085614
 C          4.1416810417       -0.8062549590        0.2153022890
 H          4.9758302768       -1.4483246914        0.4197200777
 C          2.7593498322       -1.2029414929        0.2683194813
 C          3.4646791882        3.1429501790       -1.0982959708
 C          3.8971200475        4.2691428826       -0.3965903780
 C          4.8747177268        5.1097358772       -0.9051468703
 C          5.4552958283        4.8247407323       -2.1282635274
 H          6.2196223479        5.4739977058       -2.5254561213
 C          5.0645083520        3.7048138218       -2.8415567481
 C          4.0781285013        2.8810610411       -2.3287161904
 Fe        -0.0102244966       -0.0172136762        0.4584033390
 C         -3.2596708812        3.5424897988        0.8632086346
 C         -3.0352054314        4.2347392042        2.0586748134
 C         -4.3459930982        3.9373745445        0.0828674788
 C         -3.8778458346        5.2509553281        2.4746166518
 C         -5.1998205988        4.9499348422        0.4902741507
 H         -3.6828039749        5.7590959539        3.4043975554
 C         -4.9649650058        5.5991209589        1.6896231503
 H         -6.0339616459        5.2279894666       -0.1340478891
 H         -5.6275741585        6.3877464398        2.0101603995
 C          3.2689383689       -3.5528824701        0.8013183420
 C          3.2738379805       -4.0498365399        2.1047712625
 C          4.1874329514       -4.0800849667       -0.1032679789
 C          4.1784595470       -5.0209685338        2.5012854421
 C          5.0939361393       -5.0557546563        0.2777624771
 H          4.1683166467       -5.3779475227        3.5184219279
 C          5.0878516075       -5.5171317290        1.5833468676
 H          5.7952313633       -5.4475653010       -0.4421392777
 H          5.7983884965       -6.2703685372        1.8865974657
 H         -5.8561059539       -5.4916815881       -0.4095836279
 H         -4.8081169537       -3.7189450279       -4.1659089214
 H          5.1779004759        5.9737541779       -0.3363273692
 H          5.5160127602        3.4682456871       -3.7917543175
 Cl         2.1358432975       -3.4051802027        3.2341923923
 Cl         4.1731399729       -3.5087966395       -1.7344861967
 Cl        -1.6949634626        3.7798549285        3.0397781163
 Cl        -4.6031909158        3.1884293562       -1.4550330133
 Cl         3.2383157378        4.5943108709        1.1682074342
 Cl         3.5744897623        1.5058863465       -3.2461390096
 Cl        -4.0422024022       -4.1744395679        1.3400841201
 Cl        -2.7295827907       -1.9599777075       -3.3692911135
 Cl         0.0480410302        0.0094939652        2.5907565781
  78
       -160.30795913
 N         -0.0959929808       -2.0343539236       -0.5217247986
 N         -2.0363559250        0.0768426017       -0.4074422646
 C          2.3000582282       -2.4972269596       -0.7106609774
 C          0.9654847065       -2.8794869060       -0.5969463694
 C          0.5157319617       -4.2383848919       -0.4397947900
 H          1.1483377863       -5.1029488416       -0.4983336534
 C         -0.8128091078       -4.1876846065       -0.1896500968
 H         -1.4886463288       -5.0012408176       -0.0098095689
 C         -1.1956566104       -2.7998010065       -0.2400445048
 C         -2.4752333993       -2.3254605083       -0.0438987230
 C         -2.8836266110       -0.9764651460       -0.2677078407
 C         -4.2236786412       -0.5477418405       -0.3903884740
 H         -5.0910772722       -1.1740976298       -0.3257690547
 C         -4.1829967146        0.8066176301       -0.6242165743
 H         -5.0120855876        1.4668589997       -0.7890748022
 C         -2.8172808146        1.1864182622       -0.6021745354
 C         -3.4615451348       -3.2444484167        0.5654358826
 C         -3.3883137573       -3.4403848067        1.9472803969
 C         -4.2716334177       -4.2825572855        2.6008893732
 C         -5.2461806615       -4.9414852806        1.8717604626
 H         -5.9375756382       -5.5986418855        2.3752303074
 C         -5.3408488075       -4.7671011131        0.5022170517
 C         -4.4479252991       -3.9229022459       -0.1403519658
 N          0.0530113365        2.0589080202       -0.5272707377
 N          1.9823034927       -0.0627591550       -0.4952565325
 C         -2.3509145452        2.5132061664       -0.6655484308
 C         -1.0133216694        2.8983712812       -0.5755559519
 C         -0.5741248917        4.2539433383       -0.3687742576
 H         -1.2149289502        5.1142926941       -0.3733033036
 C          0.7560997684        4.2062847913       -0.1275155187
 H          1.4168334685        5.0204295526        0.0959139509
 C          1.1553636998        2.8273220323       -0.2486266152
 C          2.4384871468        2.3421274063       -0.1079998742
 C          2.8264394366        0.9930331025       -0.3828253204
 C          4.1621129573        0.5772913342       -0.5775297475
 H          5.0219151976        1.2182611962       -0.5632852522
 C          4.1243251038       -0.7810445043       -0.7884851380
 H          4.9479811060       -1.4415769199       -0.9778244977
 C          2.7627544860       -1.1682247058       -0.7143713755
 C          3.4922657828        3.2040447537        0.4608757166
 C          3.9365608192        2.9213593990        1.7571959522
 C          4.9059064224        3.6968045605        2.3702992006
 C          5.4535312570        4.7682324800        1.6863183317
 H          6.2075798894        5.3765695094        2.1607707733
 C          5.0435438102        5.0637878369        0.3976773741
 C          4.0703519592        4.2821582400       -0.2045351332
 Fe        -0.0192562701        0.0120557625       -0.1265115391
 C         -3.3651712263        3.5892898782       -0.6799200310
 C         -4.1408501330        3.8556983466        0.4496765153
 C         -3.5622084025        4.3902281006       -1.8039439662
 C         -5.0774886895        4.8762700545        0.4582408159
 C         -4.4971797514        5.4122747233       -1.8112890402
 H         -5.6542390290        5.0591433499        1.3504025649
 C         -5.2520111873        5.6504637660       -0.6757458648
 H         -4.6269443049        6.0112729585       -2.6981312707
 H         -5.9786555853        6.4476569538       -0.6735567728
 C          3.3182795947       -3.5651912638       -0.5795061530
 C          3.5779320511       -4.0857170965        0.6897230216
 C          4.0401634450       -4.0757493850       -1.6529669136
 C          4.5168936046       -5.0852691202        0.8821260872
 C          4.9844817910       -5.0757972890       -1.4767238457
 H          4.6927906258       -5.4661012554        1.8750000166
 C          5.2156830984       -5.5765256957       -0.2071013021
 H          5.5283987310       -5.4544506273       -2.3274973344
 H          5.9488075754       -6.3551366561       -0.0639311298
 H         -4.1890780720       -4.4138072635        3.6671433844
 H         -6.0965369883       -5.2809081365       -0.0695843356
 H          5.2189276526        3.4586263259        3.3738057740
 H          5.4741504947        5.8911074310       -0.1428449609
 Cl         2.7089216059       -3.4475442637        2.0422894270
 Cl         3.7350158633       -3.4476675934       -3.2329712987
 Cl        -3.8936807312        2.9108621528        1.8755093400
 Cl        -2.6191142319        4.0823936942       -3.2181754052
 Cl         3.2247918857        1.5974361031        2.6100414122
 Cl         3.5826890840        4.6238708952       -1.8277116308
 Cl        -2.1696869809       -2.5966667342        2.8401272123
 Cl        -4.5365432535       -3.7169555993       -1.8532572049
 Cl         0.0335776339        0.0170259276        2.0066107261
  78
       -160.30791493
 N         -0.0498034494       -2.0380570159       -0.2446676362
 N         -1.9747878631        0.0855828162       -0.2866493218
 C          2.3262350597       -2.4607010950        0.2652080997
 C          1.0044570377       -2.8699511637       -0.1173192693
 C          0.6246191837       -4.1885686171       -0.4616041723
 H          1.2745634433       -5.0418896349       -0.4625564739
 C         -0.7065762329       -4.1386965420       -0.8052778017
 H         -1.3293769810       -4.9457079056       -1.1423045501
 C         -1.1231063305       -2.7904155486       -0.6321073886
 C         -2.4343836128       -2.2964036150       -0.7347280729
 C         -2.8095827347       -0.9699127204       -0.4824800666
 C         -4.1698997794       -0.5481689387       -0.2859021779
 H         -5.0301070088       -1.1825126869       -0.3805513924
 C         -4.1371555301        0.7553191169        0.0799302833
 H         -4.9625283478        1.3913018678        0.3320408919
 C         -2.7596672093        1.1700297127        0.0358595475
 C         -3.5192030931       -3.2480495462       -1.0474622346
 C         -3.8966677107       -4.2574576828       -0.1603548342
 C         -4.9402254441       -5.1185698636       -0.4490588743
 C         -5.6268423063       -4.9818309858       -1.6414516864
 H         -6.4436216520       -5.6441512563       -1.8663159687
 C         -5.2751970813       -3.9961200654       -2.5461350470
 C         -4.2320043863       -3.1414944441       -2.2431286531
 N          0.0911743261        2.0365147352       -0.2092921863
 N          2.0197740684       -0.0802553240       -0.1813260280
 C         -2.2953811913        2.4572521740        0.2225538271
 C         -0.9559014963        2.8746675766       -0.0635610687
 C         -0.5449275101        4.2085634882       -0.3019029169
 H         -1.1787534386        5.0728699424       -0.2578057180
 C          0.7939349574        4.1585456089       -0.6108060324
 H          1.4459848333        4.9748910470       -0.8537988418
 C          1.1815861694        2.7943619073       -0.5239313251
 C          2.4891149714        2.2924565794       -0.6262817352
 C          2.8623035015        0.9751699945       -0.3532087599
 C          4.2173261649        0.5502175928       -0.1270673865
 H          5.0779939725        1.1873397160       -0.2039232070
 C          4.1701978786       -0.7515405970        0.2431818506
 H          4.9871978122       -1.3855769063        0.5223355729
 C          2.7935413967       -1.1663984910        0.1486348200
 C          3.5500709252        3.2497280748       -1.0186196074
 C          4.2004198263        4.0672007952       -0.0992009316
 C          5.1754068244        4.9665497160       -0.5017103025
 C          5.5035727962        5.0591150675       -1.8428360854
 H          6.2627855135        5.7544476765       -2.1597179439
 C          4.8730404184        4.2593793076       -2.7802603858
 C          3.9052787771        3.3614499551       -2.3617111882
 Fe         0.0113653637       -0.0038398581        0.1716031490
 C         -3.1694095085        3.4935266718        0.8034958184
 C         -2.8732692147        3.9382436841        2.0974682475
 C         -4.2615760338        4.0687205083        0.1565562066
 C         -3.6417961533        4.9021154168        2.7242678579
 C         -5.0414505009        5.0336130757        0.7759900560
 H         -3.3855118663        5.2141086775        3.7241681386
 C         -4.7283806359        5.4449295479        2.0590855890
 H         -5.8802253823        5.4597267261        0.2489587555
 H         -5.3311235559        6.1988956359        2.5385948230
 C          3.1656319123       -3.5067380605        0.8797522161
 C          2.7802860756       -3.9819804357        2.1381242369
 C          4.3138182196       -4.0491925769        0.3078350956
 C          3.5231567440       -4.9385508121        2.8071338223
 C          5.0701776948       -5.0021895717        0.9713053467
 H          3.2034479814       -5.2793217309        3.7788275671
 C          4.6726195344       -5.4385446523        2.2230707848
 H          5.9580959466       -5.3980298611        0.5049867531
 H          5.2585847016       -6.1789754857        2.7453729320
 H         -5.2119400376       -5.8786664790        0.2639481965
 H         -5.8040589529       -3.8827176578       -3.4781647833
 H          5.6673682766        5.5831148661        0.2327550956
 H          5.1236376384        4.3250563129       -3.8270296726
 Cl         1.3641426085       -3.3180327034        2.8783446927
 Cl         4.7808287848       -3.5495705172       -1.2804324673
 Cl        -1.5321722134        3.2301186732        2.9298233735
 Cl        -4.6251835014        3.5947250632       -1.4654232294
 Cl         3.7721382288        3.9389147392        1.5680687140
 Cl         3.1076998755        2.3536121666       -3.5120103449
 Cl        -3.0728883684       -4.4004781098        1.3510470284
 Cl        -3.7901315675       -1.9106831701       -3.3720137804
 Cl        -0.0663542982       -0.0250385130        2.3031655659
  78
       -160.30789712
 N         -0.1114020090       -2.0313663533       -0.2434153714
 N         -2.0115250581        0.1067718192       -0.1480762458
 C          2.1901757136       -2.5273824893        0.3674481565
 C          0.8849417258       -2.9018840916        0.1204885562
 C          0.3534515269       -4.2403005960        0.1307540714
 H          0.9107013261       -5.1184425642        0.3919441005
 C         -0.9332853020       -4.1572878120       -0.2853072658
 H         -1.6423445761       -4.9536696176       -0.4138863434
 C         -1.2281993029       -2.7591349526       -0.4707115851
 C         -2.5070506865       -2.2408409003       -0.7080772610
 C         -2.8704767294       -0.8908027828       -0.5225884988
 C         -4.1832928997       -0.3620572549       -0.6169784743
 H         -5.0567507449       -0.9063567544       -0.9178599910
 C         -4.1100769252        0.9625806848       -0.2470780694
 H         -4.9083260977        1.6766309877       -0.1911349868
 C         -2.7500716952        1.2346491667        0.0176320814
 C         -3.5432835808       -3.2009938182       -1.1386095846
 C         -4.5998893885       -3.5937979482       -0.3187195123
 C         -5.5494481492       -4.5082262777       -0.7461170445
 C         -5.4522832885       -5.0476788726       -2.0164585904
 H         -6.1858932349       -5.7605361823       -2.3576009410
 C         -4.4117079241       -4.6848062697       -2.8549720389
 C         -3.4691399979       -3.7750653120       -2.4100064737
 N          0.0891251104        2.0170379482       -0.3039935326
 N          1.9850360520       -0.1154742839       -0.1496577050
 C         -2.2134375216        2.5304834282        0.2992755307
 C         -0.9075510624        2.8946836060        0.0482014562
 C         -0.3781230438        4.2339566147        0.0319765821
 H         -0.9401100664        5.1150273807        0.2738239286
 C          0.9095529249        4.1439064549       -0.3785034181
 H          1.6170816453        4.9378077577       -0.5211537119
 C          1.2051200453        2.7412634714       -0.5386844281
 C          2.4845877281        2.2164066347       -0.7630733068
 C          2.8448282017        0.8690195868       -0.5539691702
 C          4.1575702858        0.3350554854       -0.6343906510
 H          5.0285170681        0.8696767035       -0.9612519385
 C          4.0824505579       -0.9736981349       -0.2192302660
 H          4.8790472384       -1.6860598446       -0.1378973026
 C          2.7214003218       -1.2355879425        0.0567886598
 C          3.5377043946        3.1762393857       -1.1493724476
 C          4.5727386007        3.5325963718       -0.2816822965
 C          5.5388521663        4.4550901063       -0.6504490045
 C          5.4824781556        5.0360136866       -1.9055885303
 H          6.2317284803        5.7547382509       -2.1976586403
 C          4.4660054736        4.7096608858       -2.7859504737
 C          3.5052193807        3.7904714185       -2.4020616105
 Fe        -0.0126570061        0.0002473647        0.2053003615
 C         -3.1209372130        3.5173068453        0.9254612180
 C         -3.2814360949        3.4544723638        2.3124921435
 C         -3.8015332795        4.5124844385        0.2335591169
 C         -4.0902936361        4.3536785318        2.9861035264
 C         -4.6191608711        5.4185254186        0.8949380198
 H         -4.1881135861        4.2800136437        4.0565100595
 C         -4.7563100805        5.3334686983        2.2698065826
 H         -5.1335728355        6.1803418963        0.3312476730
 H         -5.3859699955        6.0386625540        2.7898679035
 C          3.1237106133       -3.5008785935        0.9709359491
 C          3.4234649693       -3.3721396971        2.3299262660
 C          3.7118007368       -4.5467328454        0.2660321205
 C          4.2778046382       -4.2590514331        2.9631027472
 C          4.5743496206       -5.4357999778        0.8856699436
 H          4.4826397729       -4.1381319033        4.0142623555
 C          4.8507922364       -5.2870782295        2.2342991368
 H          5.0208307564       -6.2323698582        0.3136409460
 H          5.5206484639       -5.9777547625        2.7204512174
 H         -6.3498940805       -4.7937006963       -0.0839566408
 H         -4.3263726433       -5.1005516205       -3.8458993772
 H          6.3150257366        4.7200445767        0.0467663905
 H          4.4103956736        5.1635526788       -3.7620065850
 Cl         2.6811625050       -2.0865308147        3.2164143075
 Cl         3.3696071258       -4.7102744097       -1.4200552896
 Cl        -2.4215616341        2.2307501041        3.1823641978
 Cl        -3.6179351043        4.6068436324       -1.4818108732
 Cl         4.6076436673        2.8494553223        1.3048091645
 Cl         2.2309116170        3.3845448045       -3.5003579516
 Cl        -4.7050240135       -2.9400843619        1.2786118472
 Cl        -2.1651941977       -3.3217244441       -3.4539161005
 Cl         0.0097504394        0.0104427690        2.3383770615
  78
       -160.30787199
 N         -0.0891554108       -2.0687727554        0.2808711057
 N         -2.0099696474        0.0827601280        0.3552244688
 C          2.2951541161       -2.5885206102        0.3104935705
 C          0.9612175165       -2.9472280166        0.3351005876
 C          0.4613664225       -4.2957333723        0.2870410713
 H          1.0694854203       -5.1764549305        0.3593854280
 C         -0.8800853030       -4.2115443576        0.1182646635
 H         -1.5914359594       -5.0094548568        0.0271601549
 C         -1.2129308724       -2.8144676404        0.1286465915
 C         -2.5069280974       -2.3131972023        0.0079476581
 C         -2.8717198485       -0.9705634243        0.2042889273
 C         -4.2135843109       -0.5101748655        0.2245972082
 H         -5.0829912947       -1.1335961929        0.1524132627
 C         -4.1592249191        0.8520474459        0.3737794534
 H         -4.9798287847        1.5393021107        0.4421011625
 C         -2.7876377595        1.2017268310        0.4097991371
 C         -3.5456048240       -3.2039796338       -0.5613753844
 C         -4.4065611431       -4.0056315863        0.1787195794
 C         -5.3691480038       -4.7898422269       -0.4416450811
 C         -5.4757132035       -4.7765545054       -1.8215267386
 H         -6.2255005811       -5.3818071374       -2.3070222785
 C         -4.6290694559       -3.9915546214       -2.5858644914
 C         -3.6755547741       -3.2148555477       -1.9519312985
 N          0.0728565964        2.0259367243        0.2311462346
 N          2.0032487784       -0.1249845561        0.2320090153
 C         -2.3127534141        2.5381950555        0.3674715910
 C         -0.9819584534        2.8983903713        0.2867402904
 C         -0.5010152079        4.2446009847        0.1302514480
 H         -1.1174285027        5.1221053228        0.1440500170
 C          0.8406119130        4.1654975046       -0.0354801231
 H          1.5385369026        4.9678117106       -0.1744401281
 C          1.1871522401        2.7714212912        0.0169820448
 C          2.4819838081        2.2753731965       -0.1358933118
 C          2.8474818753        0.9220076842       -0.0342263978
 C          4.1645201248        0.4373328237       -0.2479987198
 H          5.0173284365        1.0398905630       -0.4915908013
 C          4.1142559804       -0.9246689723       -0.0973453897
 H          4.9201539713       -1.6245203955       -0.1989063381
 C          2.7684641294       -1.2530399109        0.1946070103
 C          3.5369131985        3.2485478492       -0.4898523014
 C          4.5323866706        3.6234959689        0.4129535286
 C          5.5104768997        4.5421130416        0.0665582373
 C          5.5031885381        5.1018836170       -1.1995507538
 H          6.2614505765        5.8189622693       -1.4733417042
 C          4.5294029536        4.7494849135       -2.1180604795
 C          3.5585132098        3.8301589465       -1.7585615280
 Fe         0.0076922904       -0.0170664304        0.6506431976
 C         -3.3313589102        3.5967007459        0.1848863501
 C         -3.6882551900        4.4845134124        1.1965007532
 C         -3.9575530494        3.7347420916       -1.0553944973
 C         -4.6368778468        5.4740011908        0.9859990105
 C         -4.9063389767        4.7174687145       -1.2804562047
 H         -4.8944794771        6.1463755940        1.7882007535
 C         -5.2418833970        5.5840675333       -0.2542779369
 H         -5.3695041700        4.7989206059       -2.2509401489
 H         -5.9792757847        6.3529696792       -0.4245433549
 C          3.3107523251       -3.6602655010        0.2410315253
 C          4.1917182555       -3.8893159656        1.2992094869
 C          3.4392281618       -4.4595576559       -0.8957172255
 C          5.1550641312       -4.8826473004        1.2333726910
 C          4.3985601177       -5.4553691319       -0.9748949551
 H          5.8193340907       -5.0377538581        2.0681380450
 C          5.2524517172       -5.6633854558        0.0942126119
 H          4.4744816073       -6.0524232489       -1.8692136455
 H          6.0019020959       -6.4371447465        0.0376106290
 H         -6.0276082497       -5.3992886304        0.1564413432
 H         -4.7027089701       -3.9738884441       -3.6616937481
 H          6.2639412539        4.8142367008        0.7877885197
 H          4.5184046896        5.1782428221       -3.1070474253
 Cl         4.0509499055       -2.9125633199        2.7150757144
 Cl         2.4017462783       -4.1754911189       -2.2494422744
 Cl        -2.9282243011        4.3288049363        2.7408113297
 Cl        -3.5142881126        2.6643811542       -2.3367194188
 Cl         4.5169240911        2.9387549523        1.9956982922
 Cl         2.3543616819        3.3701617241       -2.9085824759
 Cl        -4.2652070179       -4.0091704713        1.9023943542
 Cl        -2.6115207743       -2.2228946646       -2.8862957044
 Cl         0.0796722690        0.0046386107        2.7827197099
  78
       -160.30777290
 N         -0.0920453834       -2.0425847495       -0.0571735514
 N         -2.0165279615        0.0932128352        0.0015165775
 C          2.2693151253       -2.5053992395        0.3914023333
 C          0.9359721908       -2.9039695849        0.1460742691
 C          0.4864225824       -4.2385845639       -0.0603772756
 H          1.0921493233       -5.1182111115        0.0389970014
 C         -0.8277623627       -4.1591422492       -0.4358317332
 H         -1.4911070635       -4.9642739202       -0.6861121801
 C         -1.1849499395       -2.7773012495       -0.4021635004
 C         -2.4696074614       -2.2545620041       -0.5894521678
 C         -2.8558203579       -0.9334970142       -0.2941104461
 C         -4.2094612764       -0.4874782578       -0.1917841030
 H         -5.0756716060       -1.0925370098       -0.3769715455
 C         -4.1714623669        0.8120219996        0.2195680342
 H         -5.0041991213        1.4543351071        0.4287693487
 C         -2.7937121964        1.1892564866        0.2832410377
 C         -3.4992935147       -3.1687832823       -1.1347819926
 C         -4.3672546711       -3.9016682750       -0.3317060180
 C         -5.3133045588       -4.7522783478       -0.8834340794
 C         -5.3943189505       -4.8786786997       -2.2593509266
 H         -6.1271093681       -5.5397456658       -2.6943147062
 C         -4.5413967286       -4.1659956419       -3.0843809571
 C         -3.6034769048       -3.3196574676       -2.5171306119
 N          0.0594147958        2.0254958831       -0.0284899005
 N          1.9687056310       -0.1132554626       -0.0680131982
 C         -2.3057959566        2.4834240867        0.4609333816
 C         -0.9739443519        2.8767119094        0.1791500447
 C         -0.5493748624        4.2106991597       -0.0767496659
 H         -1.1677681544        5.0834892281        0.0072409136
 C          0.7581052922        4.1407003499       -0.4754010281
 H          1.3935304015        4.9499074580       -0.7775857295
 C          1.1399477226        2.7670237022       -0.4071756323
 C          2.4219000309        2.2465072775       -0.6229923286
 C          2.8035942321        0.9118978685       -0.3739384833
 C          4.1585069972        0.4594325638       -0.3088664728
 H          5.0202188252        1.0666269567       -0.5082142767
 C          4.1256212230       -0.8465391961        0.0815332529
 H          4.9539075205       -1.5080301834        0.2463158426
 C          2.7485889781       -1.2124865092        0.1920441919
 C          3.4766170843        3.1591453747       -1.1093298481
 C          4.0283878047        4.1622621950       -0.3131405380
 C          5.0207224831        5.0010141199       -0.7967780728
 C          5.4742894850        4.8464602502       -2.0947908650
 H          6.2469201095        5.4970663978       -2.4733922056
 C          4.9465013878        3.8600143621       -2.9102884235
 C          3.9598590132        3.0263420323       -2.4124391545
 Fe        -0.0163821982       -0.0113457602        0.3753697512
 C         -3.2190375306        3.5509642214        0.9154084750
 C         -3.0563701229        4.0623432637        2.2063898314
 C         -4.2246462695        4.0982859106        0.1216761594
 C         -3.8797385349        5.0617380060        2.6957822823
 C         -5.0579898632        5.0974642241        0.6005633166
 H         -3.7318476595        5.4310387454        3.6976077759
 C         -4.8832235768        5.5719627059        1.8885279291
 H         -5.8283568838        5.4999600526       -0.0378998684
 H         -5.5294300460        6.3494410690        2.2649049196
 C          3.2213626388       -3.5454689462        0.8414754691
 C          3.3198215980       -3.8123152857        2.2077725158
 C          4.0274998646       -4.2710017407       -0.0283767975
 C          4.1992947319       -4.7655464126        2.6912169467
 C          4.9119756828       -5.2296836072        0.4406179881
 H          4.2598745734       -4.9490846565        3.7516888446
 C          4.9931165132       -5.4691369570        1.8012441785
 H          5.5272092095       -5.7763396041       -0.2559245684
 H          5.6843014094       -6.2107906594        2.1742161522
 H         -5.9732673027       -5.3075573599       -0.2372418115
 H         -4.5955012522       -4.2609354565       -4.1567423758
 H          5.4321360899        5.7623316108       -0.1538341739
 H          5.2901916849        3.7329358474       -3.9240690398
 Cl         2.3154447271       -2.9127413259        3.2898917227
 Cl         3.9070617235       -3.9593758659       -1.7237324292
 Cl        -1.8097018876        3.4020576740        3.2059726087
 Cl        -4.4036643676        3.5479909491       -1.5067400777
 Cl         3.4858812519        4.3309803535        1.3160499200
 Cl         3.2877713781        1.7994852770       -3.4260447939
 Cl        -4.2419061885       -3.7387517710        1.3838419621
 Cl        -2.5306801783       -2.4155211215       -3.5262802019
 Cl         0.0212819928       -0.0232277562        2.5083400898
  78
       -160.30773919
 N         -0.1140774769       -2.0228279043        0.0122451075
 N         -2.0304664870        0.0550501888        0.1097199841
 C          2.2448417926       -2.4105923835       -0.5022923671
 C          0.9284783841       -2.8325036074       -0.2778133442
 C          0.5006616027       -4.2058805647       -0.2243236267
 H          1.1304543821       -5.0522189328       -0.4181768397
 C         -0.7998265599       -4.2009182737        0.1617639294
 H         -1.4488619282       -5.0407421759        0.3217159999
 C         -1.1983364573       -2.8219179523        0.2694831805
 C         -2.4815400935       -2.3520345012        0.4665992665
 C         -2.8760229589       -1.0038295415        0.2195432804
 C         -4.1893727624       -0.6137750132       -0.1302560831
 H         -5.0486249945       -1.2562875681       -0.1307759710
 C         -4.1205524154        0.7040519209       -0.5133411665
 H         -4.9183837329        1.3191690981       -0.8787512586
 C         -2.7747057305        1.1179988974       -0.3297987857
 C         -3.5330143568       -3.3190605402        0.8533655727
 C         -3.8572091589       -3.4636394352        2.2019717719
 C         -4.7907521808       -4.3968981537        2.6195564963
 C         -5.4307025500       -5.1899478415        1.6779721728
 H         -6.1460479642       -5.9310650521        1.9970008772
 C         -5.1456414420       -5.0537455256        0.3313107716
 C         -4.2018672622       -4.1226855141       -0.0702777925
 N          0.0485095638        2.0282982180        0.1159769948
 N          1.9646888374       -0.0551395615        0.1913521648
 C         -2.2796240863        2.4212221952       -0.5342606887
 C         -0.9809115294        2.8387795960       -0.2116728908
 C         -0.5597934063        4.2128492803       -0.1158995275
 H         -1.1849562674        5.0622452496       -0.3169985601
 C          0.7267307750        4.2040122354        0.3104644837
 H          1.3586181188        5.0456796048        0.5184322367
 C          1.1291079068        2.8239589061        0.3996939475
 C          2.4134891953        2.3530475422        0.5841359769
 C          2.8074791156        1.0010027957        0.3527347588
 C          4.1339141792        0.6106776860        0.0546923266
 H          4.9967074856        1.2459780527        0.1027447630
 C          4.0804864174       -0.7044267970       -0.3416665525
 H          4.8955445531       -1.3168983192       -0.6751852705
 C          2.7251297238       -1.1128100468       -0.2340275506
 C          3.5011250273        3.3127953663        0.8675482582
 C          4.1206248182        3.3134971483        2.1182820695
 C          5.1439209337        4.1996262934        2.4166845602
 C          5.5668610104        5.0970563229        1.4509809300
 H          6.3626080694        5.7906554246        1.6753483522
 C          4.9825159515        5.1099936978        0.1957700085
 C          3.9587559146        4.2202707833       -0.0880651597
 Fe        -0.0407715136       -0.0086098663        0.5374299301
 C         -3.1540955221        3.4242533778       -1.1760938901
 C         -4.2871861872        3.9669384855       -0.5671751081
 C         -2.8342932777        3.8719775355       -2.4627491256
 C         -5.0788870079        4.9000465566       -1.2207818513
 C         -3.6142776948        4.8055907920       -3.1248484901
 H         -5.9485097371        5.3020953287       -0.7231472038
 C         -4.7400003886        5.3146806825       -2.4990260193
 H         -3.3378937108        5.1242818249       -4.1179237796
 H         -5.3540082078        6.0412384245       -3.0079041252
 C          3.1794698557       -3.3903439230       -1.0910780478
 C          4.2549945091       -3.9413611279       -0.3955976066
 C          3.0027602771       -3.7803892518       -2.4216460247
 C          5.1309878879       -4.8262803063       -1.0039399211
 C          3.8726761096       -4.6587796642       -3.0447982194
 H          5.9539684401       -5.2375395725       -0.4410088927
 C          4.9396888107       -5.1750652690       -2.3302730332
 H          3.7139514841       -4.9247931863       -4.0779239313
 H          5.6261242699       -5.8574858726       -2.8077808579
 H         -5.0062108839       -4.5022835049        3.6711809191
 H         -5.6424832966       -5.6635334408       -0.4061932868
 H          5.6006452253        4.1831850105        3.3935885355
 H          5.3165684977        5.7982816657       -0.5635544797
 Cl         4.4718347076       -3.5279626504        1.2691597577
 Cl         1.6797092017       -3.1219343045       -3.3150904829
 Cl        -4.6750747167        3.5017149672        1.0570101147
 Cl        -1.4394012303        3.2234018235       -3.2542161920
 Cl         3.5710683408        2.1897250741        3.3109664919
 Cl         3.2576459982        4.2069656936       -1.6671144716
 Cl        -3.0156927934       -2.4835648409        3.3561931701
 Cl        -3.8255031818       -3.9396962467       -1.7485492743
 Cl        -0.0755667773       -0.1247378304        2.6643794874
  78
       -160.30766703
 N         -0.0546632952       -2.0171935957        0.0791511130
 N         -1.9976118846        0.1029532410        0.2186276790
 C          2.3043813782       -2.5225201527        0.4661901867
 C          0.9872166781       -2.8884410912        0.1985266113
 C          0.5368841899       -4.2156779980       -0.1105199812
 H          1.1577508001       -5.0904817450       -0.0928537421
 C         -0.7727406567       -4.1182885207       -0.4485281820
 H         -1.4365492334       -4.9021734770       -0.7553639451
 C         -1.1435463874       -2.7336183398       -0.3060357880
 C         -2.4318011831       -2.2391167090       -0.4464603882
 C         -2.8315860441       -0.9083012442       -0.1408671555
 C         -4.1704481139       -0.4419225028       -0.1682249043
 H         -5.0329505833       -1.0189291919       -0.4369279225
 C         -4.1405712514        0.8769810776        0.2094789718
 H         -4.9721991888        1.5460632351        0.3136218480
 C         -2.7777119986        1.2145677174        0.4089516559
 C         -3.4777271451       -3.1458107425       -0.9614595404
 C         -4.4952067899       -3.6422347864       -0.1480720894
 C         -5.5025441412       -4.4459236109       -0.6576418577
 C         -5.4992268014       -4.7709699025       -2.0029329434
 H         -6.2858721157       -5.3881849689       -2.4077283978
 C         -4.4915959564       -4.3108678085       -2.8329417713
 C         -3.4910429894       -3.5099965387       -2.3086964348
 N          0.0877461310        2.0500218332        0.2986152457
 N          2.0002375771       -0.0921389495        0.2666580833
 C         -2.2955562212        2.5246100057        0.5812317715
 C         -0.9601843950        2.9024533514        0.4479815214
 C         -0.5169680157        4.2488637402        0.2214766798
 H         -1.1359220956        5.1178260760        0.2910726165
 C          0.7873903068        4.1802582065       -0.1375549887
 H          1.4305368744        4.9879565243       -0.4242309095
 C          1.1764682247        2.7975549319       -0.0482241926
 C          2.4501130228        2.2896524808       -0.2531180717
 C          2.8392977133        0.9452723521        0.0307454634
 C          4.1848462769        0.5128367027        0.1251605586
 H          5.0524027224        1.1316862530        0.0038177745
 C          4.1518715857       -0.8293535904        0.4176501022
 H          4.9848574943       -1.4900076605        0.5617046089
 C          2.7839564320       -1.2002542943        0.4595827196
 C          3.4667721888        3.1425031693       -0.8944676559
 C          4.0197538061        4.2837960914       -0.3107402339
 C          4.9064408275        5.0947616171       -1.0030061453
 C          5.2724678168        4.7643290460       -2.2961703856
 H          5.9536415045        5.3994716348       -2.8413224007
 C          4.7718387770        3.6175766476       -2.8915024556
 C          3.8816261464        2.8222261318       -2.1919914886
 Fe        -0.0032282011       -0.0068127726        0.6209191066
 C         -3.2993458997        3.6073570496        0.6938214978
 C         -3.5835867526        4.1990743759        1.9243973338
 C         -3.9799588127        4.0722290746       -0.4287184052
 C         -4.5198180159        5.2131223719        2.0318952630
 C         -4.9184101717        5.0869349411       -0.3364350874
 H         -4.7253053503        5.6532308847        2.9948718162
 C         -5.1841351908        5.6517349672        0.8985358094
 H         -5.4281115467        5.4262748202       -1.2236650024
 H         -5.9131028514        6.4420793732        0.9780605850
 C          3.3125650279       -3.6045359671        0.5631286166
 C          3.6307975456       -4.1889067526        1.7850455812
 C          3.9714407504       -4.0618696903       -0.5764585615
 C          4.5785344067       -5.1975849195        1.8713965159
 C          4.9185688593       -5.0689296350       -0.5074067119
 H          4.8110503074       -5.6322307838        2.8291778178
 C          5.2162604076       -5.6312528699        0.7227558371
 H          5.4105862223       -5.3983737809       -1.4071522387
 H          5.9506546372       -6.4173667843        0.7817006234
 H         -6.2792151409       -4.8074338132       -0.0020727736
 H         -4.4810866770       -4.5582944112       -3.8822275925
 H          5.3054565753        5.9769851473       -0.5278567817
 H          5.0568154249        3.3430721341       -3.8944374761
 Cl         2.8171548140       -3.6312262138        3.2014892605
 Cl         3.5808402692       -3.3396196937       -2.0972489887
 Cl        -2.7428976434        3.6294288712        3.3212466955
 Cl        -3.6215266603        3.3725552532       -1.9680305433
 Cl         3.6194805534        4.6710348087        1.3267800646
 Cl         3.2287468679        1.4143316707       -2.9574425780
 Cl        -4.4781449836       -3.2519895772        1.5367274589
 Cl        -2.2399207893       -2.9187610747       -3.3457635469
 Cl        -0.0431342563       -0.0875315442        2.7520099104
  78
       -160.30755119
 N         -0.0706465504       -2.0789991782        0.2771797036
 N         -1.9943359644        0.0685018496        0.3597441463
 C          2.3177788206       -2.5838189407        0.3849277833
 C          0.9777975485       -2.9476771821        0.3260764811
 C          0.4960001107       -4.2958225435        0.1765822648
 H          1.1118987785       -5.1730296487        0.2201189745
 C         -0.8377689135       -4.2142525406       -0.0438684123
 H         -1.5330097396       -5.0129146954       -0.2160635901
 C         -1.1915510633       -2.8235967199        0.0432222288
 C         -2.4762219806       -2.3214163084       -0.0633680753
 C         -2.8493518584       -0.9817802649        0.2140074282
 C         -4.1897334483       -0.5434941677        0.3304163301
 H         -5.0561858727       -1.1741333829        0.2861215252
 C         -4.1434721030        0.8150342607        0.5266019779
 H         -4.9675935420        1.4862921440        0.6714728408
 C         -2.7759580409        1.1833532413        0.4924401126
 C         -3.5387664654       -3.1583659448       -0.6661331309
 C         -4.3122715707       -4.0882629188        0.0198858398
 C         -5.3196665057       -4.7987175986       -0.6171148486
 C         -5.5599277940       -4.5838029861       -1.9633989979
 H         -6.3444797171       -5.1303881087       -2.4636803838
 C         -4.8025018275       -3.6691922389       -2.6756736789
 C         -3.8058417260       -2.9643547592       -2.0236172419
 N          0.0734180997        2.0102382713        0.2240189055
 N          2.0187860350       -0.1307394743        0.2631455629
 C         -2.3116595931        2.5144937137        0.4185028058
 C         -0.9785276105        2.8771150083        0.2703651954
 C         -0.5143888203        4.2147358610        0.0265116982
 H         -1.1366930113        5.0881043541        0.0128768741
 C          0.8222921900        4.1368251050       -0.1777609071
 H          1.5082186218        4.9339252375       -0.3886354042
 C          1.1847756622        2.7497719077       -0.0557411865
 C          2.4761849000        2.2611149443       -0.1806856358
 C          2.8619086934        0.9109013126       -0.0020051536
 C          4.1925081203        0.4417759019       -0.1159115792
 H          5.0517836041        1.0462392535       -0.3307436731
 C          4.1535061238       -0.9149619495        0.0928999024
 H          4.9745555597       -1.6045001088        0.0750118218
 C          2.7951752331       -1.2553174667        0.3080994168
 C          3.5230616666        3.2241737801       -0.5878606694
 C          4.4657412617        3.7218136458        0.3095909620
 C          5.4219495475        4.6433135881       -0.0874057472
 C          5.4460274797        5.0782999445       -1.4011285903
 H          6.1852750366        5.7993886973       -1.7128543346
 C          4.5282141348        4.5964216928       -2.3183020561
 C          3.5781182003        3.6772499075       -1.9063378006
 Fe         0.0203886590       -0.0292479552        0.6596104888
 C         -3.3398256610        3.5671260687        0.2677069233
 C         -3.6059648958        4.5018824316        1.2655347942
 C         -4.0730694752        3.6532929745       -0.9182549143
 C         -4.5724093535        5.4818482447        1.0983609887
 C         -5.0370528311        4.6302150914       -1.1000095533
 H         -4.7595721843        6.1865586590        1.8923227451
 C         -5.2845210894        5.5404214707       -0.0864712835
 H         -5.5809166055        4.6735153919       -2.0300307659
 H         -6.0367328624        6.3011904988       -0.2254848901
 C          3.3363706399       -3.6559503599        0.3439539821
 C          4.1145528853       -3.9565949218        1.4610628042
 C          3.5711822481       -4.3778578295       -0.8267602762
 C          5.0841119146       -4.9468099455        1.4200007655
 C          4.5359932885       -5.3694383851       -0.8823874328
 H          5.6688080700       -5.1573013266        2.3005684477
 C          5.2882785667       -5.6494862678        0.2456340346
 H          4.6958493296       -5.9073036713       -1.8029001220
 H          6.0424095420       -6.4201180072        0.2040919106
 H         -5.9093089736       -5.5070741711       -0.0575408497
 H         -4.9786183190       -3.4950713071       -3.7252296792
 H          6.1341014125        5.0156912144        0.6318041873
 H          4.5426180116        4.9257471705       -3.3446597872
 Cl         3.8429645280       -3.0724573395        2.9177787617
 Cl         2.6547834651       -4.0002714121       -2.2414246563
 Cl        -2.7149514302        4.4133396062        2.7431542776
 Cl        -3.7481110517        2.5366532791       -2.1928598323
 Cl         4.4105176876        3.1859147607        1.9505173918
 Cl         2.4363803228        3.0612691468       -3.0448469393
 Cl        -4.0147959102       -4.3364042115        1.7069964835
 Cl        -2.8588031692       -1.8121727386       -2.8971016286
 Cl         0.0783733609       -0.0113963818        2.7921784874
  78
       -160.30753756
 N         -0.0423723706       -2.0609040760        0.1183694860
 N         -1.9616765392        0.0814256045        0.2169259301
 C          2.3486901639       -2.5342741093        0.4436145060
 C          1.0002630411       -2.9232407465        0.2271404337
 C          0.5655489817       -4.2404891876       -0.0628936770
 H          1.1833785201       -5.1175687338       -0.0551430479
 C         -0.7665872658       -4.1537288452       -0.3882178321
 H         -1.4183570125       -4.9515300084       -0.6858322340
 C         -1.1360179508       -2.7893645195       -0.2444185706
 C         -2.4281515880       -2.2558919815       -0.4086567910
 C         -2.7975034402       -0.9380578670       -0.1153512251
 C         -4.1558867610       -0.4733171295       -0.0857360262
 H         -5.0140743079       -1.0827233469       -0.2928520057
 C         -4.1221365085        0.8348948874        0.2744490621
 H         -4.9470478827        1.5088404783        0.4010167339
 C         -2.7408218325        1.1931037843        0.4211654742
 C         -3.4855701395       -3.1296914513       -0.9608507985
 C         -4.1013171985       -4.1391111954       -0.2239559426
 C         -5.1096643698       -4.9174067575       -0.7700557010
 C         -5.5133135850       -4.6946624411       -2.0752727115
 H         -6.3004696315       -5.2968548093       -2.5025260245
 C         -4.9172273993       -3.7049889230       -2.8361573307
 C         -3.9149767300       -2.9319552340       -2.2745213822
 N          0.1000901030        2.0109161303        0.1601615996
 N          2.0324863801       -0.1276766372        0.1147123068
 C         -2.2744393581        2.4928174495        0.5526088719
 C         -0.9214468762        2.8812945794        0.3815586866
 C         -0.4497279759        4.2133963351        0.2575413095
 H         -1.0333800006        5.0993571933        0.4161349801
 C          0.8707947104        4.1315810709       -0.1070624827
 H          1.5505377867        4.9373598571       -0.3020068339
 C          1.1976709090        2.7496242281       -0.1528515004
 C          2.4773466989        2.2257487867       -0.4229887765
 C          2.8641436764        0.9022437334       -0.2011079224
 C          4.2223142175        0.4370562769       -0.2113724531
 H          5.0737305266        1.0498292735       -0.4360203745
 C          4.1977456698       -0.8703912773        0.1537240055
 H          5.0267066741       -1.5403494229        0.2748480986
 C          2.8179755482       -1.2374517487        0.3020546160
 C          3.4418075206        3.1647800349       -1.0391170671
 C          4.4028137272        3.8743940682       -0.3263289249
 C          5.2416173431        4.7809935144       -0.9571989930
 C          5.1246111632        4.9852386991       -2.3210190374
 H          5.7707292357        5.6933999148       -2.8149702915
 C          4.1820807369        4.2878776391       -3.0589689137
 C          3.3512794219        3.3891793303       -2.4134925943
 Fe         0.0442126615       -0.0297643165        0.5594218637
 C         -3.2639159094        3.5854257998        0.6799682999
 C         -3.9043291422        3.8543152672        1.8880481558
 C         -3.5706010270        4.3927332962       -0.4163499720
 C         -4.7988988854        4.9067679456        2.0086962102
 C         -4.4627827995        5.4465421571       -0.3101580515
 H         -5.2731058814        5.0987827002        2.9577591090
 C         -5.0679482925        5.7021842830        0.9083929711
 H         -4.6755594443        6.0533063357       -1.1755918730
 H         -5.7575852042        6.5264453012        0.9996483386
 C          3.3105560973       -3.6208487297        0.7350469407
 C          3.4261033039       -4.0919093442        2.0424042263
 C          4.0947046154       -4.2186913440       -0.2482836376
 C          4.2980787702       -5.1205414084        2.3620577235
 C          4.9676204449       -5.2506567145        0.0555885778
 H          4.3685299576       -5.4607506883        3.3825747697
 C          5.0636620356       -5.6959041865        1.3634071280
 H          5.5593846015       -5.6993321173       -0.7260207236
 H          5.7415476200       -6.5002169444        1.6044340790
 H         -5.5746514931       -5.6841686519       -0.1713405811
 H         -5.2208274847       -3.5248730580       -3.8550768425
 H          5.9721553715        5.3232287248       -0.3795941834
 H          4.0849149678        4.4384600440       -4.1219419155
 Cl         2.4579621800       -3.3532161276        3.2670585288
 Cl         3.9517110350       -3.6594713475       -1.8771903215
 Cl        -3.5506973420        2.8571758518        3.2534935840
 Cl        -2.8358565469        4.0463765019       -1.9400902074
 Cl         4.5225867305        3.6222256437        1.3797359380
 Cl         2.1634557313        2.5118491781       -3.3138076494
 Cl        -3.6101060993       -4.3929169144        1.4129484193
 Cl        -3.1621735041       -1.6942145737       -3.2170884997
 Cl         0.1154648572       -0.0469158739        2.6916546929
