78
 energy: -160.315870329197 gnorm: 0.000116115461 xtb: 6.7.1 (edcfbbe)
N            2.38384563894798        0.07751650438363       -0.17691100540194
N            0.35609166627818       -1.95699337972060       -0.21344613734958
C            2.73791951283545        2.49693156054668       -0.20410571015892
C            3.17518599612896        1.17938373506534       -0.09427925374797
C            4.54257241907086        0.78627904232654        0.12788278706391
H            5.36352543258694        1.46568556201252        0.25111805030132
C            4.56161706917546       -0.56435464458218        0.17318413097079
H            5.40142102981473       -1.21078877252915        0.33814717220290
C            3.20720645146733       -1.01031603159377       -0.03966481593706
C            2.80647754780212       -2.32594119534569       -0.12344007543338
C            1.45971646359339       -2.74575838323865       -0.32566030166617
C            1.08924596405795       -4.06736455632478       -0.66490177363014
H            1.76745641491903       -4.88036928737553       -0.83587680885144
C           -0.28150301382343       -4.08547035528360       -0.73709933341334
H           -0.91584333507862       -4.91532259456193       -0.98009181128841
C           -0.72278056014053       -2.77192891577728       -0.43714976255323
C            3.81703916171900       -3.39363447383053       -0.00093904588426
C            3.79565631260440       -4.26080868601299        1.09430954142120
C            4.72992411233164       -5.27346564636344        1.23274427011812
C            5.70543419842986       -5.43716615927097        0.26432182432183
H            6.43517809091861       -6.22490360688032        0.36642869143717
C            5.74988460556565       -4.59829744290112       -0.83581847367187
C            4.81109183621013       -3.58764633484640       -0.96104048845061
N           -1.72192154371206        0.02705322066081       -0.21061883481958
N            0.30531920381269        2.06045864851235       -0.12471720798177
C           -2.07462038896306       -2.38861343398681       -0.35066567189995
C           -2.51416030424888       -1.07709538161128       -0.19063109183825
C           -3.88539742491529       -0.69374595043131        0.02448123974824
H           -4.70808167107585       -1.37772253284190        0.10266189087047
C           -3.90570582430790        0.65355853854621        0.12945730575403
H           -4.74848856627852        1.29238081776171        0.30830338892631
C           -2.54796339095489        1.10795330349294       -0.03987093742148
C           -2.14646816671260        2.42591533358710       -0.05919244105645
C           -0.79673623536441        2.85367154312703       -0.22039741052847
C           -0.42143667660349        4.18846091817413       -0.49674631649925
H           -1.09713828474502        5.00831352729415       -0.64315793655925
C            0.95025177532052        4.20912260933725       -0.54681061441489
H            1.58783789134729        5.04842816525706       -0.74462064645282
C            1.38730596239671        2.88386378305025       -0.29619472398363
C           -3.16005923860356        3.48724330430595        0.09035505374076
C           -3.15996161012037        4.30734022287580        1.22143620813582
C           -4.09807164442058        5.31263078376250        1.38539436877670
C           -5.05589914141951        5.51652887673426        0.40700613063416
H           -5.78847427005938        6.29881330768176        0.52882542919497
C           -5.07889555470939        4.72501629811658       -0.72832721672025
C           -4.13654058502012        3.72119510873878       -0.87889327544687
Fe           0.32794427377379        0.04383308749534        0.18568167069310
C           -3.08933988386574       -3.45823096768889       -0.41700651213058
C           -3.19633253553806       -4.41437897718324        0.59562486432924
C           -3.97686515987894       -3.55117988176423       -1.49042993394622
C           -4.14777625992208       -5.41952368554274        0.54152193931018
C           -4.93067327182297       -4.55276493254702       -1.55838826549335
H           -4.20791693539546       -6.13839382507575        1.34245789341654
C           -5.01148982349050       -5.48477401573466       -0.53817945689910
H           -5.59697784372740       -4.59829920158948       -2.40461878190703
H           -5.75285514683447       -6.26685525445883       -0.58500274301339
C            3.75240633716125        3.56858315329398       -0.20738228008164
C            3.83634558469873        4.48562730615144        0.84311296320506
C            4.66207072675388        3.70413272529410       -1.25766747542265
C            4.78573316894611        5.49414422217012        0.84684810619164
C            5.61457373579418        4.70922280863534       -1.26739733027471
H            4.82698361936203        6.18231884193423        1.67547232470845
C            5.67149347465802        5.60222466743115       -0.21133235368776
H            6.29831844616659        4.78797182317906       -2.09712254046693
H            6.41130054941886        6.38717212153710       -0.21312072254341
H            4.68911380702753       -5.92147657317667        2.09309646477100
H            6.50188164726793       -4.72427790557890       -1.59794199517757
H           -4.07396216606290        5.92376705855562        2.27292881334949
H           -5.81688465515156        4.88266854508135       -1.49820564538754
Cl           2.75119225546009        4.33257170333254        2.17805857833001
Cl           4.57414140346984        2.60578203961059       -2.58890871715827
Cl          -2.13737717326846       -4.31507381199040        1.95645898398104
Cl          -3.85926651178831       -2.40185714102946       -2.77553242990237
Cl          -1.97550655590322        4.03113645355755        2.44799019141433
Cl          -4.14648005428691        2.75811223146514       -2.31392559608938
Cl           2.58922255178649       -4.03494457551056        2.30970512147621
Cl           4.84802407207647       -2.56461964094025       -2.35353468509676
Cl           0.31114180615379       -0.00389018330710        2.31860565719316
