      -----------------------------------------------------------      
     |                   =====================                   |     
     |                           x T B                           |     
     |                   =====================                   |     
     |                         S. Grimme                         |     
     |          Mulliken Center for Theoretical Chemistry        |     
     |                    University of Bonn                     |     
      -----------------------------------------------------------      

   * xtb version 6.7.1 (edcfbbe) compiled by 'runner@sat12-gn217-0cbadaec-b866-44ae-a866-732403219ae3-6E01A8DFFD18.local' on 2026-06-10

   xtb is free software: you can redistribute it and/or modify it under
   the terms of the GNU Lesser General Public License as published by
   the Free Software Foundation, either version 3 of the License, or
   (at your option) any later version.
   
   xtb is distributed in the hope that it will be useful,
   but WITHOUT ANY WARRANTY; without even the implied warranty of
   MERCHANTABILITY or FITNESS FOR A PARTICULAR PURPOSE.  See the
   GNU Lesser General Public License for more details.
   
   Cite this work as:
   * C. Bannwarth, E. Caldeweyher, S. Ehlert, A. Hansen, P. Pracht,
     J. Seibert, S. Spicher, S. Grimme, WIREs Comput. Mol. Sci., 2020, 11,
     e01493. DOI: 10.1002/wcms.1493
   
   for GFN2-xTB:
   * C. Bannwarth, S. Ehlert and S. Grimme., J. Chem. Theory Comput., 2019,
     15, 1652-1671. DOI: 10.1021/acs.jctc.8b01176
   for GFN1-xTB:
   * S. Grimme, C. Bannwarth, P. Shushkov, J. Chem. Theory Comput., 2017,
     13, 1989-2009. DOI: 10.1021/acs.jctc.7b00118
   for GFN0-xTB:
   * P. Pracht, E. Caldeweyher, S. Ehlert, S. Grimme, ChemRxiv, 2019, preprint.
     DOI: 10.26434/chemrxiv.8326202.v1
   for GFN-FF:
   * S. Spicher and S. Grimme, Angew. Chem. Int. Ed., 2020, 59, 15665-15673.
     DOI: 10.1002/anie.202004239
   
   for ALPB and GBSA implicit solvation:
   * S. Ehlert, M. Stahn, S. Spicher, S. Grimme, J. Chem. Theory Comput.,
     2021, 17, 4250-4261. DOI: 10.1021/acs.jctc.1c00471
   
   for ddCOSMO and CPCM-X implicit solvation:
   * M. Stahn, S. Ehlert, S. Grimme, J. Phys. Chem. A,
     2023, XX, XXXX-XXXX. DOI: 10.1021/acs.jpca.3c04382
   
   for DFT-D4:
   * E. Caldeweyher, C. Bannwarth and S. Grimme, J. Chem. Phys., 2017,
     147, 034112. DOI: 10.1063/1.4993215
   * E. Caldeweyher, S. Ehlert, A. Hansen, H. Neugebauer, S. Spicher,
     C. Bannwarth and S. Grimme, J. Chem. Phys., 2019, 150, 154122.
     DOI: 10.1063/1.5090222
   * E. Caldeweyher, J.-M. Mewes, S. Ehlert and S. Grimme, Phys. Chem. Chem. Phys.
     2020, 22, 8499-8512. DOI: 10.1039/D0CP00502A
   
   for sTDA-xTB:
   * S. Grimme and C. Bannwarth, J. Chem. Phys., 2016, 145, 054103.
     DOI: 10.1063/1.4959605
   
   in the mass-spec context:
   * V. Asgeirsson, C. Bauer and S. Grimme, Chem. Sci., 2017, 8, 4879.
     DOI: 10.1039/c7sc00601b
   * J. Koopman and S. Grimme, ACS Omega 2019, 4, 12, 15120-15133.
     DOI: 10.1021/acsomega.9b02011
   
   for metadynamics refer to:
   * S. Grimme, J. Chem. Theory Comput., 2019, 155, 2847-2862
     DOI: 10.1021/acs.jctc.9b00143
   
   for SPH calculations refer to:
   * S. Spicher and S. Grimme, J. Chem. Theory Comput., 2021, 17, 1701-1714
     DOI: 10.1021/acs.jctc.0c01306
   
   for ONIOM refer to:
   * C. Plett, A. Katbashev, S. Ehlert, S. Grimme, M. Bursch,
     Phys. Chem. Chem. Phys., 2023, 25, 17860-17868. DOI: 10.1039/D3CP02178E
   
   for DIPRO refer to:
   * J. Kohn, N. Gildemeister, S. Grimme, D. Fazzi, A. Hansen,
     J. Chem. Phys., 2023, just accepted.
   
   for PTB refer to:
   * S. Grimme, M. Mueller, A. Hansen, J. Chem. Phys., 2023, 158, 124111.
     DOI: 10.1063/5.0137838
   
   with help from (in alphabetical order)
   P. Atkinson, C. Bannwarth, F. Bohle, G. Brandenburg, E. Caldeweyher
   M. Checinski, S. Dohm, S. Ehlert, S. Ehrlich, I. Gerasimov, C. Hölzer
   A. Katbashev, J. Kohn, J. Koopman, C. Lavigne, S. Lehtola, F. März, M. Müller,
   F. Musil, H. Neugebauer, J. Pisarek, C. Plett, P. Pracht, F. Pultar,
   J. Seibert, P. Shushkov, S. Spicher, M. Stahn, M. Steiner, T. Strunk,
   J. Stückrath, T. Rose, and J. Unsleber
   
 * started run on 2026/09/18 at 10:11:56.658     
   ID    Z sym.   atoms
    1    7 N      1, 2, 24, 25
    2    6 C      3-5, 7, 9-12, 14, 16-20, 22, 23, 26-28, 30, 32-35, 37,
                  39-43, 45, 46, 48-52, 54, 57-61, 63
    3    1 H      6, 8, 13, 15, 21, 29, 31, 36, 38, 44, 53, 55, 56, 62, 64-69
    4   26 Fe     47
    5   17 Cl     70-78

           -------------------------------------------------
          |                Calculation Setup                |
           -------------------------------------------------

          program call               : SOURCE_WORKSPACE/.micromamba/part3c-crest212/bin/xtb input.xyz --gfn 2 --opt tight --chrg 0 --uhf 5 --parallel 4
          coordinate file            : input.xyz
          omp threads                :                     4


           -------------------------------------------------
          |                 G F N 2 - x T B                 |
           -------------------------------------------------

        Reference                      10.1021/acs.jctc.8b01176
      * Hamiltonian:
        H0-scaling (s, p, d)           1.850000    2.230000    2.230000
        zeta-weighting                 0.500000
      * Dispersion:
        s8                             2.700000
        a1                             0.520000
        a2                             5.000000
        s9                             5.000000
      * Repulsion:
        kExp                           1.500000    1.000000
        rExp                           1.000000
      * Coulomb:
        alpha                          2.000000
        third order                    shell-resolved
        anisotropic                    true
        a3                             3.000000
        a5                             4.000000
        cn-shift                       1.200000
        cn-exp                         4.000000
        max-rad                        5.000000


          ...................................................
          :                      SETUP                      :
          :.................................................:
          :  # basis functions                 312          :
          :  # atomic orbitals                 302          :
          :  # shells                          146          :
          :  # electrons                       287          :
          :  max. iterations                   250          :
          :  Hamiltonian                  GFN2-xTB          :
          :  restarted?                      false          :
          :  GBSA solvation                  false          :
          :  PC potential                    false          :
          :  electronic temp.          300.0000000     K    :
          :  accuracy                    1.0000000          :
          :  -> integral cutoff          0.2500000E+02      :
          :  -> integral neglect         0.1000000E-07      :
          :  -> SCF convergence          0.1000000E-05 Eh   :
          :  -> wf. convergence          0.1000000E-03 e    :
          :  Broyden damping             0.4000000          :
          :  net charge                          0          :
          :  unpaired electrons                  5          :
          ...................................................

 iter      E             dE          RMSdq      gap      omega  full diag
   1   -161.8810733 -0.161881E+03  0.458E+00    0.77       0.0  T
   2   -160.2268301  0.165424E+01  0.578E+00    0.16       1.0  T
   3   -162.0285773 -0.180175E+01  0.248E+00    0.67       1.0  T
   4   -161.2976823  0.730895E+00  0.344E+00    0.28       1.0  T
   5   -162.1480370 -0.850355E+00  0.139E+00    0.35       1.0  T
   6   -162.2118588 -0.638218E-01  0.100E+00    0.52       1.0  T
   7   -162.2052140  0.664473E-02  0.774E-01    0.43       1.0  T
   8   -162.2349274 -0.297133E-01  0.506E-01    0.33       1.0  T
   9   -162.2226541  0.122733E-01  0.597E-01    0.29       1.0  T
  10   -162.2423274 -0.196734E-01  0.358E-01    0.30       1.0  T
  11   -162.2493842 -0.705679E-02  0.152E-01    0.32       1.0  T
  12   -162.2495945 -0.210224E-03  0.118E-01    0.32       1.0  T
  13   -162.2498535 -0.259031E-03  0.675E-02    0.32       1.0  T
  14   -162.2497433  0.110182E-03  0.117E-01    0.32       1.0  T
  15   -162.2501138 -0.370445E-03  0.432E-02    0.32       1.0  T
  16   -162.2501254 -0.116504E-04  0.353E-02    0.32       1.0  T
  17   -162.2501797 -0.542456E-04  0.207E-02    0.32       1.0  T
  18   -162.2501974 -0.177324E-04  0.139E-02    0.32       1.0  T
  19   -162.2502054 -0.803705E-05  0.651E-03    0.32       1.7  T
  20   -162.2502069 -0.152087E-05  0.416E-03    0.32       2.7  T
  21   -162.2502067  0.232689E-06  0.349E-03    0.32       3.2  T
  22   -162.2502073 -0.599729E-06  0.138E-03    0.32       8.2  T
  23   -162.2502073  0.479801E-08  0.174E-03    0.32       6.5  T
  24   -162.2502073 -0.185718E-07  0.154E-03    0.32       7.3  T
  25   -162.2502074 -0.489168E-07  0.797E-04    0.32      14.2  T
  26   -162.2502074  0.245876E-09  0.750E-04    0.32      15.1  T

   *** convergence criteria satisfied after 26 iterations ***

         #    Occupation            Energy/Eh            Energy/eV
      -------------------------------------------------------------
         1        2.0000           -1.0796211             -29.3780
       ...           ...                  ...                  ...
       140        1.9557           -0.3764517             -10.2438
       141        1.7176           -0.3744188             -10.1885
       142        1.3265           -0.3728447             -10.1456
       143        1.0001           -0.3649383              -9.9305
       144        1.0000           -0.3566844              -9.7059
       145        0.9998           -0.3068866              -8.3508
       146        0.9981           -0.3046280              -8.2893 (HOMO)
       147        0.0020           -0.2927623              -7.9665 (LUMO)
       148                         -0.2700123              -7.3474
       149                         -0.2599957              -7.0748
       150                         -0.2589430              -7.0462
       151                         -0.2586437              -7.0381
       ...                                ...                  ...
       302                          2.0340780              55.3501
      -------------------------------------------------------------
                  HL-Gap            0.0118657 Eh            0.3229 eV
             Fermi-level           -0.3360927 Eh           -9.1455 eV

 SCC (total)                   0 d,  0 h,  0 min,  0.428 sec
 SCC setup                      ...        0 min,  0.001 sec (  0.158%)
 Dispersion                     ...        0 min,  0.001 sec (  0.209%)
 classical contributions        ...        0 min,  0.000 sec (  0.037%)
 integral evaluation            ...        0 min,  0.009 sec (  2.112%)
 iterations                     ...        0 min,  0.397 sec ( 92.697%)
 molecular gradient             ...        0 min,  0.018 sec (  4.182%)
 printout                       ...        0 min,  0.003 sec (  0.603%)

         :::::::::::::::::::::::::::::::::::::::::::::::::::::
         ::                     SUMMARY                     ::
         :::::::::::::::::::::::::::::::::::::::::::::::::::::
         :: total energy            -160.100494413919 Eh    ::
         :: gradient norm              0.419636319129 Eh/a0 ::
         :: HOMO-LUMO gap              0.322881967788 eV    ::
         ::.................................................::
         :: SCC energy              -162.247630468731 Eh    ::
         :: -> isotropic ES            0.046698032509 Eh    ::
         :: -> anisotropic ES         -0.012394689188 Eh    ::
         :: -> anisotropic XC          0.049254283252 Eh    ::
         :: -> dispersion             -0.147600731883 Eh    ::
         :: repulsion energy           2.147136054812 Eh    ::
         :: add. restraining           0.000000000000 Eh    ::
         :: total charge              -0.000000000002 e     ::
         :::::::::::::::::::::::::::::::::::::::::::::::::::::

      ----------------------------------------------------------- 
     |                   =====================                   |
     |                        A N C O P T                        |
     |                   =====================                   |
     |               Approximate Normal Coordinate               |
     |                Rational Function Optimizer                |
      ----------------------------------------------------------- 
      ----------------------------------------------------------- 
     |                   =====================                   |
     |                        A N C O P T                        |
     |                   =====================                   |
     |               Approximate Normal Coordinate               |
     |                Rational Function Optimizer                |
      ----------------------------------------------------------- 

          ...................................................
          :                      SETUP                      :
          :.................................................:
          :   optimization level             tight          :
          :   max. optcycles                   390          :
          :   ANC micro-cycles                  20          :
          :   degrees of freedom               228          :
          :.................................................:
          :   RF solver                   davidson          :
          :   write xtbopt.log                true          :
          :   linear?                        false          :
          :   energy convergence         0.1000000E-05 Eh   :
          :   grad. convergence          0.8000000E-03 Eh/α :
          :   maxmium RF displ.          1.0000000          :
          :   Hlow (freq-cutoff)         0.1000000E-01      :
          :   Hmax (freq-cutoff)         5.0000000          :
          :   S6 in model hess.         20.0000000          :
          ...................................................

generating ANC from exact Hessian ...
Using Lindh-Hessian (1995)
 Shifting diagonal of input Hessian by    9.8922113729784274E-003
 Lowest  eigenvalues of input Hessian
    0.000000    0.000000    0.000000    0.000000    0.000000    0.000000
    0.010000    0.010138    0.010322    0.010352    0.010377    0.010408
    0.010568    0.010577    0.010984    0.011218    0.011274    0.011367
 Highest eigenvalues
    2.105162    2.146329    2.185026    2.217936    2.282486    2.393152


........................................................................
.............................. CYCLE    1 ..............................
........................................................................

 iter      E             dE          RMSdq      gap      omega  full diag
   1   -162.2502074 -0.162250E+03  0.155E-04    0.32       0.0  T
   2   -162.2502074  0.133492E-07  0.393E-04    0.32      28.8  T
   3   -162.2502074 -0.665739E-08  0.321E-04    0.32      35.3  T
     SCC iter.                  ...        0 min,  0.051 sec
     gradient                   ...        0 min,  0.022 sec
 * total energy  :  -160.1004944 Eh     change       -0.2480479E-07 Eh
   gradient norm :     0.4196402 Eh/α   predicted     0.0000000E+00 (-100.00%)
   displ. norm   :     0.4886542 α      lambda       -0.1589400E+00
   maximum displ.:     0.1334091 α      in ANC's #161, #102, #50, ...

........................................................................
.............................. CYCLE    2 ..............................
........................................................................

 iter      E             dE          RMSdq      gap      omega  full diag
   1   -162.1959759 -0.162196E+03  0.137E+00    0.06       0.0  T
   2   -161.6739874  0.521988E+00  0.302E+00    0.30       1.0  T
   3   -162.2110009 -0.537013E+00  0.121E+00    0.35       1.0  T
   4   -162.2882858 -0.772850E-01  0.712E-01    0.12       1.0  T
   5   -162.3139154 -0.256296E-01  0.531E-01    0.11       1.0  T
   6   -162.3126261  0.128931E-02  0.406E-01    0.16       1.0  T
   7   -162.3157479 -0.312183E-02  0.176E-01    0.11       1.0  T
   8   -162.3127623  0.298560E-02  0.556E-01    0.08       1.0  T
   9   -162.3139110 -0.114866E-02  0.296E-01    0.10       1.0  T
  10   -162.3167015 -0.279052E-02  0.357E-02    0.11       1.0  T
  11   -162.3164533  0.248184E-03  0.555E-02    0.10       1.0  T
  12   -162.3167732 -0.319858E-03  0.184E-02    0.11       1.0  T
  13   -162.3167859 -0.127473E-04  0.169E-02    0.11       1.0  T
  14   -162.3167807  0.519701E-05  0.219E-02    0.11       1.0  T
  15   -162.3167899 -0.913990E-05  0.107E-02    0.11       1.1  T
  16   -162.3167427  0.471770E-04  0.275E-02    0.11       1.0  T
  17   -162.3167949 -0.521972E-04  0.375E-03    0.11       3.0  T
  18   -162.3167938  0.109165E-05  0.498E-03    0.11       2.3  T
  19   -162.3167954 -0.163152E-05  0.231E-03    0.11       4.9  T
  20   -162.3167953  0.163518E-06  0.223E-03    0.11       5.1  T
  21   -162.3167955 -0.179808E-06  0.877E-04    0.11      12.9  T
  22   -162.3167955 -0.318642E-07  0.561E-04    0.11      20.2  T
     SCC iter.                  ...        0 min,  0.321 sec
     gradient                   ...        0 min,  0.018 sec
 * total energy  :  -160.2203113 Eh     change       -0.1198169E+00 Eh
   gradient norm :     0.2179681 Eh/α   predicted    -0.9848824E-01 ( -17.80%)
   displ. norm   :     0.5247386 α      lambda       -0.8612865E-01
   maximum displ.:     0.1347891 α      in ANC's #50, #27, #161, ...

........................................................................
.............................. CYCLE    3 ..............................
........................................................................

 iter      E             dE          RMSdq      gap      omega  full diag
   1   -162.3158276 -0.162316E+03  0.937E-01    0.03       0.0  T
   2   -161.8795029  0.436325E+00  0.268E+00    0.72       1.0  T
   3   -162.3587593 -0.479256E+00  0.833E-01    0.08       1.0  T
   4   -162.3664943 -0.773497E-02  0.658E-01    0.07       1.0  T
   5   -162.3501949  0.162994E-01  0.807E-01    0.06       1.0  T
   6   -162.3710127 -0.208178E-01  0.177E-01    0.06       1.0  T
   7   -162.3713175 -0.304816E-03  0.220E-01    0.05       1.0  T
   8   -162.3709314  0.386101E-03  0.228E-01    0.04       1.0  T
   9   -162.3733016 -0.237022E-02  0.113E-01    0.05       1.0  T
  10   -162.3736956 -0.393952E-03  0.321E-02    0.05       1.0  T
  11   -162.3737381 -0.424920E-04  0.146E-02    0.05       1.0  T
  12   -162.3737459 -0.782583E-05  0.107E-02    0.05       1.1  T
  13   -162.3737255  0.203799E-04  0.251E-02    0.05       1.0  T
  14   -162.3737468 -0.212415E-04  0.853E-03    0.05       1.3  T
  15   -162.3737518 -0.505639E-05  0.388E-03    0.05       2.9  T
  16   -162.3737512  0.623471E-06  0.488E-03    0.05       2.3  T
  17   -162.3737524 -0.121342E-05  0.937E-04    0.05      12.1  T
  18   -162.3737524 -0.105203E-07  0.711E-04    0.05      15.9  T
  19   -162.3737524  0.413733E-07  0.982E-04    0.05      11.5  T
     SCC iter.                  ...        0 min,  0.270 sec
     gradient                   ...        0 min,  0.018 sec
 * total energy  :  -160.2795346 Eh     change       -0.5922322E-01 Eh
   gradient norm :     0.0911427 Eh/α   predicted    -0.5492213E-01 (  -7.26%)
   displ. norm   :     0.5111625 α      lambda       -0.2913901E-01
   maximum displ.:     0.1968125 α      in ANC's #27, #50, #47, ...

........................................................................
.............................. CYCLE    4 ..............................
........................................................................

 iter      E             dE          RMSdq      gap      omega  full diag
   1   -162.3821555 -0.162382E+03  0.570E-01    0.04       0.0  T
   2   -162.0837342  0.298421E+00  0.210E+00    0.16       1.0  T
   3   -162.3925035 -0.308769E+00  0.438E-01    0.05       1.0  T
   4   -162.3929303 -0.426849E-03  0.612E-01    0.04       1.0  T
   5   -162.3942152 -0.128483E-02  0.556E-01    0.04       1.0  T
   6   -162.3955526 -0.133745E-02  0.401E-01    0.04       1.0  T
   7   -162.3951438  0.408785E-03  0.389E-01    0.03       1.0  T
   8   -162.3970098 -0.186594E-02  0.264E-01    0.04       1.0  T
   9   -162.3975007 -0.490982E-03  0.571E-02    0.03       1.0  T
  10   -162.3976308 -0.130104E-03  0.189E-02    0.04       1.0  T
  11   -162.3976328 -0.193080E-05  0.238E-02    0.04       1.0  T
  12   -162.3976380 -0.517561E-05  0.279E-02    0.03       1.0  T
  13   -162.3976389 -0.980292E-06  0.255E-02    0.04       1.0  T
  14   -162.3976420 -0.310481E-05  0.189E-02    0.04       1.0  T
  15   -162.3976472 -0.517900E-05  0.119E-02    0.04       1.0  T
  16   -162.3976497 -0.248821E-05  0.355E-03    0.04       3.2  T
  17   -162.3976501 -0.418651E-06  0.190E-03    0.04       6.0  T
  18   -162.3976501 -0.183904E-07  0.784E-04    0.04      14.4  T
  19   -162.3976502 -0.242224E-07  0.761E-04    0.04      14.9  T
     SCC iter.                  ...        0 min,  0.272 sec
     gradient                   ...        0 min,  0.021 sec
 * total energy  :  -160.2996558 Eh     change       -0.2012120E-01 Eh
   gradient norm :     0.0574227 Eh/α   predicted    -0.1837637E-01 (  -8.67%)
   displ. norm   :     0.4371047 α      lambda       -0.1053670E-01
   maximum displ.:     0.2396898 α      in ANC's #27, #50, #47, ...

........................................................................
.............................. CYCLE    5 ..............................
........................................................................

 iter      E             dE          RMSdq      gap      omega  full diag
   1   -162.4009089 -0.162401E+03  0.391E-01    0.04       0.0  T
   2   -162.3173563  0.835525E-01  0.167E+00    0.04       1.0  T
   3   -162.4048625 -0.875062E-01  0.199E-01    0.03       1.0  T
   4   -162.4018942  0.296831E-02  0.343E-01    0.04       1.0  T
   5   -162.4045070 -0.261280E-02  0.131E-01    0.04       1.0  T
   6   -162.4007608  0.374619E-02  0.399E-01    0.04       1.0  T
   7   -162.4043441 -0.358331E-02  0.203E-01    0.04       1.0  T
   8   -162.4053732 -0.102910E-02  0.348E-02    0.04       1.0  T
   9   -162.4053166  0.566512E-04  0.562E-02    0.04       1.0  T
  10   -162.4054107 -0.940827E-04  0.146E-02    0.04       1.0  T
  11   -162.4053565  0.541277E-04  0.436E-02    0.04       1.0  T
  12   -162.4054190 -0.624488E-04  0.572E-03    0.04       2.0  T
  13   -162.4054160  0.298228E-05  0.112E-02    0.04       1.0  T
  14   -162.4054162 -0.228172E-06  0.101E-02    0.04       1.1  T
  15   -162.4054179 -0.165217E-05  0.753E-03    0.04       1.5  T
  16   -162.4054196 -0.173567E-05  0.766E-04    0.04      14.8  T
  17   -162.4054196  0.403051E-07  0.138E-03    0.04       8.2  T
  18   -162.4054196 -0.533289E-07  0.445E-04    0.04      25.5  T
  19   -162.4054196  0.223297E-07  0.951E-04    0.04      11.9  T
     SCC iter.                  ...        0 min,  0.275 sec
     gradient                   ...        0 min,  0.018 sec
 * total energy  :  -160.3069998 Eh     change       -0.7343993E-02 Eh
   gradient norm :     0.0360837 Eh/α   predicted    -0.6274921E-02 ( -14.56%)
   displ. norm   :     0.3746947 α      lambda       -0.4109062E-02
   maximum displ.:     0.2457771 α      in ANC's #27, #15, #20, ...

........................................................................
.............................. CYCLE    6 ..............................
........................................................................

 iter      E             dE          RMSdq      gap      omega  full diag
   1   -162.4125282 -0.162413E+03  0.191E-01    0.04       0.0  T
   2   -162.3675614  0.449668E-01  0.125E+00    0.03       1.0  T
   3   -162.4125172 -0.449559E-01  0.220E-01    0.04       1.0  T
   4   -162.4124964  0.208598E-04  0.196E-01    0.04       1.0  T
   5   -162.4131202 -0.623853E-03  0.126E-01    0.03       1.0  T
   6   -162.4132989 -0.178731E-03  0.116E-01    0.04       1.0  T
   7   -162.4135864 -0.287509E-03  0.460E-02    0.04       1.0  T
   8   -162.4136400 -0.535941E-04  0.271E-02    0.04       1.0  T
   9   -162.4136680 -0.279418E-04  0.772E-03    0.04       1.5  T
  10   -162.4136463  0.217159E-04  0.245E-02    0.04       1.0  T
  11   -162.4136687 -0.224749E-04  0.388E-03    0.04       2.9  T
  12   -162.4136676  0.114369E-05  0.628E-03    0.04       1.8  T
  13   -162.4136678 -0.161671E-06  0.636E-03    0.04       1.8  T
  14   -162.4136691 -0.136743E-05  0.198E-03    0.04       5.7  T
  15   -162.4136692 -0.779875E-07  0.961E-04    0.04      11.8  T
  16   -162.4136692 -0.288763E-07  0.195E-04    0.04      58.2  T
     SCC iter.                  ...        0 min,  0.231 sec
     gradient                   ...        0 min,  0.018 sec
 * total energy  :  -160.3097984 Eh     change       -0.2798667E-02 Eh
   gradient norm :     0.0198102 Eh/α   predicted    -0.2342993E-02 ( -16.28%)
   displ. norm   :     0.2778757 α      lambda       -0.1367223E-02
   maximum displ.:     0.1770558 α      in ANC's #27, #15, #20, ...

........................................................................
.............................. CYCLE    7 ..............................
........................................................................

 iter      E             dE          RMSdq      gap      omega  full diag
   1   -162.4215434 -0.162422E+03  0.851E-02    0.05       0.0  T
   2   -162.4140842  0.745917E-02  0.509E-01    0.04       1.0  T
   3   -162.4215071 -0.742293E-02  0.882E-02    0.04       1.0  T
   4   -162.4208422  0.664939E-03  0.149E-01    0.05       1.0  T
   5   -162.4216175 -0.775321E-03  0.314E-02    0.04       1.0  T
   6   -162.4215524  0.651584E-04  0.616E-02    0.04       1.0  T
   7   -162.4216194 -0.670815E-04  0.435E-02    0.04       1.0  T
   8   -162.4216830 -0.635469E-04  0.505E-03    0.04       2.2  T
   9   -162.4216828  0.181077E-06  0.599E-03    0.04       1.9  T
  10   -162.4216824  0.368041E-06  0.502E-03    0.04       2.3  T
  11   -162.4216832 -0.771380E-06  0.450E-03    0.04       2.5  T
  12   -162.4216834 -0.165760E-06  0.277E-03    0.04       4.1  T
  13   -162.4216837 -0.366546E-06  0.863E-04    0.04      13.1  T
  14   -162.4216838 -0.272586E-07  0.271E-04    0.04      41.8  T
     SCC iter.                  ...        0 min,  0.200 sec
     gradient                   ...        0 min,  0.019 sec
 * total energy  :  -160.3107009 Eh     change       -0.9024683E-03 Eh
   gradient norm :     0.0099839 Eh/α   predicted    -0.7364124E-03 ( -18.40%)
   displ. norm   :     0.1874151 α      lambda       -0.4542500E-03
   maximum displ.:     0.0832935 α      in ANC's #15, #27, #1, ...

........................................................................
.............................. CYCLE    8 ..............................
........................................................................

 iter      E             dE          RMSdq      gap      omega  full diag
   1   -162.4262771 -0.162426E+03  0.498E-02    0.05       0.0  T
   2   -162.4261166  0.160550E-03  0.650E-02    0.04       1.0  T
   3   -162.4253178  0.798788E-03  0.176E-01    0.04       1.0  T
   4   -162.4261500 -0.832201E-03  0.476E-02    0.05       1.0  T
   5   -162.4262649 -0.114927E-03  0.239E-02    0.05       1.0  T
   6   -162.4262675 -0.252584E-05  0.234E-02    0.04       1.0  T
   7   -162.4262854 -0.179179E-04  0.162E-02    0.04       1.0  T
   8   -162.4262950 -0.959580E-05  0.178E-03    0.04       6.4  T
   9   -162.4262950 -0.693638E-07  0.137E-03    0.04       8.3  T
  10   -162.4262951 -0.516787E-07  0.972E-04    0.04      11.6  T
  11   -162.4262951 -0.145657E-07  0.119E-03    0.04       9.5  T
  12   -162.4262951 -0.257232E-07  0.689E-04    0.04      16.4  T
     SCC iter.                  ...        0 min,  0.172 sec
     gradient                   ...        0 min,  0.019 sec
 * total energy  :  -160.3110216 Eh     change       -0.3207163E-03 Eh
   gradient norm :     0.0062850 Eh/α   predicted    -0.2351567E-03 ( -26.68%)
   displ. norm   :     0.1874875 α      lambda       -0.2938435E-03
   maximum displ.:     0.0862924 α      in ANC's #15, #1, #47, ...

........................................................................
.............................. CYCLE    9 ..............................
........................................................................

 iter      E             dE          RMSdq      gap      omega  full diag
   1   -162.4284216 -0.162428E+03  0.498E-02    0.05       0.0  T
   2   -162.4270473  0.137428E-02  0.204E-01    0.04       1.0  T
   3   -162.4284163 -0.136898E-02  0.331E-02    0.04       1.0  T
   4   -162.4283480  0.683304E-04  0.417E-02    0.05       1.0  T
   5   -162.4284384 -0.904861E-04  0.155E-02    0.05       1.0  T
   6   -162.4284262  0.122048E-04  0.219E-02    0.04       1.0  T
   7   -162.4284348 -0.857648E-05  0.215E-02    0.04       1.0  T
   8   -162.4284497 -0.148849E-04  0.520E-03    0.04       2.2  T
   9   -162.4284507 -0.985868E-06  0.188E-03    0.04       6.0  T
  10   -162.4284507 -0.114792E-07  0.165E-03    0.04       6.9  T
  11   -162.4284508 -0.917471E-07  0.793E-04    0.04      14.3  T
  12   -162.4284508 -0.366061E-07  0.479E-04    0.04      23.7  T
     SCC iter.                  ...        0 min,  0.171 sec
     gradient                   ...        0 min,  0.020 sec
 * total energy  :  -160.3112322 Eh     change       -0.2106402E-03 Eh
   gradient norm :     0.0055645 Eh/α   predicted    -0.1520953E-03 ( -27.79%)
   displ. norm   :     0.1981807 α      lambda       -0.2131287E-03
   maximum displ.:     0.0842248 α      in ANC's #1, #15, #2, ...

........................................................................
.............................. CYCLE   10 ..............................
........................................................................

 iter      E             dE          RMSdq      gap      omega  full diag
   1   -162.4283229 -0.162428E+03  0.452E-02    0.04       0.0  T
   2   -162.4273991  0.923749E-03  0.174E-01    0.04       1.0  T
   3   -162.4283369 -0.937761E-03  0.229E-02    0.04       1.0  T
   4   -162.4281984  0.138471E-03  0.583E-02    0.05       1.0  T
   5   -162.4283201 -0.121723E-03  0.200E-02    0.04       1.0  T
   6   -162.4282832  0.368869E-04  0.407E-02    0.04       1.0  T
   7   -162.4283152 -0.319163E-04  0.276E-02    0.04       1.0  T
   8   -162.4283429 -0.277285E-04  0.242E-03    0.04       4.7  T
   9   -162.4283430 -0.157995E-06  0.145E-03    0.04       7.8  T
  10   -162.4283430  0.216502E-08  0.123E-03    0.04       9.2  T
  11   -162.4283431 -0.523039E-07  0.105E-03    0.04      10.8  T
  12   -162.4283431 -0.754653E-08  0.833E-04    0.04      13.6  T
  13   -162.4283431 -0.342376E-07  0.281E-04    0.04      40.4  T
     SCC iter.                  ...        0 min,  0.186 sec
     gradient                   ...        0 min,  0.023 sec
 * total energy  :  -160.3113862 Eh     change       -0.1539864E-03 Eh
   gradient norm :     0.0054450 Eh/α   predicted    -0.1107541E-03 ( -28.08%)
   displ. norm   :     0.2007434 α      lambda       -0.1584868E-03
   maximum displ.:     0.0953982 α      in ANC's #1, #2, #15, ...

........................................................................
.............................. CYCLE   11 ..............................
........................................................................

 iter      E             dE          RMSdq      gap      omega  full diag
   1   -162.4269293 -0.162427E+03  0.398E-02    0.04       0.0  T
   2   -162.4268756  0.537653E-04  0.524E-02    0.04       1.0  T
   3   -162.4266694  0.206153E-03  0.881E-02    0.04       1.0  T
   4   -162.4267880 -0.118551E-03  0.621E-02    0.04       1.0  T
   5   -162.4269154 -0.127485E-03  0.200E-02    0.04       1.0  T
   6   -162.4268879  0.275859E-04  0.366E-02    0.04       1.0  T
   7   -162.4269174 -0.295076E-04  0.233E-02    0.04       1.0  T
   8   -162.4269368 -0.194534E-04  0.325E-03    0.04       3.5  T
   9   -162.4269370 -0.148750E-06  0.162E-03    0.04       7.0  T
  10   -162.4269370  0.109978E-07  0.216E-03    0.04       5.2  T
  11   -162.4269371 -0.144237E-06  0.535E-04    0.04      21.2  T
  12   -162.4269371  0.431129E-09  0.490E-04    0.04      23.1  T
     SCC iter.                  ...        0 min,  0.170 sec
     gradient                   ...        0 min,  0.018 sec
 * total energy  :  -160.3115008 Eh     change       -0.1145921E-03 Eh
   gradient norm :     0.0046329 Eh/α   predicted    -0.8243740E-04 ( -28.06%)
   displ. norm   :     0.1859239 α      lambda       -0.1134852E-03
   maximum displ.:     0.0977032 α      in ANC's #1, #2, #10, ...

........................................................................
.............................. CYCLE   12 ..............................
........................................................................

 iter      E             dE          RMSdq      gap      omega  full diag
   1   -162.4254652 -0.162425E+03  0.401E-02    0.03       0.0  T
   2   -162.4251395  0.325735E-03  0.942E-02    0.04       1.0  T
   3   -162.4250530  0.865484E-04  0.117E-01    0.04       1.0  T
   4   -162.4254210 -0.368011E-03  0.387E-02    0.03       1.0  T
   5   -162.4254816 -0.606180E-04  0.843E-03    0.04       1.3  T
   6   -162.4254633  0.183263E-04  0.245E-02    0.04       1.0  T
   7   -162.4254743 -0.110358E-04  0.170E-02    0.04       1.0  T
   8   -162.4254850 -0.107111E-04  0.320E-03    0.04       3.5  T
   9   -162.4254853 -0.276352E-06  0.727E-04    0.04      15.6  T
  10   -162.4254852  0.443672E-07  0.145E-03    0.04       7.8  T
  11   -162.4254853 -0.624832E-07  0.338E-04    0.04      33.5  T
     SCC iter.                  ...        0 min,  0.162 sec
     gradient                   ...        0 min,  0.018 sec
 * total energy  :  -160.3115842 Eh     change       -0.8339642E-04 Eh
   gradient norm :     0.0038671 Eh/α   predicted    -0.5870520E-04 ( -29.61%)
   displ. norm   :     0.1786272 α      lambda       -0.9058174E-04
   maximum displ.:     0.1009246 α      in ANC's #1, #2, #10, ...

........................................................................
.............................. CYCLE   13 ..............................
........................................................................

 iter      E             dE          RMSdq      gap      omega  full diag
   1   -162.4245768 -0.162425E+03  0.479E-02    0.02       0.0  T
   2   -162.4236438  0.933026E-03  0.162E-01    0.04       1.0  T
   3   -162.4241811 -0.537293E-03  0.115E-01    0.04       1.0  T
   4   -162.4245924 -0.411257E-03  0.307E-02    0.02       1.0  T
   5   -162.4246293 -0.368938E-04  0.105E-02    0.03       1.1  T
   6   -162.4246291  0.112903E-06  0.113E-02    0.03       1.0  T
   7   -162.4246315 -0.232364E-05  0.847E-03    0.03       1.3  T
   8   -162.4246341 -0.265054E-05  0.103E-03    0.03      11.0  T
   9   -162.4246341  0.135326E-07  0.114E-03    0.03       9.9  T
  10   -162.4246341 -0.171279E-07  0.942E-04    0.03      12.0  T
  11   -162.4246341 -0.129448E-07  0.589E-04    0.03      19.2  T
     SCC iter.                  ...        0 min,  0.158 sec
     gradient                   ...        0 min,  0.018 sec
 * total energy  :  -160.3116548 Eh     change       -0.7061387E-04 Eh
   gradient norm :     0.0042984 Eh/α   predicted    -0.4673854E-04 ( -33.81%)
   displ. norm   :     0.2250795 α      lambda       -0.1058210E-03
   maximum displ.:     0.1305424 α      in ANC's #1, #2, #10, ...

........................................................................
.............................. CYCLE   14 ..............................
........................................................................

 iter      E             dE          RMSdq      gap      omega  full diag
   1   -162.4241186 -0.162424E+03  0.747E-02    0.01       0.0  T
   2   -162.4224568  0.166180E-02  0.208E-01    0.04       1.0  T
   3   -162.4227449 -0.288067E-03  0.212E-01    0.03       1.0  T
   4   -162.4242217 -0.147675E-02  0.414E-02    0.01       1.0  T
   5   -162.4242763 -0.546195E-04  0.234E-02    0.02       1.0  T
   6   -162.4242863 -0.100564E-04  0.145E-02    0.02       1.0  T
   7   -162.4242993 -0.129736E-04  0.496E-03    0.02       2.3  T
   8   -162.4243002 -0.857217E-06  0.162E-03    0.02       7.0  T
   9   -162.4243003 -0.100581E-06  0.961E-04    0.02      11.8  T
  10   -162.4243003  0.475472E-08  0.697E-04    0.02      16.2  T
     SCC iter.                  ...        0 min,  0.145 sec
     gradient                   ...        0 min,  0.019 sec
 * total energy  :  -160.3117431 Eh     change       -0.8830131E-04 Eh
   gradient norm :     0.0059367 Eh/α   predicted    -0.5559425E-04 ( -37.04%)
   displ. norm   :     0.3619939 α      lambda       -0.1721968E-03
   maximum displ.:     0.2111888 α      in ANC's #1, #2, #10, ...

........................................................................
.............................. CYCLE   15 ..............................
........................................................................

 iter      E             dE          RMSdq      gap      omega  full diag
   1   -162.4235311 -0.162424E+03  0.142E-01    0.03       0.0  T
   2   -162.4192431  0.428799E-02  0.315E-01    0.04       1.0  T
   3   -162.4186830  0.560122E-03  0.399E-01    0.01       1.0  T
   4   -162.4239566 -0.527356E-02  0.806E-02    0.02       1.0  T
   5   -162.4241287 -0.172140E-03  0.529E-02    0.02       1.0  T
   6   -162.4241835 -0.548191E-04  0.354E-02    0.01       1.0  T
   7   -162.4242559 -0.724068E-04  0.369E-03    0.01       3.1  T
   8   -162.4242561 -0.193902E-06  0.265E-03    0.01       4.3  T
   9   -162.4242562 -0.582146E-07  0.275E-03    0.01       4.1  T
  10   -162.4242564 -0.173580E-06  0.146E-03    0.01       7.8  T
  11   -162.4242564 -0.643697E-07  0.170E-03    0.01       6.7  T
  12   -162.4242565 -0.290022E-07  0.158E-03    0.01       7.2  T
  13   -162.4242565 -0.660414E-07  0.487E-04    0.01      23.3  T
  14   -162.4242565 -0.885240E-08  0.525E-04    0.01      21.6  T
     SCC iter.                  ...        0 min,  0.203 sec
     gradient                   ...        0 min,  0.019 sec
 * total energy  :  -160.3118979 Eh     change       -0.1547309E-03 Eh
   gradient norm :     0.0088644 Eh/α   predicted    -0.9738197E-04 ( -37.06%)
   displ. norm   :     0.6244099 α      lambda       -0.3359006E-03
   maximum displ.:     0.3667555 α      in ANC's #1, #2, #10, ...

........................................................................
.............................. CYCLE   16 ..............................
........................................................................

 iter      E             dE          RMSdq      gap      omega  full diag
   1   -162.4225256 -0.162423E+03  0.227E-01    0.11       0.0  T
   2   -162.4130037  0.952196E-02  0.499E-01    0.02       1.0  T
   3   -162.4128833  0.120411E-03  0.562E-01    0.05       1.0  T
   4   -162.4233276 -0.104443E-01  0.141E-01    0.09       1.0  T
   5   -162.4236863 -0.358665E-03  0.113E-01    0.08       1.0  T
   6   -162.4239106 -0.224294E-03  0.849E-02    0.07       1.0  T
   7   -162.4242241 -0.313590E-03  0.180E-02    0.07       1.0  T
   8   -162.4242343 -0.101971E-04  0.564E-03    0.07       2.0  T
   9   -162.4242332  0.117825E-05  0.720E-03    0.07       1.6  T
  10   -162.4242330  0.139699E-06  0.877E-03    0.07       1.3  T
  11   -162.4242350 -0.197305E-05  0.252E-03    0.07       4.5  T
  12   -162.4242343  0.695713E-06  0.624E-03    0.07       1.8  T
  13   -162.4242351 -0.852304E-06  0.236E-03    0.07       4.8  T
  14   -162.4242353 -0.172058E-06  0.835E-04    0.07      13.6  T
  15   -162.4242354 -0.315472E-07  0.802E-04    0.07      14.1  T
     SCC iter.                  ...        0 min,  0.216 sec
     gradient                   ...        0 min,  0.018 sec
 * total energy  :  -160.3122033 Eh     change       -0.3054637E-03 Eh
   gradient norm :     0.0124972 Eh/α   predicted    -0.2334358E-03 ( -23.58%)
   displ. norm   :     0.6664705 α      lambda       -0.4298972E-03
   maximum displ.:     0.4007214 α      in ANC's #1, #2, #10, ...

........................................................................
.............................. CYCLE   17 ..............................
........................................................................

 iter      E             dE          RMSdq      gap      omega  full diag
   1   -162.4248082 -0.162425E+03  0.171E-01    0.20       0.0  T
   2   -162.4158426  0.896566E-02  0.545E-01    0.13       1.0  T
   3   -162.4230963 -0.725373E-02  0.269E-01    0.14       1.0  T
   4   -162.4252061 -0.210974E-02  0.917E-02    0.18       1.0  T
   5   -162.4253409 -0.134875E-03  0.614E-02    0.17       1.0  T
   6   -162.4254255 -0.845345E-04  0.404E-02    0.16       1.0  T
   7   -162.4255280 -0.102485E-03  0.698E-03    0.16       1.6  T
   8   -162.4255256  0.235028E-05  0.928E-03    0.16       1.2  T
   9   -162.4255282 -0.259387E-05  0.490E-03    0.16       2.3  T
  10   -162.4255285 -0.268457E-06  0.430E-03    0.16       2.6  T
  11   -162.4255289 -0.412772E-06  0.193E-03    0.16       5.9  T
  12   -162.4255287  0.142106E-06  0.231E-03    0.16       4.9  T
  13   -162.4255290 -0.284386E-06  0.578E-04    0.16      19.6  T
  14   -162.4255290 -0.524673E-08  0.379E-04    0.16      29.9  T
     SCC iter.                  ...        0 min,  0.202 sec
     gradient                   ...        0 min,  0.018 sec
 * total energy  :  -160.3123899 Eh     change       -0.1865783E-03 Eh
   gradient norm :     0.0116525 Eh/α   predicted    -0.3104278E-03 (  66.38%)
   displ. norm   :     0.1674320 α      lambda       -0.2851391E-03
   maximum displ.:     0.0718947 α      in ANC's #1, #2, #10, ...

........................................................................
.............................. CYCLE   18 ..............................
........................................................................

 iter      E             dE          RMSdq      gap      omega  full diag
   1   -162.4297130 -0.162430E+03  0.484E-02    0.13       0.0  T
   2   -162.4276780  0.203507E-02  0.245E-01    0.14       1.0  T
   3   -162.4297292 -0.205120E-02  0.330E-02    0.14       1.0  T
   4   -162.4297199  0.926442E-05  0.267E-02    0.13       1.0  T
   5   -162.4297464 -0.265099E-04  0.141E-02    0.13       1.0  T
   6   -162.4297565 -0.100518E-04  0.718E-03    0.14       1.6  T
   7   -162.4297593 -0.286767E-05  0.311E-03    0.14       3.6  T
   8   -162.4297593  0.316902E-08  0.217E-03    0.14       5.2  T
   9   -162.4297596 -0.278916E-06  0.150E-03    0.14       7.5  T
  10   -162.4297596 -0.146795E-07  0.170E-03    0.14       6.7  T
  11   -162.4297597 -0.732196E-07  0.832E-04    0.14      13.6  T
  12   -162.4297597  0.280035E-07  0.132E-03    0.14       8.6  T
  13   -162.4297597 -0.586487E-07  0.126E-04    0.14      89.6  T
     SCC iter.                  ...        0 min,  0.188 sec
     gradient                   ...        0 min,  0.018 sec
 * total energy  :  -160.3125852 Eh     change       -0.1952721E-03 Eh
   gradient norm :     0.0074239 Eh/α   predicted    -0.1465666E-03 ( -24.94%)
   displ. norm   :     0.1927092 α      lambda       -0.2585386E-03
   maximum displ.:     0.0971856 α      in ANC's #1, #2, #15, ...

........................................................................
.............................. CYCLE   19 ..............................
........................................................................

 iter      E             dE          RMSdq      gap      omega  full diag
   1   -162.4304470 -0.162430E+03  0.456E-02    0.15       0.0  T
   2   -162.4300622  0.384797E-03  0.113E-01    0.14       1.0  T
   3   -162.4304157 -0.353464E-03  0.407E-02    0.14       1.0  T
   4   -162.4304198 -0.411606E-05  0.265E-02    0.15       1.0  T
   5   -162.4304075  0.123003E-04  0.311E-02    0.14       1.0  T
   6   -162.4304341 -0.265754E-04  0.282E-02    0.14       1.0  T
   7   -162.4304530 -0.188718E-04  0.126E-02    0.14       1.0  T
   8   -162.4304588 -0.585221E-05  0.187E-03    0.14       6.0  T
   9   -162.4304587  0.129860E-06  0.299E-03    0.14       3.8  T
  10   -162.4304589 -0.261925E-06  0.155E-03    0.14       7.3  T
  11   -162.4304590 -0.806678E-07  0.433E-04    0.14      26.2  T
  12   -162.4304590 -0.205446E-08  0.610E-04    0.14      18.6  T
     SCC iter.                  ...        0 min,  0.175 sec
     gradient                   ...        0 min,  0.020 sec
 * total energy  :  -160.3127650 Eh     change       -0.1798407E-03 Eh
   gradient norm :     0.0048408 Eh/α   predicted    -0.1340701E-03 ( -25.45%)
   displ. norm   :     0.2201537 α      lambda       -0.1429648E-03
   maximum displ.:     0.1242986 α      in ANC's #1, #2, #4, ...

........................................................................
.............................. CYCLE   20 ..............................
........................................................................

 iter      E             dE          RMSdq      gap      omega  full diag
   1   -162.4294559 -0.162429E+03  0.440E-02    0.16       0.0  T
   2   -162.4293196  0.136327E-03  0.672E-02    0.16       1.0  T
   3   -162.4288522  0.467439E-03  0.139E-01    0.16       1.0  T
   4   -162.4294352 -0.583084E-03  0.198E-02    0.16       1.0  T
   5   -162.4294208  0.144200E-04  0.275E-02    0.16       1.0  T
   6   -162.4294486 -0.278338E-04  0.214E-02    0.16       1.0  T
   7   -162.4294628 -0.141046E-04  0.566E-03    0.16       2.0  T
   8   -162.4294640 -0.122368E-05  0.112E-03    0.16      10.1  T
   9   -162.4294640  0.213336E-07  0.145E-03    0.16       7.8  T
  10   -162.4294640 -0.509144E-07  0.996E-04    0.16      11.4  T
  11   -162.4294640 -0.305980E-07  0.482E-04    0.16      23.5  T
     SCC iter.                  ...        0 min,  0.161 sec
     gradient                   ...        0 min,  0.019 sec
 * total energy  :  -160.3128691 Eh     change       -0.1041143E-03 Eh
   gradient norm :     0.0045566 Eh/α   predicted    -0.7495165E-04 ( -28.01%)
   displ. norm   :     0.2293833 α      lambda       -0.1127682E-03
   maximum displ.:     0.1308878 α      in ANC's #1, #2, #4, ...
 * RMSD in coord.:     0.4506410 α      energy gain  -0.2123747E+00 Eh

generating ANC from exact Hessian ...
Using Lindh-Hessian (1995)
 Shifting diagonal of input Hessian by    9.8943292352831370E-003
 Lowest  eigenvalues of input Hessian
    0.000000    0.000000    0.000000    0.000000    0.000000    0.000000
    0.010000    0.010171    0.010370    0.010376    0.010403    0.010476
    0.010627    0.010641    0.011161    0.011379    0.011453    0.011520
 Highest eigenvalues
    2.053901    2.058307    2.078330    2.086345    2.087463    2.099656


........................................................................
.............................. CYCLE   21 ..............................
........................................................................

 iter      E             dE          RMSdq      gap      omega  full diag
   1   -162.4284640 -0.162428E+03  0.486E-02    0.17       0.0  T
   2   -162.4267277  0.173633E-02  0.236E-01    0.17       1.0  T
   3   -162.4283965 -0.166882E-02  0.571E-02    0.17       1.0  T
   4   -162.4284467 -0.501878E-04  0.201E-02    0.17       1.0  T
   5   -162.4284599 -0.132713E-04  0.191E-02    0.17       1.0  T
   6   -162.4284855 -0.255303E-04  0.661E-03    0.17       1.7  T
   7   -162.4284876 -0.210518E-05  0.224E-03    0.17       5.0  T
   8   -162.4284878 -0.192150E-06  0.753E-04    0.17      15.0  T
   9   -162.4284878 -0.453022E-08  0.661E-04    0.17      17.1  T
     SCC iter.                  ...        0 min,  0.132 sec
     gradient                   ...        0 min,  0.018 sec
 * total energy  :  -160.3129576 Eh     change       -0.8846041E-04 Eh
   gradient norm :     0.0052146 Eh/α   predicted     0.0000000E+00 (-100.00%)
   displ. norm   :     0.0599026 α      lambda       -0.5889369E-04
   maximum displ.:     0.0258608 α      in ANC's #17, #14, #1, ...

........................................................................
.............................. CYCLE   22 ..............................
........................................................................

 iter      E             dE          RMSdq      gap      omega  full diag
   1   -162.4289251 -0.162429E+03  0.228E-02    0.17       0.0  T
   2   -162.4276425  0.128260E-02  0.207E-01    0.17       1.0  T
   3   -162.4289117 -0.126914E-02  0.353E-02    0.17       1.0  T
   4   -162.4288910  0.206593E-04  0.400E-02    0.17       1.0  T
   5   -162.4289392 -0.482020E-04  0.664E-03    0.17       1.7  T
   6   -162.4289353  0.394308E-05  0.152E-02    0.17       1.0  T
   7   -162.4289373 -0.205177E-05  0.121E-02    0.17       1.0  T
   8   -162.4289422 -0.482972E-05  0.125E-03    0.17       9.0  T
   9   -162.4289422 -0.271680E-07  0.786E-04    0.17      14.4  T
  10   -162.4289421  0.638840E-07  0.136E-03    0.17       8.3  T
  11   -162.4289421 -0.194126E-07  0.167E-03    0.17       6.8  T
  12   -162.4289422 -0.636060E-07  0.469E-04    0.17      24.1  T
     SCC iter.                  ...        0 min,  0.174 sec
     gradient                   ...        0 min,  0.018 sec
 * total energy  :  -160.3130231 Eh     change       -0.6553932E-04 Eh
   gradient norm :     0.0031244 Eh/α   predicted    -0.4140696E-04 ( -36.82%)
   displ. norm   :     0.1337988 α      lambda       -0.1056008E-03
   maximum displ.:     0.0601296 α      in ANC's #1, #13, #17, ...

........................................................................
.............................. CYCLE   23 ..............................
........................................................................

 iter      E             dE          RMSdq      gap      omega  full diag
   1   -162.4292750 -0.162429E+03  0.406E-02    0.16       0.0  T
   2   -162.4263333  0.294178E-02  0.314E-01    0.16       1.0  T
   3   -162.4292927 -0.295944E-02  0.319E-02    0.16       1.0  T
   4   -162.4292368  0.559004E-04  0.479E-02    0.16       1.0  T
   5   -162.4293013 -0.644962E-04  0.134E-02    0.16       1.0  T
   6   -162.4292986  0.267791E-05  0.239E-02    0.16       1.0  T
   7   -162.4293034 -0.484049E-05  0.184E-02    0.16       1.0  T
   8   -162.4293144 -0.109690E-04  0.181E-03    0.16       6.2  T
   9   -162.4293145 -0.110361E-06  0.119E-03    0.16       9.5  T
  10   -162.4293145  0.663358E-07  0.121E-03    0.16       9.3  T
  11   -162.4293144  0.159899E-07  0.245E-03    0.16       4.6  T
  12   -162.4293145 -0.975496E-07  0.123E-03    0.16       9.2  T
  13   -162.4293146 -0.484596E-07  0.332E-04    0.16      34.1  T
  14   -162.4293146 -0.270492E-08  0.118E-04    0.16      95.8  T
     SCC iter.                  ...        0 min,  0.202 sec
     gradient                   ...        0 min,  0.019 sec
 * total energy  :  -160.3130909 Eh     change       -0.6776128E-04 Eh
   gradient norm :     0.0016814 Eh/α   predicted    -0.5374667E-04 ( -20.68%)
   displ. norm   :     0.1552121 α      lambda       -0.4120310E-04
   maximum displ.:     0.0803926 α      in ANC's #1, #13, #4, ...

........................................................................
.............................. CYCLE   24 ..............................
........................................................................

 iter      E             dE          RMSdq      gap      omega  full diag
   1   -162.4292020 -0.162429E+03  0.336E-02    0.15       0.0  T
   2   -162.4285875  0.614504E-03  0.140E-01    0.15       1.0  T
   3   -162.4292009 -0.613484E-03  0.237E-02    0.15       1.0  T
   4   -162.4291871  0.138769E-04  0.212E-02    0.15       1.0  T
   5   -162.4291993 -0.122221E-04  0.153E-02    0.15       1.0  T
   6   -162.4292108 -0.115034E-04  0.765E-03    0.15       1.5  T
   7   -162.4292108 -0.369658E-07  0.665E-03    0.15       1.7  T
   8   -162.4292123 -0.150500E-05  0.906E-04    0.15      12.5  T
   9   -162.4292123  0.600160E-07  0.162E-03    0.15       7.0  T
  10   -162.4292123 -0.420698E-07  0.153E-03    0.15       7.4  T
  11   -162.4292124 -0.694949E-07  0.369E-04    0.15      30.7  T
  12   -162.4292124 -0.203681E-08  0.257E-04    0.15      44.1  T
     SCC iter.                  ...        0 min,  0.174 sec
     gradient                   ...        0 min,  0.019 sec
 * total energy  :  -160.3131365 Eh     change       -0.4560868E-04 Eh
   gradient norm :     0.0028619 Eh/α   predicted    -0.2082255E-04 ( -54.35%)
   displ. norm   :     0.1398012 α      lambda       -0.5551595E-04
   maximum displ.:     0.0742312 α      in ANC's #1, #13, #4, ...

........................................................................
.............................. CYCLE   25 ..............................
........................................................................

 iter      E             dE          RMSdq      gap      omega  full diag
   1   -162.4289479 -0.162429E+03  0.272E-02    0.15       0.0  T
   2   -162.4289419  0.599622E-05  0.187E-02    0.15       1.0  T
   3   -162.4284620  0.479856E-03  0.118E-01    0.15       1.0  T
   4   -162.4288945 -0.432508E-03  0.345E-02    0.15       1.0  T
   5   -162.4289395 -0.449977E-04  0.122E-02    0.15       1.0  T
   6   -162.4289420 -0.248403E-05  0.152E-02    0.15       1.0  T
   7   -162.4289484 -0.634942E-05  0.510E-03    0.15       2.2  T
   8   -162.4289492 -0.810836E-06  0.556E-04    0.15      20.4  T
   9   -162.4289492 -0.261383E-08  0.457E-04    0.15      24.8  T
     SCC iter.                  ...        0 min,  0.132 sec
     gradient                   ...        0 min,  0.021 sec
 * total energy  :  -160.3131854 Eh     change       -0.4887076E-04 Eh
   gradient norm :     0.0028601 Eh/α   predicted    -0.2830113E-04 ( -42.09%)
   displ. norm   :     0.2763446 α      lambda       -0.9934304E-04
   maximum displ.:     0.1467122 α      in ANC's #1, #13, #4, ...

........................................................................
.............................. CYCLE   26 ..............................
........................................................................

 iter      E             dE          RMSdq      gap      omega  full diag
   1   -162.4282140 -0.162428E+03  0.527E-02    0.14       0.0  T
   2   -162.4281370  0.770376E-04  0.518E-02    0.14       1.0  T
   3   -162.4267906  0.134631E-02  0.210E-01    0.14       1.0  T
   4   -162.4279167 -0.112607E-02  0.830E-02    0.14       1.0  T
   5   -162.4281957 -0.278939E-03  0.179E-02    0.14       1.0  T
   6   -162.4281936  0.206245E-05  0.279E-02    0.14       1.0  T
   7   -162.4282172 -0.235675E-04  0.511E-03    0.14       2.2  T
   8   -162.4282179 -0.766383E-06  0.150E-03    0.14       7.5  T
   9   -162.4282180 -0.478694E-07  0.835E-04    0.14      13.6  T
  10   -162.4282180 -0.160560E-07  0.555E-04    0.14      20.4  T
     SCC iter.                  ...        0 min,  0.147 sec
     gradient                   ...        0 min,  0.022 sec
 * total energy  :  -160.3132665 Eh     change       -0.8117189E-04 Eh
   gradient norm :     0.0030426 Eh/α   predicted    -0.5347128E-04 ( -34.13%)
   displ. norm   :     0.3489064 α      lambda       -0.1006975E-03
   maximum displ.:     0.1874695 α      in ANC's #1, #13, #4, ...

........................................................................
.............................. CYCLE   27 ..............................
........................................................................

 iter      E             dE          RMSdq      gap      omega  full diag
   1   -162.4271555 -0.162427E+03  0.670E-02    0.14       0.0  T
   2   -162.4264200  0.735564E-03  0.151E-01    0.14       1.0  T
   3   -162.4267599 -0.339936E-03  0.122E-01    0.14       1.0  T
   4   -162.4268421 -0.822198E-04  0.841E-02    0.15       1.0  T
   5   -162.4271484 -0.306229E-03  0.171E-02    0.14       1.0  T
   6   -162.4271527 -0.439210E-05  0.201E-02    0.14       1.0  T
   7   -162.4271653 -0.125405E-04  0.547E-03    0.14       2.1  T
   8   -162.4271662 -0.875061E-06  0.982E-04    0.14      11.5  T
   9   -162.4271662 -0.179642E-07  0.579E-04    0.14      19.5  T
     SCC iter.                  ...        0 min,  0.130 sec
     gradient                   ...        0 min,  0.019 sec
 * total energy  :  -160.3133480 Eh     change       -0.8143889E-04 Eh
   gradient norm :     0.0036092 Eh/α   predicted    -0.5648150E-04 ( -30.65%)
   displ. norm   :     0.3331214 α      lambda       -0.9317175E-04
   maximum displ.:     0.1841001 α      in ANC's #1, #4, #13, ...

........................................................................
.............................. CYCLE   28 ..............................
........................................................................

 iter      E             dE          RMSdq      gap      omega  full diag
   1   -162.4267086 -0.162427E+03  0.659E-02    0.15       0.0  T
   2   -162.4250814  0.162716E-02  0.228E-01    0.15       1.0  T
   3   -162.4265680 -0.148657E-02  0.801E-02    0.15       1.0  T
   4   -162.4266302 -0.622295E-04  0.413E-02    0.15       1.0  T
   5   -162.4267230 -0.927301E-04  0.738E-03    0.15       1.5  T
   6   -162.4267238 -0.792764E-06  0.969E-03    0.15       1.2  T
   7   -162.4267271 -0.336731E-05  0.146E-03    0.15       7.7  T
   8   -162.4267272 -0.521780E-07  0.771E-04    0.15      14.7  T
   9   -162.4267272  0.224322E-07  0.785E-04    0.15      14.4  T
     SCC iter.                  ...        0 min,  0.131 sec
     gradient                   ...        0 min,  0.019 sec
 * total energy  :  -160.3134264 Eh     change       -0.7840528E-04 Eh
   gradient norm :     0.0035330 Eh/α   predicted    -0.5175737E-04 ( -33.99%)
   displ. norm   :     0.3378639 α      lambda       -0.1075646E-03
   maximum displ.:     0.1949311 α      in ANC's #1, #4, #2, ...

........................................................................
.............................. CYCLE   29 ..............................
........................................................................

 iter      E             dE          RMSdq      gap      omega  full diag
   1   -162.4271827 -0.162427E+03  0.691E-02    0.16       0.0  T
   2   -162.4245999  0.258278E-02  0.290E-01    0.15       1.0  T
   3   -162.4270950 -0.249504E-02  0.692E-02    0.15       1.0  T
   4   -162.4271725 -0.774920E-04  0.259E-02    0.16       1.0  T
   5   -162.4271977 -0.252269E-04  0.143E-02    0.16       1.0  T
   6   -162.4272105 -0.128161E-04  0.385E-03    0.16       2.9  T
   7   -162.4272096  0.905198E-06  0.643E-03    0.16       1.8  T
   8   -162.4272110 -0.141338E-05  0.890E-04    0.16      12.7  T
   9   -162.4272110  0.719069E-09  0.880E-04    0.16      12.9  T
  10   -162.4272110 -0.147622E-07  0.684E-04    0.16      16.6  T
     SCC iter.                  ...        0 min,  0.146 sec
     gradient                   ...        0 min,  0.024 sec
 * total energy  :  -160.3135148 Eh     change       -0.8844032E-04 Eh
   gradient norm :     0.0026349 Eh/α   predicted    -0.5992224E-04 ( -32.25%)
   displ. norm   :     0.3333366 α      lambda       -0.9916264E-04
   maximum displ.:     0.2010362 α      in ANC's #1, #4, #2, ...

........................................................................
.............................. CYCLE   30 ..............................
........................................................................

 iter      E             dE          RMSdq      gap      omega  full diag
   1   -162.4277976 -0.162428E+03  0.678E-02    0.17       0.0  T
   2   -162.4252400  0.255757E-02  0.290E-01    0.16       1.0  T
   3   -162.4277102 -0.247016E-02  0.674E-02    0.16       1.0  T
   4   -162.4277649 -0.547437E-04  0.377E-02    0.17       1.0  T
   5   -162.4278067 -0.417095E-04  0.150E-02    0.16       1.0  T
   6   -162.4278206 -0.139479E-04  0.128E-02    0.16       1.0  T
   7   -162.4278229 -0.232363E-05  0.907E-03    0.16       1.2  T
   8   -162.4278258 -0.284888E-05  0.902E-04    0.16      12.6  T
   9   -162.4278258  0.222191E-07  0.879E-04    0.16      12.9  T
  10   -162.4278258 -0.360187E-07  0.634E-04    0.16      17.9  T
     SCC iter.                  ...        0 min,  0.147 sec
     gradient                   ...        0 min,  0.019 sec
 * total energy  :  -160.3135930 Eh     change       -0.7814776E-04 Eh
   gradient norm :     0.0020962 Eh/α   predicted    -0.5509133E-04 ( -29.50%)
   displ. norm   :     0.2769332 α      lambda       -0.6974022E-04
   maximum displ.:     0.1731855 α      in ANC's #1, #4, #2, ...

........................................................................
.............................. CYCLE   31 ..............................
........................................................................

 iter      E             dE          RMSdq      gap      omega  full diag
   1   -162.4282186 -0.162428E+03  0.539E-02    0.17       0.0  T
   2   -162.4268814  0.133716E-02  0.209E-01    0.17       1.0  T
   3   -162.4281197 -0.123831E-02  0.643E-02    0.17       1.0  T
   4   -162.4281955 -0.758110E-04  0.302E-02    0.17       1.0  T
   5   -162.4282170 -0.215050E-04  0.139E-02    0.17       1.0  T
   6   -162.4282305 -0.134280E-04  0.998E-03    0.17       1.1  T
   7   -162.4282322 -0.168749E-05  0.662E-03    0.17       1.7  T
   8   -162.4282337 -0.155629E-05  0.733E-04    0.17      15.5  T
   9   -162.4282337  0.186738E-07  0.653E-04    0.17      17.3  T
  10   -162.4282337 -0.320369E-07  0.387E-04    0.17      29.3  T
     SCC iter.                  ...        0 min,  0.155 sec
     gradient                   ...        0 min,  0.022 sec
 * total energy  :  -160.3136506 Eh     change       -0.5766004E-04 Eh
   gradient norm :     0.0023928 Eh/α   predicted    -0.3756371E-04 ( -34.85%)
   displ. norm   :     0.2460677 α      lambda       -0.6357281E-04
   maximum displ.:     0.1568489 α      in ANC's #1, #4, #2, ...

........................................................................
.............................. CYCLE   32 ..............................
........................................................................

 iter      E             dE          RMSdq      gap      omega  full diag
   1   -162.4286215 -0.162429E+03  0.451E-02    0.18       0.0  T
   2   -162.4279170  0.704457E-03  0.151E-01    0.18       1.0  T
   3   -162.4284942 -0.577162E-03  0.686E-02    0.18       1.0  T
   4   -162.4286105 -0.116343E-03  0.209E-02    0.18       1.0  T
   5   -162.4286147 -0.420434E-05  0.153E-02    0.18       1.0  T
   6   -162.4286292 -0.144786E-04  0.383E-03    0.18       3.0  T
   7   -162.4286295 -0.322242E-06  0.331E-03    0.18       3.4  T
   8   -162.4286299 -0.383765E-06  0.934E-04    0.18      12.1  T
   9   -162.4286299 -0.208232E-07  0.445E-04    0.18      25.5  T
     SCC iter.                  ...        0 min,  0.135 sec
     gradient                   ...        0 min,  0.021 sec
 * total energy  :  -160.3137064 Eh     change       -0.5576588E-04 Eh
   gradient norm :     0.0025669 Eh/α   predicted    -0.3371173E-04 ( -39.55%)
   displ. norm   :     0.2855791 α      lambda       -0.7727898E-04
   maximum displ.:     0.1820657 α      in ANC's #1, #4, #2, ...

........................................................................
.............................. CYCLE   33 ..............................
........................................................................

 iter      E             dE          RMSdq      gap      omega  full diag
   1   -162.4285546 -0.162429E+03  0.500E-02    0.18       0.0  T
   2   -162.4277888  0.765786E-03  0.157E-01    0.18       1.0  T
   3   -162.4283560 -0.567283E-03  0.851E-02    0.18       1.0  T
   4   -162.4285509 -0.194833E-03  0.158E-02    0.18       1.0  T
   5   -162.4285449  0.599066E-05  0.209E-02    0.18       1.0  T
   6   -162.4285612 -0.163536E-04  0.725E-03    0.18       1.6  T
   7   -162.4285638 -0.260566E-05  0.700E-04    0.18      16.2  T
   8   -162.4285638  0.945897E-07  0.174E-03    0.18       6.5  T
   9   -162.4285638 -0.839466E-07  0.827E-04    0.18      13.7  T
  10   -162.4285638  0.489661E-08  0.803E-04    0.18      14.1  T
     SCC iter.                  ...        0 min,  0.145 sec
     gradient                   ...        0 min,  0.018 sec
 * total energy  :  -160.3137748 Eh     change       -0.6838021E-04 Eh
   gradient norm :     0.0024109 Eh/α   predicted    -0.4179183E-04 ( -38.88%)
   displ. norm   :     0.3437761 α      lambda       -0.9068044E-04
   maximum displ.:     0.2199695 α      in ANC's #1, #4, #2, ...

........................................................................
.............................. CYCLE   34 ..............................
........................................................................

 iter      E             dE          RMSdq      gap      omega  full diag
   1   -162.4283270 -0.162428E+03  0.580E-02    0.18       0.0  T
   2   -162.4273372  0.989787E-03  0.178E-01    0.18       1.0  T
   3   -162.4280423 -0.705038E-03  0.102E-01    0.18       1.0  T
   4   -162.4283265 -0.284179E-03  0.146E-02    0.18       1.0  T
   5   -162.4283126  0.138992E-04  0.265E-02    0.18       1.0  T
   6   -162.4283331 -0.205208E-04  0.115E-02    0.18       1.0  T
   7   -162.4283385 -0.544087E-05  0.286E-03    0.18       4.0  T
   8   -162.4283386 -0.123070E-06  0.177E-03    0.18       6.4  T
   9   -162.4283387 -0.423695E-07  0.145E-03    0.18       7.8  T
  10   -162.4283387 -0.579090E-07  0.400E-04    0.18      28.3  T
  11   -162.4283387 -0.351130E-08  0.341E-04    0.18      33.2  T
     SCC iter.                  ...        0 min,  0.165 sec
     gradient                   ...        0 min,  0.019 sec
 * total energy  :  -160.3138532 Eh     change       -0.7844145E-04 Eh
   gradient norm :     0.0022906 Eh/α   predicted    -0.5069983E-04 ( -35.37%)
   displ. norm   :     0.3810539 α      lambda       -0.8981004E-04
   maximum displ.:     0.2454420 α      in ANC's #1, #4, #2, ...

........................................................................
.............................. CYCLE   35 ..............................
........................................................................

 iter      E             dE          RMSdq      gap      omega  full diag
   1   -162.4279715 -0.162428E+03  0.626E-02    0.18       0.0  T
   2   -162.4266667  0.130477E-02  0.205E-01    0.18       1.0  T
   3   -162.4277139 -0.104718E-02  0.995E-02    0.18       1.0  T
   4   -162.4279776 -0.263637E-03  0.123E-02    0.18       1.0  T
   5   -162.4279623  0.152771E-04  0.261E-02    0.18       1.0  T
   6   -162.4279839 -0.216614E-04  0.725E-03    0.18       1.6  T
   7   -162.4279858 -0.180942E-05  0.242E-03    0.18       4.7  T
   8   -162.4279859 -0.112903E-06  0.141E-03    0.18       8.0  T
   9   -162.4279859  0.132195E-07  0.159E-03    0.18       7.1  T
  10   -162.4279859 -0.777708E-07  0.299E-04    0.18      37.8  T
  11   -162.4279859  0.498346E-08  0.417E-04    0.18      27.1  T
     SCC iter.                  ...        0 min,  0.164 sec
     gradient                   ...        0 min,  0.021 sec
 * total energy  :  -160.3139297 Eh     change       -0.7644068E-04 Eh
   gradient norm :     0.0024577 Eh/α   predicted    -0.5142620E-04 ( -32.72%)
   displ. norm   :     0.3879782 α      lambda       -0.8174954E-04
   maximum displ.:     0.2524327 α      in ANC's #1, #4, #2, ...

........................................................................
.............................. CYCLE   36 ..............................
........................................................................

 iter      E             dE          RMSdq      gap      omega  full diag
   1   -162.4278081 -0.162428E+03  0.626E-02    0.18       0.0  T
   2   -162.4262541  0.155393E-02  0.224E-01    0.18       1.0  T
   3   -162.4276573 -0.140320E-02  0.805E-02    0.18       1.0  T
   4   -162.4278151 -0.157773E-03  0.125E-02    0.18       1.0  T
   5   -162.4278151 -0.441113E-08  0.159E-02    0.18       1.0  T
   6   -162.4278240 -0.885956E-05  0.354E-03    0.18       3.2  T
   7   -162.4278243 -0.358100E-06  0.190E-03    0.18       5.9  T
   8   -162.4278244 -0.115276E-06  0.992E-04    0.18      11.4  T
   9   -162.4278244  0.471692E-07  0.155E-03    0.18       7.3  T
  10   -162.4278245 -0.815402E-07  0.363E-04    0.18      31.2  T
     SCC iter.                  ...        0 min,  0.161 sec
     gradient                   ...        0 min,  0.023 sec
 * total energy  :  -160.3139990 Eh     change       -0.6932509E-04 Eh
   gradient norm :     0.0025617 Eh/α   predicted    -0.4702840E-04 ( -32.16%)
   displ. norm   :     0.3856417 α      lambda       -0.7512235E-04
   maximum displ.:     0.2544346 α      in ANC's #1, #4, #2, ...

........................................................................
.............................. CYCLE   37 ..............................
........................................................................

 iter      E             dE          RMSdq      gap      omega  full diag
   1   -162.4278307 -0.162428E+03  0.613E-02    0.18       0.0  T
   2   -162.4263435  0.148725E-02  0.221E-01    0.18       1.0  T
   3   -162.4277628 -0.141932E-02  0.607E-02    0.18       1.0  T
   4   -162.4278312 -0.684283E-04  0.177E-02    0.18       1.0  T
   5   -162.4278431 -0.118823E-04  0.735E-03    0.18       1.5  T
   6   -162.4278453 -0.218690E-05  0.540E-03    0.18       2.1  T
   7   -162.4278464 -0.115743E-05  0.274E-03    0.18       4.1  T
   8   -162.4278466 -0.170446E-06  0.157E-03    0.18       7.2  T
   9   -162.4278467 -0.873987E-07  0.535E-04    0.18      21.1  T
  10   -162.4278467 -0.314625E-08  0.336E-04    0.18      33.7  T
     SCC iter.                  ...        0 min,  0.151 sec
     gradient                   ...        0 min,  0.019 sec
 * total energy  :  -160.3140621 Eh     change       -0.6313377E-04 Eh
   gradient norm :     0.0023580 Eh/α   predicted    -0.4314808E-04 ( -31.66%)
   displ. norm   :     0.3577203 α      lambda       -0.6513876E-04
   maximum displ.:     0.2412660 α      in ANC's #1, #4, #2, ...

........................................................................
.............................. CYCLE   38 ..............................
........................................................................

 iter      E             dE          RMSdq      gap      omega  full diag
   1   -162.4281648 -0.162428E+03  0.563E-02    0.18       0.0  T
   2   -162.4272482  0.916566E-03  0.176E-01    0.18       1.0  T
   3   -162.4281330 -0.884709E-03  0.465E-02    0.18       1.0  T
   4   -162.4281557 -0.227352E-04  0.220E-02    0.19       1.0  T
   5   -162.4281627 -0.700033E-05  0.157E-02    0.18       1.0  T
   6   -162.4281692 -0.655193E-05  0.129E-02    0.18       1.0  T
   7   -162.4281743 -0.509868E-05  0.701E-03    0.18       1.6  T
   8   -162.4281759 -0.157139E-05  0.951E-04    0.18      11.9  T
   9   -162.4281759  0.322564E-07  0.162E-03    0.18       7.0  T
  10   -162.4281759 -0.538469E-07  0.794E-04    0.18      14.3  T
  11   -162.4281759 -0.166016E-07  0.297E-04    0.18      38.2  T
     SCC iter.                  ...        0 min,  0.160 sec
     gradient                   ...        0 min,  0.019 sec
 * total energy  :  -160.3141160 Eh     change       -0.5382866E-04 Eh
   gradient norm :     0.0018838 Eh/α   predicted    -0.3673861E-04 ( -31.75%)
   displ. norm   :     0.4595088 α      lambda       -0.4980271E-04
   maximum displ.:     0.3186519 α      in ANC's #1, #4, #2, ...

........................................................................
.............................. CYCLE   39 ..............................
........................................................................

 iter      E             dE          RMSdq      gap      omega  full diag
   1   -162.4284599 -0.162428E+03  0.731E-02    0.19       0.0  T
   2   -162.4278357  0.624226E-03  0.150E-01    0.19       1.0  T
   3   -162.4282378 -0.402098E-03  0.921E-02    0.19       1.0  T
   4   -162.4284417 -0.203881E-03  0.307E-02    0.19       1.0  T
   5   -162.4284275  0.141780E-04  0.339E-02    0.19       1.0  T
   6   -162.4284488 -0.213221E-04  0.249E-02    0.19       1.0  T
   7   -162.4284660 -0.171855E-04  0.125E-02    0.19       1.0  T
   8   -162.4284710 -0.498661E-05  0.105E-03    0.19      10.8  T
   9   -162.4284710  0.350365E-07  0.177E-03    0.19       6.4  T
  10   -162.4284710 -0.704864E-07  0.637E-04    0.19      17.8  T
  11   -162.4284710 -0.636072E-08  0.414E-04    0.19      27.3  T
     SCC iter.                  ...        0 min,  0.162 sec
     gradient                   ...        0 min,  0.021 sec
 * total energy  :  -160.3141698 Eh     change       -0.5387400E-04 Eh
   gradient norm :     0.0016537 Eh/α   predicted    -0.2724352E-04 ( -49.43%)
   displ. norm   :     0.2246216 α      lambda       -0.2083964E-04
   maximum displ.:     0.1648459 α      in ANC's #1, #4, #2, ...

........................................................................
.............................. CYCLE   40 ..............................
........................................................................

 iter      E             dE          RMSdq      gap      omega  full diag
   1   -162.4292687 -0.162429E+03  0.370E-02    0.19       0.0  T
   2   -162.4292638  0.496938E-05  0.240E-02    0.19       1.0  T
   3   -162.4286830  0.580706E-03  0.138E-01    0.19       1.0  T
   4   -162.4292232 -0.540108E-03  0.377E-02    0.19       1.0  T
   5   -162.4292658 -0.426912E-04  0.891E-03    0.19       1.3  T
   6   -162.4292671 -0.122542E-05  0.943E-03    0.19       1.2  T
   7   -162.4292685 -0.142992E-05  0.672E-03    0.19       1.7  T
   8   -162.4292699 -0.140624E-05  0.413E-04    0.19      27.4  T
   9   -162.4292699  0.198820E-07  0.962E-04    0.19      11.8  T
  10   -162.4292699 -0.209056E-07  0.416E-04    0.19      27.2  T
     SCC iter.                  ...        0 min,  0.145 sec
     gradient                   ...        0 min,  0.020 sec
 * total energy  :  -160.3141956 Eh     change       -0.2573243E-04 Eh
   gradient norm :     0.0013797 Eh/α   predicted    -0.1065809E-04 ( -58.58%)
   displ. norm   :     0.1759483 α      lambda       -0.1979947E-04
   maximum displ.:     0.1306824 α      in ANC's #1, #4, #2, ...

........................................................................
.............................. CYCLE   41 ..............................
........................................................................

 iter      E             dE          RMSdq      gap      omega  full diag
   1   -162.4290154 -0.162429E+03  0.319E-02    0.19       0.0  T
   2   -162.4289357  0.797566E-04  0.538E-02    0.19       1.0  T
   3   -162.4287099  0.225802E-03  0.999E-02    0.19       1.0  T
   4   -162.4289548 -0.244911E-03  0.414E-02    0.19       1.0  T
   5   -162.4290017 -0.469257E-04  0.194E-02    0.19       1.0  T
   6   -162.4290164 -0.146475E-04  0.438E-03    0.19       2.6  T
   7   -162.4290163  0.346858E-07  0.447E-03    0.19       2.5  T
   8   -162.4290169 -0.600347E-06  0.377E-04    0.19      30.0  T
   9   -162.4290169  0.149612E-07  0.782E-04    0.19      14.5  T
     SCC iter.                  ...        0 min,  0.132 sec
     gradient                   ...        0 min,  0.018 sec
 * total energy  :  -160.3142195 Eh     change       -0.2390891E-04 Eh
   gradient norm :     0.0013935 Eh/α   predicted    -0.1003756E-04 ( -58.02%)
   displ. norm   :     0.1719302 α      lambda       -0.2315174E-04
   maximum displ.:     0.1307401 α      in ANC's #1, #4, #13, ...

........................................................................
.............................. CYCLE   42 ..............................
........................................................................

 iter      E             dE          RMSdq      gap      omega  full diag
   1   -162.4302848 -0.162430E+03  0.310E-02    0.19       0.0  T
   2   -162.4301475  0.137321E-03  0.691E-02    0.19       1.0  T
   3   -162.4301168  0.306866E-04  0.744E-02    0.19       1.0  T
   4   -162.4302138 -0.970089E-04  0.423E-02    0.19       1.0  T
   5   -162.4302669 -0.530761E-04  0.238E-02    0.19       1.0  T
   6   -162.4302868 -0.199653E-04  0.236E-03    0.19       4.8  T
   7   -162.4302869 -0.753631E-07  0.174E-03    0.19       6.5  T
   8   -162.4302870 -0.866529E-07  0.452E-04    0.19      25.0  T
   9   -162.4302869  0.646286E-07  0.141E-03    0.19       8.0  T
  10   -162.4302870 -0.425077E-07  0.885E-04    0.19      12.8  T
     SCC iter.                  ...        0 min,  0.149 sec
     gradient                   ...        0 min,  0.018 sec
 * total energy  :  -160.3142455 Eh     change       -0.2602322E-04 Eh
   gradient norm :     0.0014892 Eh/α   predicted    -0.1173002E-04 ( -54.92%)
   displ. norm   :     0.1914444 α      lambda       -0.2109706E-04
   maximum displ.:     0.1434075 α      in ANC's #1, #4, #13, ...
 * RMSD in coord.:     0.6282559 α      energy gain  -0.1376359E-02 Eh

generating ANC from exact Hessian ...
Using Lindh-Hessian (1995)
 Shifting diagonal of input Hessian by    9.9042603849973567E-003
 Lowest  eigenvalues of input Hessian
    0.000000    0.000000    0.000000    0.000000    0.000000    0.000000
    0.010000    0.010182    0.010381    0.010390    0.010422    0.010515
    0.010636    0.010669    0.011174    0.011409    0.011483    0.011556
 Highest eigenvalues
    2.056568    2.059412    2.081422    2.086021    2.090742    2.100019


........................................................................
.............................. CYCLE   43 ..............................
........................................................................

 iter      E             dE          RMSdq      gap      omega  full diag
   1   -162.4294812 -0.162429E+03  0.330E-02    0.18       0.0  T
   2   -162.4294624  0.187365E-04  0.295E-02    0.18       1.0  T
   3   -162.4288822  0.580203E-03  0.137E-01    0.18       1.0  T
   4   -162.4294395 -0.557226E-03  0.257E-02    0.18       1.0  T
   5   -162.4294785 -0.390230E-04  0.896E-03    0.18       1.3  T
   6   -162.4294817 -0.318753E-05  0.386E-03    0.18       2.9  T
   7   -162.4294822 -0.525915E-06  0.963E-04    0.18      11.8  T
   8   -162.4294822 -0.239385E-07  0.418E-04    0.18      27.1  T
     SCC iter.                  ...        0 min,  0.119 sec
     gradient                   ...        0 min,  0.019 sec
 * total energy  :  -160.3142731 Eh     change       -0.2763565E-04 Eh
   gradient norm :     0.0016126 Eh/α   predicted     0.0000000E+00 (-100.00%)
   displ. norm   :     0.0348680 α      lambda       -0.9549760E-05
   maximum displ.:     0.0224622 α      in ANC's #1, #5, #2, ...

........................................................................
.............................. CYCLE   44 ..............................
........................................................................

 iter      E             dE          RMSdq      gap      omega  full diag
   1   -162.4293608 -0.162429E+03  0.136E-02    0.18       0.0  T
   2   -162.4291426  0.218246E-03  0.835E-02    0.19       1.0  T
   3   -162.4293331 -0.190513E-03  0.312E-02    0.18       1.0  T
   4   -162.4293625 -0.294289E-04  0.361E-03    0.18       3.1  T
   5   -162.4293619  0.610035E-06  0.502E-03    0.18       2.3  T
   6   -162.4293624 -0.527416E-06  0.448E-03    0.18       2.5  T
   7   -162.4293628 -0.374319E-06  0.267E-03    0.18       4.2  T
   8   -162.4293631 -0.233412E-06  0.210E-04    0.18      53.8  T
   9   -162.4293631  0.560036E-08  0.472E-04    0.18      24.0  T
     SCC iter.                  ...        0 min,  0.130 sec
     gradient                   ...        0 min,  0.024 sec
 * total energy  :  -160.3142860 Eh     change       -0.1286684E-04 Eh
   gradient norm :     0.0008187 Eh/α   predicted    -0.5153324E-05 ( -59.95%)
   displ. norm   :     0.1072202 α      lambda       -0.2171603E-04
   maximum displ.:     0.0663727 α      in ANC's #1, #5, #2, ...

........................................................................
.............................. CYCLE   45 ..............................
........................................................................

 iter      E             dE          RMSdq      gap      omega  full diag
   1   -162.4289877 -0.162429E+03  0.356E-02    0.19       0.0  T
   2   -162.4275240  0.146370E-02  0.218E-01    0.19       1.0  T
   3   -162.4288362 -0.131220E-02  0.734E-02    0.19       1.0  T
   4   -162.4289942 -0.157985E-03  0.137E-02    0.19       1.0  T
   5   -162.4289966 -0.243061E-05  0.101E-02    0.19       1.1  T
   6   -162.4290017 -0.515038E-05  0.299E-03    0.19       3.8  T
   7   -162.4290016  0.153137E-06  0.476E-03    0.19       2.4  T
   8   -162.4290021 -0.482963E-06  0.216E-03    0.19       5.2  T
   9   -162.4290022 -0.132459E-06  0.977E-04    0.19      11.6  T
  10   -162.4290022  0.959724E-08  0.999E-04    0.19      11.3  T
     SCC iter.                  ...        0 min,  0.145 sec
     gradient                   ...        0 min,  0.018 sec
 * total energy  :  -160.3143087 Eh     change       -0.2266382E-04 Eh
   gradient norm :     0.0011546 Eh/α   predicted    -0.1091410E-04 ( -51.84%)
   displ. norm   :     0.1050091 α      lambda       -0.1274577E-04
   maximum displ.:     0.0668875 α      in ANC's #1, #5, #2, ...

........................................................................
.............................. CYCLE   46 ..............................
........................................................................

 iter      E             dE          RMSdq      gap      omega  full diag
   1   -162.4288720 -0.162429E+03  0.257E-02    0.19       0.0  T
   2   -162.4283929  0.479057E-03  0.125E-01    0.19       1.0  T
   3   -162.4287848 -0.391870E-03  0.545E-02    0.19       1.0  T
   4   -162.4288622 -0.774034E-04  0.198E-02    0.19       1.0  T
   5   -162.4288720 -0.979371E-05  0.105E-02    0.19       1.1  T
   6   -162.4288765 -0.455189E-05  0.350E-03    0.19       3.2  T
   7   -162.4288771 -0.583742E-06  0.129E-03    0.19       8.8  T
   8   -162.4288771  0.374182E-07  0.150E-03    0.19       7.5  T
   9   -162.4288771 -0.693499E-07  0.562E-04    0.19      20.1  T
  10   -162.4288771  0.117292E-07  0.698E-04    0.19      16.2  T
     SCC iter.                  ...        0 min,  0.145 sec
     gradient                   ...        0 min,  0.022 sec
 * total energy  :  -160.3143242 Eh     change       -0.1555333E-04 Eh
   gradient norm :     0.0015796 Eh/α   predicted    -0.6404825E-05 ( -58.82%)
   displ. norm   :     0.1401601 α      lambda       -0.1653589E-04
   maximum displ.:     0.0869893 α      in ANC's #1, #5, #2, ...

........................................................................
.............................. CYCLE   47 ..............................
........................................................................

 iter      E             dE          RMSdq      gap      omega  full diag
   1   -162.4289006 -0.162429E+03  0.262E-02    0.19       0.0  T
   2   -162.4287935  0.107089E-03  0.603E-02    0.19       1.0  T
   3   -162.4287624  0.311129E-04  0.673E-02    0.19       1.0  T
   4   -162.4288815 -0.119064E-03  0.230E-02    0.19       1.0  T
   5   -162.4288945 -0.130464E-04  0.136E-02    0.19       1.0  T
   6   -162.4289021 -0.754421E-05  0.266E-03    0.19       4.3  T
   7   -162.4289024 -0.328610E-06  0.506E-04    0.19      22.4  T
   8   -162.4289024  0.323304E-07  0.104E-03    0.19      10.9  T
   9   -162.4289024 -0.325049E-07  0.435E-04    0.19      26.0  T
     SCC iter.                  ...        0 min,  0.133 sec
     gradient                   ...        0 min,  0.020 sec
 * total energy  :  -160.3143466 Eh     change       -0.2239145E-04 Eh
   gradient norm :     0.0015502 Eh/α   predicted    -0.8340807E-05 ( -62.75%)
   displ. norm   :     0.2641692 α      lambda       -0.3238435E-04
   maximum displ.:     0.1593135 α      in ANC's #1, #5, #2, ...

........................................................................
.............................. CYCLE   48 ..............................
........................................................................

 iter      E             dE          RMSdq      gap      omega  full diag
   1   -162.4288776 -0.162429E+03  0.451E-02    0.19       0.0  T
   2   -162.4288712  0.641260E-05  0.291E-02    0.19       1.0  T
   3   -162.4281692  0.702041E-03  0.148E-01    0.19       1.0  T
   4   -162.4287731 -0.603949E-03  0.538E-02    0.19       1.0  T
   5   -162.4288598 -0.867028E-04  0.215E-02    0.19       1.0  T
   6   -162.4288790 -0.192145E-04  0.282E-03    0.19       4.0  T
   7   -162.4288793 -0.291362E-06  0.105E-03    0.19      10.8  T
   8   -162.4288793 -0.163474E-07  0.646E-04    0.19      17.5  T
   9   -162.4288793 -0.288662E-08  0.610E-04    0.19      18.6  T
     SCC iter.                  ...        0 min,  0.132 sec
     gradient                   ...        0 min,  0.021 sec
 * total energy  :  -160.3143900 Eh     change       -0.4341075E-04 Eh
   gradient norm :     0.0013064 Eh/α   predicted    -0.1670283E-04 ( -61.52%)
   displ. norm   :     0.4730467 α      lambda       -0.5464015E-04
   maximum displ.:     0.2815849 α      in ANC's #1, #5, #2, ...

........................................................................
.............................. CYCLE   49 ..............................
........................................................................

 iter      E             dE          RMSdq      gap      omega  full diag
   1   -162.4281490 -0.162428E+03  0.794E-02    0.19       0.0  T
   2   -162.4281257  0.233367E-04  0.529E-02    0.19       1.0  T
   3   -162.4234631  0.466264E-02  0.388E-01    0.19       1.0  T
   4   -162.4280427 -0.457962E-02  0.422E-02    0.19       1.0  T
   5   -162.4281089 -0.662702E-04  0.337E-02    0.19       1.0  T
   6   -162.4281526 -0.436372E-04  0.265E-03    0.19       4.3  T
   7   -162.4281526  0.112585E-07  0.359E-03    0.19       3.2  T
   8   -162.4281528 -0.253375E-06  0.119E-03    0.19       9.6  T
   9   -162.4281527  0.119151E-06  0.299E-03    0.19       3.8  T
  10   -162.4281529 -0.152948E-06  0.191E-03    0.19       5.9  T
  11   -162.4281530 -0.978387E-07  0.758E-04    0.19      14.9  T
  12   -162.4281529  0.113696E-07  0.927E-04    0.19      12.2  T
     SCC iter.                  ...        0 min,  0.174 sec
     gradient                   ...        0 min,  0.019 sec
 * total energy  :  -160.3144593 Eh     change       -0.6933089E-04 Eh
   gradient norm :     0.0021874 Eh/α   predicted    -0.3003738E-04 ( -56.68%)
   displ. norm   :     0.3849019 α      lambda       -0.6354406E-04
   maximum displ.:     0.2296033 α      in ANC's #1, #5, #11, ...

........................................................................
.............................. CYCLE   50 ..............................
........................................................................

 iter      E             dE          RMSdq      gap      omega  full diag
   1   -162.4277524 -0.162428E+03  0.640E-02    0.19       0.0  T
   2   -162.4277142  0.381764E-04  0.508E-02    0.19       1.0  T
   3   -162.4247000  0.301425E-02  0.314E-01    0.19       1.0  T
   4   -162.4276900 -0.299002E-02  0.311E-02    0.19       1.0  T
   5   -162.4277447 -0.546625E-04  0.149E-02    0.19       1.0  T
   6   -162.4277543 -0.960489E-05  0.215E-03    0.19       5.3  T
   7   -162.4277545 -0.207766E-06  0.116E-03    0.19       9.8  T
   8   -162.4277545 -0.153406E-08  0.799E-04    0.19      14.2  T
   9   -162.4277545 -0.182343E-07  0.868E-04    0.19      13.0  T
     SCC iter.                  ...        0 min,  0.133 sec
     gradient                   ...        0 min,  0.018 sec
 * total energy  :  -160.3145149 Eh     change       -0.5558240E-04 Eh
   gradient norm :     0.0030941 Eh/α   predicted    -0.3648717E-04 ( -34.35%)
   displ. norm   :     0.4627716 α      lambda       -0.8640901E-04
   maximum displ.:     0.2787749 α      in ANC's #1, #5, #11, ...

........................................................................
.............................. CYCLE   51 ..............................
........................................................................

 iter      E             dE          RMSdq      gap      omega  full diag
   1   -162.4274733 -0.162427E+03  0.769E-02    0.19       0.0  T
   2   -162.4274234  0.499597E-04  0.598E-02    0.19       1.0  T
   3   -162.4229407  0.448271E-02  0.383E-01    0.19       1.0  T
   4   -162.4274071 -0.446648E-02  0.267E-02    0.19       1.0  T
   5   -162.4274727 -0.655798E-04  0.596E-03    0.19       1.9  T
   6   -162.4274751 -0.232463E-05  0.456E-03    0.19       2.5  T
   7   -162.4274759 -0.804198E-06  0.124E-03    0.19       9.1  T
   8   -162.4274759 -0.284669E-07  0.823E-04    0.19      13.8  T
   9   -162.4274758  0.381145E-07  0.103E-03    0.19      11.0  T
  10   -162.4274759 -0.595878E-07  0.693E-04    0.19      16.3  T
     SCC iter.                  ...        0 min,  0.144 sec
     gradient                   ...        0 min,  0.018 sec
 * total energy  :  -160.3145889 Eh     change       -0.7398934E-04 Eh
   gradient norm :     0.0039664 Eh/α   predicted    -0.5245783E-04 ( -29.10%)
   displ. norm   :     0.4841078 α      lambda       -0.1164575E-03
   maximum displ.:     0.2986406 α      in ANC's #1, #5, #11, ...

........................................................................
.............................. CYCLE   52 ..............................
........................................................................

 iter      E             dE          RMSdq      gap      omega  full diag
   1   -162.4280669 -0.162428E+03  0.816E-02    0.18       0.0  T
   2   -162.4279608  0.106075E-03  0.748E-02    0.18       1.0  T
   3   -162.4242408  0.372000E-02  0.353E-01    0.18       1.0  T
   4   -162.4279944 -0.375360E-02  0.358E-02    0.18       1.0  T
   5   -162.4280414 -0.469802E-04  0.261E-02    0.18       1.0  T
   6   -162.4280658 -0.244019E-04  0.109E-02    0.18       1.0  T
   7   -162.4280698 -0.396659E-05  0.384E-03    0.18       3.0  T
   8   -162.4280702 -0.370637E-06  0.135E-03    0.18       8.4  T
   9   -162.4280700  0.151671E-06  0.262E-03    0.18       4.3  T
  10   -162.4280702 -0.152513E-06  0.133E-03    0.18       8.5  T
  11   -162.4280702 -0.570101E-07  0.448E-04    0.18      25.3  T
  12   -162.4280702 -0.426186E-08  0.345E-04    0.18      32.8  T
     SCC iter.                  ...        0 min,  0.145 sec
     gradient                   ...        0 min,  0.018 sec
 * total energy  :  -160.3146879 Eh     change       -0.9902889E-04 Eh
   gradient norm :     0.0041073 Eh/α   predicted    -0.7187722E-04 ( -27.42%)
   displ. norm   :     0.5004482 α      lambda       -0.1498062E-03
   maximum displ.:     0.3174441 α      in ANC's #1, #5, #11, ...

........................................................................
.............................. CYCLE   53 ..............................
........................................................................

 iter      E             dE          RMSdq      gap      omega  full diag
   1   -162.4294102 -0.162429E+03  0.875E-02    0.18       0.0  T
   2   -162.4293693  0.409468E-04  0.620E-02    0.18       1.0  T
   3   -162.4242396  0.512972E-02  0.410E-01    0.18       1.0  T
   4   -162.4292803 -0.504072E-02  0.580E-02    0.18       1.0  T
   5   -162.4293366 -0.562982E-04  0.309E-02    0.18       1.0  T
   6   -162.4294108 -0.742157E-04  0.867E-03    0.18       1.3  T
   7   -162.4294138 -0.299167E-05  0.497E-03    0.18       2.3  T
   8   -162.4294142 -0.445524E-06  0.281E-03    0.18       4.0  T
   9   -162.4294142  0.188882E-07  0.307E-03    0.18       3.7  T
  10   -162.4294142 -0.169069E-07  0.296E-03    0.18       3.8  T
  11   -162.4294145 -0.262166E-06  0.555E-04    0.18      20.4  T
  12   -162.4294145 -0.527913E-08  0.451E-04    0.18      25.1  T
     SCC iter.                  ...        0 min,  0.147 sec
     gradient                   ...        0 min,  0.018 sec
 * total energy  :  -160.3148111 Eh     change       -0.1231622E-03 Eh
   gradient norm :     0.0033242 Eh/α   predicted    -0.9366276E-04 ( -23.95%)
   displ. norm   :     0.6197509 α      lambda       -0.1510078E-03
   maximum displ.:     0.3924516 α      in ANC's #1, #5, #11, ...

........................................................................
.............................. CYCLE   54 ..............................
........................................................................

 iter      E             dE          RMSdq      gap      omega  full diag
   1   -162.4271686 -0.162427E+03  0.108E-01    0.17       0.0  T
   2   -162.4270201  0.148504E-03  0.925E-02    0.17       1.0  T
   3   -162.4211087  0.591144E-02  0.428E-01    0.17       1.0  T
   4   -162.4270758 -0.596708E-02  0.351E-02    0.17       1.0  T
   5   -162.4270762 -0.406417E-06  0.467E-02    0.17       1.0  T
   6   -162.4271518 -0.755923E-04  0.240E-02    0.17       1.0  T
   7   -162.4271753 -0.235082E-04  0.144E-03    0.17       7.9  T
   8   -162.4271750  0.333346E-06  0.345E-03    0.17       3.3  T
   9   -162.4271752 -0.278117E-06  0.207E-03    0.17       5.5  T
  10   -162.4271753 -0.210767E-07  0.181E-03    0.17       6.3  T
  11   -162.4271753 -0.523030E-07  0.123E-03    0.17       9.2  T
  12   -162.4271753 -0.285891E-07  0.620E-04    0.17      18.3  T
  13   -162.4271753 -0.874670E-08  0.234E-04    0.17      48.3  T
     SCC iter.                  ...        0 min,  0.170 sec
     gradient                   ...        0 min,  0.019 sec
 * total energy  :  -160.3149296 Eh     change       -0.1184859E-03 Eh
   gradient norm :     0.0040651 Eh/α   predicted    -0.1045077E-03 ( -11.80%)
   displ. norm   :     0.4560984 α      lambda       -0.2232176E-03
   maximum displ.:     0.2962096 α      in ANC's #1, #9, #10, ...

........................................................................
.............................. CYCLE   55 ..............................
........................................................................

 iter      E             dE          RMSdq      gap      omega  full diag
   1   -162.4318859 -0.162432E+03  0.968E-02    0.16       0.0  T
   2   -162.4311305  0.755399E-03  0.166E-01    0.16       1.0  T
   3   -162.4304369  0.693599E-03  0.219E-01    0.16       1.0  T
   4   -162.4318113 -0.137440E-02  0.415E-02    0.16       1.0  T
   5   -162.4317844  0.269070E-04  0.524E-02    0.16       1.0  T
   6   -162.4318830 -0.986521E-04  0.240E-02    0.16       1.0  T
   7   -162.4319065 -0.234773E-04  0.328E-03    0.16       3.5  T
   8   -162.4319065  0.245635E-07  0.284E-03    0.16       4.0  T
   9   -162.4319064  0.625075E-07  0.264E-03    0.16       4.3  T
  10   -162.4319068 -0.387784E-06  0.201E-03    0.16       5.6  T
  11   -162.4319070 -0.150478E-06  0.101E-03    0.16      11.3  T
  12   -162.4319070 -0.323170E-07  0.360E-04    0.16      31.5  T
  13   -162.4319070  0.110703E-07  0.698E-04    0.16      16.2  T
     SCC iter.                  ...        0 min,  0.189 sec
     gradient                   ...        0 min,  0.022 sec
 * total energy  :  -160.3150256 Eh     change       -0.9595727E-04 Eh
   gradient norm :     0.0038657 Eh/α   predicted    -0.1348266E-03 (  40.51%)
   displ. norm   :     0.5645664 α      lambda       -0.1544618E-03
   maximum displ.:     0.3598846 α      in ANC's #1, #5, #9, ...

........................................................................
.............................. CYCLE   56 ..............................
........................................................................

 iter      E             dE          RMSdq      gap      omega  full diag
   1   -162.4258939 -0.162426E+03  0.101E-01    0.16       0.0  T
   2   -162.4251078  0.786110E-03  0.169E-01    0.16       1.0  T
   3   -162.4241927  0.915120E-03  0.238E-01    0.16       1.0  T
   4   -162.4256256 -0.143296E-02  0.600E-02    0.16       1.0  T
   5   -162.4258989 -0.273271E-03  0.127E-02    0.16       1.0  T
   6   -162.4258964  0.248186E-05  0.205E-02    0.16       1.0  T
   7   -162.4259073 -0.108946E-04  0.879E-03    0.16       1.3  T
   8   -162.4259096 -0.231153E-05  0.294E-03    0.16       3.9  T
   9   -162.4259079  0.174838E-05  0.755E-03    0.16       1.5  T
  10   -162.4259100 -0.209739E-05  0.233E-03    0.16       4.9  T
  11   -162.4259100 -0.893910E-07  0.169E-03    0.16       6.7  T
  12   -162.4259101 -0.884027E-07  0.308E-04    0.16      36.7  T
  13   -162.4259101 -0.279996E-08  0.232E-04    0.16      48.7  T
     SCC iter.                  ...        0 min,  0.183 sec
     gradient                   ...        0 min,  0.021 sec
 * total energy  :  -160.3151016 Eh     change       -0.7606083E-04 Eh
   gradient norm :     0.0048960 Eh/α   predicted    -0.1018533E-03 (  33.91%)
   displ. norm   :     0.0534235 α      lambda       -0.6535235E-04
   maximum displ.:     0.0224122 α      in ANC's #13, #18, #49, ...

........................................................................
.............................. CYCLE   57 ..............................
........................................................................

 iter      E             dE          RMSdq      gap      omega  full diag
   1   -162.4273004 -0.162427E+03  0.170E-02    0.16       0.0  T
   2   -162.4271561  0.144232E-03  0.691E-02    0.16       1.0  T
   3   -162.4272775 -0.121397E-03  0.285E-02    0.16       1.0  T
   4   -162.4272973 -0.197898E-04  0.105E-02    0.16       1.1  T
   5   -162.4272989 -0.157102E-05  0.800E-03    0.16       1.4  T
   6   -162.4273016 -0.272173E-05  0.421E-03    0.16       2.7  T
   7   -162.4273021 -0.500655E-06  0.269E-03    0.16       4.2  T
   8   -162.4273024 -0.252798E-06  0.686E-04    0.16      16.5  T
   9   -162.4273024  0.104905E-07  0.584E-04    0.16      19.4  T
     SCC iter.                  ...        0 min,  0.134 sec
     gradient                   ...        0 min,  0.018 sec
 * total energy  :  -160.3151570 Eh     change       -0.5535741E-04 Eh
   gradient norm :     0.0032572 Eh/α   predicted    -0.3277078E-04 ( -40.80%)
   displ. norm   :     0.3429601 α      lambda       -0.1829671E-03
   maximum displ.:     0.2099020 α      in ANC's #1, #9, #10, ...

........................................................................
.............................. CYCLE   58 ..............................
........................................................................

 iter      E             dE          RMSdq      gap      omega  full diag
   1   -162.4292485 -0.162429E+03  0.791E-02    0.16       0.0  T
   2   -162.4268518  0.239670E-02  0.285E-01    0.16       1.0  T
   3   -162.4287491 -0.189727E-02  0.133E-01    0.16       1.0  T
   4   -162.4290543 -0.305219E-03  0.679E-02    0.16       1.0  T
   5   -162.4292137 -0.159440E-03  0.381E-02    0.16       1.0  T
   6   -162.4292640 -0.502617E-04  0.197E-02    0.16       1.0  T
   7   -162.4292747 -0.107487E-04  0.967E-03    0.16       1.2  T
   8   -162.4292780 -0.329363E-05  0.211E-03    0.16       5.4  T
   9   -162.4292781 -0.852184E-07  0.113E-03    0.16      10.0  T
  10   -162.4292781 -0.209438E-07  0.920E-04    0.16      12.3  T
  11   -162.4292782 -0.583472E-07  0.438E-04    0.16      25.9  T
     SCC iter.                  ...        0 min,  0.165 sec
     gradient                   ...        0 min,  0.019 sec
 * total energy  :  -160.3152760 Eh     change       -0.1189855E-03 Eh
   gradient norm :     0.0023468 Eh/α   predicted    -0.1022453E-03 ( -14.07%)
   displ. norm   :     0.3666511 α      lambda       -0.7089248E-04
   maximum displ.:     0.2470379 α      in ANC's #1, #9, #10, ...

........................................................................
.............................. CYCLE   59 ..............................
........................................................................

 iter      E             dE          RMSdq      gap      omega  full diag
   1   -162.4289481 -0.162429E+03  0.695E-02    0.17       0.0  T
   2   -162.4285883  0.359820E-03  0.114E-01    0.16       1.0  T
   3   -162.4279743  0.613948E-03  0.179E-01    0.16       1.0  T
   4   -162.4286825 -0.708166E-03  0.690E-02    0.17       1.0  T
   5   -162.4289371 -0.254622E-03  0.213E-02    0.17       1.0  T
   6   -162.4289547 -0.176181E-04  0.802E-03    0.16       1.4  T
   7   -162.4289555 -0.762452E-06  0.584E-03    0.16       1.9  T
   8   -162.4289567 -0.118769E-05  0.769E-04    0.16      14.7  T
   9   -162.4289566  0.500407E-07  0.125E-03    0.16       9.1  T
  10   -162.4289567 -0.643010E-07  0.475E-04    0.16      23.9  T
  11   -162.4289567 -0.678722E-08  0.290E-04    0.16      39.1  T
     SCC iter.                  ...        0 min,  0.161 sec
     gradient                   ...        0 min,  0.024 sec
 * total energy  :  -160.3153295 Eh     change       -0.5356567E-04 Eh
   gradient norm :     0.0032338 Eh/α   predicted    -0.4021248E-04 ( -24.93%)
   displ. norm   :     0.3616277 α      lambda       -0.7834753E-04
   maximum displ.:     0.2480291 α      in ANC's #1, #9, #10, ...

........................................................................
.............................. CYCLE   60 ..............................
........................................................................

 iter      E             dE          RMSdq      gap      omega  full diag
   1   -162.4299296 -0.162430E+03  0.687E-02    0.17       0.0  T
   2   -162.4299093  0.202598E-04  0.439E-02    0.17       1.0  T
   3   -162.4289824  0.926891E-03  0.162E-01    0.17       1.0  T
   4   -162.4294383 -0.455941E-03  0.115E-01    0.17       1.0  T
   5   -162.4299117 -0.473368E-03  0.248E-02    0.17       1.0  T
   6   -162.4299356 -0.238613E-04  0.172E-03    0.17       6.6  T
   7   -162.4299358 -0.179651E-06  0.953E-04    0.17      11.9  T
   8   -162.4299358 -0.256198E-07  0.691E-04    0.17      16.4  T
     SCC iter.                  ...        0 min,  0.118 sec
     gradient                   ...        0 min,  0.019 sec
 * total energy  :  -160.3153876 Eh     change       -0.5805905E-04 Eh
   gradient norm :     0.0027605 Eh/α   predicted    -0.4429841E-04 ( -23.70%)
   displ. norm   :     0.3360609 α      lambda       -0.7624985E-04
   maximum displ.:     0.2379986 α      in ANC's #1, #9, #10, ...

........................................................................
.............................. CYCLE   61 ..............................
........................................................................

 iter      E             dE          RMSdq      gap      omega  full diag
   1   -162.4309583 -0.162431E+03  0.640E-02    0.17       0.0  T
   2   -162.4306681  0.290180E-03  0.101E-01    0.17       1.0  T
   3   -162.4300644  0.603680E-03  0.174E-01    0.17       1.0  T
   4   -162.4307661 -0.701686E-03  0.508E-02    0.17       1.0  T
   5   -162.4309585 -0.192426E-03  0.127E-02    0.17       1.0  T
   6   -162.4309677 -0.914045E-05  0.249E-03    0.17       4.6  T
   7   -162.4309678 -0.143908E-06  0.319E-03    0.17       3.5  T
   8   -162.4309681 -0.281330E-06  0.139E-03    0.17       8.1  T
   9   -162.4309681  0.109494E-07  0.112E-03    0.17      10.1  T
  10   -162.4309682 -0.706601E-07  0.589E-04    0.17      19.2  T
  11   -162.4309682 -0.167553E-07  0.420E-04    0.17      27.0  T
     SCC iter.                  ...        0 min,  0.161 sec
     gradient                   ...        0 min,  0.021 sec
 * total energy  :  -160.3154387 Eh     change       -0.5115977E-04 Eh
   gradient norm :     0.0024471 Eh/α   predicted    -0.4243560E-04 ( -17.05%)
   displ. norm   :     0.2681947 α      lambda       -0.4958761E-04
   maximum displ.:     0.1938279 α      in ANC's #1, #9, #4, ...

........................................................................
.............................. CYCLE   62 ..............................
........................................................................

 iter      E             dE          RMSdq      gap      omega  full diag
   1   -162.4305757 -0.162431E+03  0.493E-02    0.17       0.0  T
   2   -162.4304944  0.812314E-04  0.569E-02    0.17       1.0  T
   3   -162.4295963  0.898137E-03  0.180E-01    0.17       1.0  T
   4   -162.4304664 -0.870136E-03  0.380E-02    0.17       1.0  T
   5   -162.4305757 -0.109248E-03  0.850E-03    0.17       1.3  T
   6   -162.4305801 -0.446350E-05  0.157E-03    0.17       7.2  T
   7   -162.4305802 -0.643208E-07  0.168E-03    0.17       6.7  T
   8   -162.4305803 -0.701781E-07  0.104E-03    0.17      10.9  T
   9   -162.4305803 -0.136469E-07  0.587E-04    0.17      19.3  T
  10   -162.4305803 -0.146556E-07  0.420E-04    0.17      27.0  T
     SCC iter.                  ...        0 min,  0.154 sec
     gradient                   ...        0 min,  0.020 sec
 * total energy  :  -160.3154670 Eh     change       -0.2821592E-04 Eh
   gradient norm :     0.0019339 Eh/α   predicted    -0.2658130E-04 (  -5.79%)
   displ. norm   :     0.1393595 α      lambda       -0.2338194E-04
   maximum displ.:     0.0856007 α      in ANC's #1, #4, #9, ...

........................................................................
.............................. CYCLE   63 ..............................
........................................................................

 iter      E             dE          RMSdq      gap      omega  full diag
   1   -162.4315453 -0.162432E+03  0.305E-02    0.17       0.0  T
   2   -162.4315233  0.220887E-04  0.327E-02    0.17       1.0  T
   3   -162.4311531  0.370131E-03  0.112E-01    0.17       1.0  T
   4   -162.4315046 -0.351504E-03  0.310E-02    0.17       1.0  T
   5   -162.4315425 -0.378594E-04  0.107E-02    0.17       1.1  T
   6   -162.4315478 -0.532545E-05  0.380E-03    0.17       3.0  T
   7   -162.4315481 -0.330612E-06  0.239E-03    0.17       4.7  T
   8   -162.4315478  0.333592E-06  0.411E-03    0.17       2.8  T
   9   -162.4315483 -0.478144E-06  0.153E-03    0.17       7.4  T
  10   -162.4315484 -0.784457E-07  0.470E-04    0.17      24.1  T
  11   -162.4315484 -0.444430E-08  0.310E-04    0.17      36.6  T
     SCC iter.                  ...        0 min,  0.168 sec
     gradient                   ...        0 min,  0.020 sec
 * total energy  :  -160.3154824 Eh     change       -0.1547601E-04 Eh
   gradient norm :     0.0023607 Eh/α   predicted    -0.1179362E-04 ( -23.79%)
   displ. norm   :     0.1222309 α      lambda       -0.2663892E-04
   maximum displ.:     0.0845669 α      in ANC's #1, #4, #9, ...

........................................................................
.............................. CYCLE   64 ..............................
........................................................................

 iter      E             dE          RMSdq      gap      omega  full diag
   1   -162.4302787 -0.162430E+03  0.247E-02    0.17       0.0  T
   2   -162.4300441  0.234669E-03  0.875E-02    0.17       1.0  T
   3   -162.4302518 -0.207743E-03  0.335E-02    0.17       1.0  T
   4   -162.4302578 -0.593725E-05  0.180E-02    0.17       1.0  T
   5   -162.4302808 -0.230231E-04  0.347E-03    0.17       3.3  T
   6   -162.4302812 -0.394811E-06  0.259E-03    0.17       4.4  T
   7   -162.4302814 -0.207571E-06  0.140E-03    0.17       8.1  T
   8   -162.4302814 -0.579039E-07  0.647E-04    0.17      17.5  T
   9   -162.4302815 -0.100083E-07  0.374E-04    0.17      30.3  T
     SCC iter.                  ...        0 min,  0.132 sec
     gradient                   ...        0 min,  0.020 sec
 * total energy  :  -160.3155018 Eh     change       -0.1934348E-04 Eh
   gradient norm :     0.0020578 Eh/α   predicted    -0.1351978E-04 ( -30.11%)
   displ. norm   :     0.1566765 α      lambda       -0.4100705E-04
   maximum displ.:     0.0881549 α      in ANC's #4, #1, #2, ...

........................................................................
.............................. CYCLE   65 ..............................
........................................................................

 iter      E             dE          RMSdq      gap      omega  full diag
   1   -162.4296670 -0.162430E+03  0.353E-02    0.17       0.0  T
   2   -162.4288900  0.776981E-03  0.159E-01    0.17       1.0  T
   3   -162.4296508 -0.760750E-03  0.336E-02    0.17       1.0  T
   4   -162.4296245  0.262738E-04  0.278E-02    0.17       1.0  T
   5   -162.4296724 -0.478839E-04  0.556E-03    0.17       2.0  T
   6   -162.4296745 -0.207294E-05  0.296E-03    0.17       3.8  T
   7   -162.4296747 -0.183731E-06  0.280E-03    0.17       4.0  T
   8   -162.4296749 -0.240977E-06  0.930E-04    0.17      12.2  T
   9   -162.4296749  0.370719E-07  0.128E-03    0.17       8.8  T
  10   -162.4296749 -0.535463E-07  0.611E-04    0.17      18.5  T
     SCC iter.                  ...        0 min,  0.149 sec
     gradient                   ...        0 min,  0.019 sec
 * total energy  :  -160.3155332 Eh     change       -0.3140739E-04 Eh
   gradient norm :     0.0021802 Eh/α   predicted    -0.2101168E-04 ( -33.10%)
   displ. norm   :     0.2818543 α      lambda       -0.6076507E-04
   maximum displ.:     0.1666510 α      in ANC's #4, #1, #2, ...

........................................................................
.............................. CYCLE   66 ..............................
........................................................................

 iter      E             dE          RMSdq      gap      omega  full diag
   1   -162.4283635 -0.162428E+03  0.629E-02    0.17       0.0  T
   2   -162.4264687  0.189478E-02  0.249E-01    0.17       1.0  T
   3   -162.4282979 -0.182920E-02  0.622E-02    0.17       1.0  T
   4   -162.4282263  0.715947E-04  0.488E-02    0.17       1.0  T
   5   -162.4283766 -0.150291E-03  0.657E-03    0.17       1.7  T
   6   -162.4283812 -0.462259E-05  0.250E-03    0.17       4.5  T
   7   -162.4283808  0.410863E-06  0.502E-03    0.17       2.3  T
   8   -162.4283816 -0.794519E-06  0.105E-03    0.17      10.8  T
   9   -162.4283815  0.714253E-07  0.184E-03    0.17       6.2  T
  10   -162.4283816 -0.928552E-07  0.849E-04    0.17      13.3  T
  11   -162.4283816 -0.827038E-08  0.507E-04    0.17      22.4  T
     SCC iter.                  ...        0 min,  0.160 sec
     gradient                   ...        0 min,  0.020 sec
 * total energy  :  -160.3155733 Eh     change       -0.4013536E-04 Eh
   gradient norm :     0.0031637 Eh/α   predicted    -0.3279978E-04 ( -18.28%)
   displ. norm   :     0.2844511 α      lambda       -0.5297361E-04
   maximum displ.:     0.1742387 α      in ANC's #4, #2, #1, ...
 * RMSD in coord.:     0.7153481 α      energy gain  -0.1327825E-02 Eh

generating ANC from exact Hessian ...
Using Lindh-Hessian (1995)
 Shifting diagonal of input Hessian by    9.9131515446731905E-003
 Lowest  eigenvalues of input Hessian
    0.000000    0.000000    0.000000    0.000000    0.000000    0.000000
    0.010000    0.010187    0.010398    0.010403    0.010417    0.010525
    0.010651    0.010663    0.011204    0.011448    0.011518    0.011570
 Highest eigenvalues
    2.056215    2.058032    2.081271    2.083687    2.092694    2.100074


........................................................................
.............................. CYCLE   67 ..............................
........................................................................

 iter      E             dE          RMSdq      gap      omega  full diag
   1   -162.4278133 -0.162428E+03  0.618E-02    0.17       0.0  T
   2   -162.4269822  0.831098E-03  0.166E-01    0.17       1.0  T
   3   -162.4276336 -0.651431E-03  0.849E-02    0.17       1.0  T
   4   -162.4277095 -0.759114E-04  0.422E-02    0.17       1.0  T
   5   -162.4278166 -0.107087E-03  0.919E-03    0.17       1.2  T
   6   -162.4278213 -0.464557E-05  0.547E-03    0.17       2.1  T
   7   -162.4278210  0.278324E-06  0.581E-03    0.17       2.0  T
   8   -162.4278221 -0.105265E-05  0.116E-03    0.17       9.7  T
   9   -162.4278221 -0.765269E-08  0.121E-03    0.17       9.4  T
  10   -162.4278221 -0.315353E-07  0.549E-04    0.17      20.6  T
  11   -162.4278221  0.102537E-08  0.590E-04    0.17      19.2  T
     SCC iter.                  ...        0 min,  0.161 sec
     gradient                   ...        0 min,  0.019 sec
 * total energy  :  -160.3156045 Eh     change       -0.3116640E-04 Eh
   gradient norm :     0.0030637 Eh/α   predicted     0.0000000E+00 (-100.00%)
   displ. norm   :     0.0304639 α      lambda       -0.2964500E-04
   maximum displ.:     0.0113011 α      in ANC's #9, #4, #31, ...

........................................................................
.............................. CYCLE   68 ..............................
........................................................................

 iter      E             dE          RMSdq      gap      omega  full diag
   1   -162.4292848 -0.162429E+03  0.123E-02    0.17       0.0  T
   2   -162.4291590  0.125770E-03  0.634E-02    0.17       1.0  T
   3   -162.4292790 -0.119976E-03  0.161E-02    0.17       1.0  T
   4   -162.4292820 -0.302616E-05  0.767E-03    0.17       1.5  T
   5   -162.4292839 -0.185039E-05  0.772E-03    0.17       1.5  T
   6   -162.4292861 -0.222341E-05  0.210E-03    0.17       5.4  T
   7   -162.4292863 -0.143181E-06  0.117E-03    0.17       9.7  T
   8   -162.4292863 -0.414405E-07  0.467E-04    0.17      24.2  T
   9   -162.4292863 -0.538060E-08  0.310E-04    0.17      36.6  T
     SCC iter.                  ...        0 min,  0.135 sec
     gradient                   ...        0 min,  0.020 sec
 * total energy  :  -160.3156271 Eh     change       -0.2261953E-04 Eh
   gradient norm :     0.0015722 Eh/α   predicted    -0.1515417E-04 ( -33.00%)
   displ. norm   :     0.0863621 α      lambda       -0.2588901E-04
   maximum displ.:     0.0397448 α      in ANC's #4, #9, #2, ...

........................................................................
.............................. CYCLE   69 ..............................
........................................................................

 iter      E             dE          RMSdq      gap      omega  full diag
   1   -162.4310652 -0.162431E+03  0.282E-02    0.18       0.0  T
   2   -162.4302743  0.790883E-03  0.158E-01    0.17       1.0  T
   3   -162.4310180 -0.743673E-03  0.433E-02    0.17       1.0  T
   4   -162.4310450 -0.270436E-04  0.239E-02    0.18       1.0  T
   5   -162.4310527 -0.774264E-05  0.245E-02    0.18       1.0  T
   6   -162.4310721 -0.193944E-04  0.698E-03    0.17       1.6  T
   7   -162.4310739 -0.174428E-05  0.148E-03    0.17       7.6  T
   8   -162.4310739 -0.423359E-07  0.113E-03    0.17      10.0  T
   9   -162.4310739 -0.112829E-07  0.990E-04    0.17      11.4  T
  10   -162.4310740 -0.140112E-07  0.781E-04    0.17      14.5  T
     SCC iter.                  ...        0 min,  0.153 sec
     gradient                   ...        0 min,  0.018 sec
 * total energy  :  -160.3156453 Eh     change       -0.1818530E-04 Eh
   gradient norm :     0.0016769 Eh/α   predicted    -0.1298753E-04 ( -28.58%)
   displ. norm   :     0.0380676 α      lambda       -0.7567833E-05
   maximum displ.:     0.0211140 α      in ANC's #4, #9, #2, ...

........................................................................
.............................. CYCLE   70 ..............................
........................................................................

 iter      E             dE          RMSdq      gap      omega  full diag
   1   -162.4303661 -0.162430E+03  0.805E-03    0.18       0.0  T
   2   -162.4303657  0.388680E-06  0.560E-03    0.18       2.0  T
   3   -162.4303301  0.355956E-04  0.331E-02    0.18       1.0  T
   4   -162.4303630 -0.329116E-04  0.740E-03    0.18       1.5  T
   5   -162.4303659 -0.286556E-05  0.303E-03    0.18       3.7  T
   6   -162.4303661 -0.241576E-06  0.155E-03    0.18       7.3  T
   7   -162.4303661 -0.746019E-08  0.133E-03    0.18       8.5  T
   8   -162.4303662 -0.554693E-07  0.231E-04    0.18      49.1  T
   9   -162.4303662  0.446570E-08  0.469E-04    0.18      24.1  T
     SCC iter.                  ...        0 min,  0.133 sec
     gradient                   ...        0 min,  0.019 sec
 * total energy  :  -160.3156551 Eh     change       -0.9776089E-05 Eh
   gradient norm :     0.0010684 Eh/α   predicted    -0.3786529E-05 ( -61.27%)
   displ. norm   :     0.1163475 α      lambda       -0.1690873E-04
   maximum displ.:     0.0634169 α      in ANC's #4, #9, #2, ...

........................................................................
.............................. CYCLE   71 ..............................
........................................................................

 iter      E             dE          RMSdq      gap      omega  full diag
   1   -162.4293042 -0.162429E+03  0.233E-02    0.18       0.0  T
   2   -162.4292394  0.648418E-04  0.470E-02    0.18       1.0  T
   3   -162.4292477 -0.828818E-05  0.444E-02    0.18       1.0  T
   4   -162.4292812 -0.335105E-04  0.185E-02    0.18       1.0  T
   5   -162.4293041 -0.229615E-04  0.635E-03    0.18       1.8  T
   6   -162.4293054 -0.128612E-05  0.317E-03    0.18       3.6  T
   7   -162.4293053  0.128738E-06  0.346E-03    0.18       3.3  T
   8   -162.4293056 -0.352002E-06  0.986E-04    0.18      11.5  T
   9   -162.4293056  0.329197E-07  0.150E-03    0.18       7.6  T
  10   -162.4293057 -0.648959E-07  0.175E-04    0.18      64.9  T
     SCC iter.                  ...        0 min,  0.144 sec
     gradient                   ...        0 min,  0.019 sec
 * total energy  :  -160.3156743 Eh     change       -0.1923387E-04 Eh
   gradient norm :     0.0010648 Eh/α   predicted    -0.8511135E-05 ( -55.75%)
   displ. norm   :     0.1510769 α      lambda       -0.1431723E-04
   maximum displ.:     0.0829538 α      in ANC's #4, #9, #1, ...

........................................................................
.............................. CYCLE   72 ..............................
........................................................................

 iter      E             dE          RMSdq      gap      omega  full diag
   1   -162.4288177 -0.162429E+03  0.296E-02    0.18       0.0  T
   2   -162.4287030  0.114739E-03  0.623E-02    0.18       1.0  T
   3   -162.4287237 -0.207170E-04  0.572E-02    0.18       1.0  T
   4   -162.4287805 -0.567447E-04  0.237E-02    0.18       1.0  T
   5   -162.4288177 -0.372789E-04  0.780E-03    0.18       1.5  T
   6   -162.4288200 -0.228464E-05  0.272E-03    0.18       4.2  T
   7   -162.4288199  0.703734E-07  0.285E-03    0.18       4.0  T
   8   -162.4288202 -0.241696E-06  0.800E-04    0.18      14.2  T
   9   -162.4288202  0.600596E-08  0.976E-04    0.18      11.6  T
     SCC iter.                  ...        0 min,  0.134 sec
     gradient                   ...        0 min,  0.020 sec
 * total energy  :  -160.3156916 Eh     change       -0.1725545E-04 Eh
   gradient norm :     0.0016195 Eh/α   predicted    -0.7233253E-05 ( -58.08%)
   displ. norm   :     0.1786308 α      lambda       -0.1511568E-04
   maximum displ.:     0.0995039 α      in ANC's #4, #9, #1, ...

........................................................................
.............................. CYCLE   73 ..............................
........................................................................

 iter      E             dE          RMSdq      gap      omega  full diag
   1   -162.4289556 -0.162429E+03  0.353E-02    0.18       0.0  T
   2   -162.4287865  0.169105E-03  0.754E-02    0.18       1.0  T
   3   -162.4288175 -0.309855E-04  0.694E-02    0.18       1.0  T
   4   -162.4289046 -0.871283E-04  0.278E-02    0.18       1.0  T
   5   -162.4289559 -0.513345E-04  0.843E-03    0.18       1.3  T
   6   -162.4289591 -0.314917E-05  0.256E-03    0.18       4.4  T
   7   -162.4289590  0.729294E-07  0.276E-03    0.18       4.1  T
   8   -162.4289592 -0.233163E-06  0.716E-04    0.18      15.8  T
   9   -162.4289592  0.394670E-08  0.768E-04    0.18      14.7  T
     SCC iter.                  ...        0 min,  0.131 sec
     gradient                   ...        0 min,  0.019 sec
 * total energy  :  -160.3157102 Eh     change       -0.1861640E-04 Eh
   gradient norm :     0.0014683 Eh/α   predicted    -0.7665380E-05 ( -58.82%)
   displ. norm   :     0.1986677 α      lambda       -0.1557884E-04
   maximum displ.:     0.1131589 α      in ANC's #4, #1, #2, ...

........................................................................
.............................. CYCLE   74 ..............................
........................................................................

 iter      E             dE          RMSdq      gap      omega  full diag
   1   -162.4294810 -0.162429E+03  0.395E-02    0.18       0.0  T
   2   -162.4292280  0.252935E-03  0.921E-02    0.18       1.0  T
   3   -162.4293322 -0.104147E-03  0.726E-02    0.18       1.0  T
   4   -162.4294206 -0.884205E-04  0.305E-02    0.18       1.0  T
   5   -162.4294820 -0.614400E-04  0.837E-03    0.18       1.4  T
   6   -162.4294857 -0.365200E-05  0.268E-03    0.18       4.2  T
   7   -162.4294856  0.432640E-07  0.271E-03    0.18       4.2  T
   8   -162.4294859 -0.237025E-06  0.588E-04    0.18      19.3  T
   9   -162.4294859  0.367257E-08  0.624E-04    0.18      18.1  T
     SCC iter.                  ...        0 min,  0.133 sec
     gradient                   ...        0 min,  0.020 sec
 * total energy  :  -160.3157287 Eh     change       -0.1850266E-04 Eh
   gradient norm :     0.0008125 Eh/α   predicted    -0.7926605E-05 ( -57.16%)
   displ. norm   :     0.1847924 α      lambda       -0.1244447E-04
   maximum displ.:     0.1083379 α      in ANC's #4, #1, #2, ...

........................................................................
.............................. CYCLE   75 ..............................
........................................................................

 iter      E             dE          RMSdq      gap      omega  full diag
   1   -162.4300202 -0.162430E+03  0.366E-02    0.18       0.0  T
   2   -162.4298117  0.208472E-03  0.838E-02    0.18       1.0  T
   3   -162.4298932 -0.814986E-04  0.672E-02    0.18       1.0  T
   4   -162.4299713 -0.780673E-04  0.273E-02    0.18       1.0  T
   5   -162.4300208 -0.495855E-04  0.717E-03    0.18       1.6  T
   6   -162.4300238 -0.297263E-05  0.181E-03    0.18       6.3  T
   7   -162.4300237  0.965424E-07  0.239E-03    0.18       4.7  T
   8   -162.4300239 -0.186654E-06  0.545E-04    0.18      20.8  T
   9   -162.4300239  0.647762E-08  0.656E-04    0.18      17.3  T
     SCC iter.                  ...        0 min,  0.130 sec
     gradient                   ...        0 min,  0.020 sec
 * total energy  :  -160.3157434 Eh     change       -0.1475685E-04 Eh
   gradient norm :     0.0005226 Eh/α   predicted    -0.6319171E-05 ( -57.18%)
   displ. norm   :     0.1612263 α      lambda       -0.1019750E-04
   maximum displ.:     0.0965217 α      in ANC's #4, #1, #2, ...

........................................................................
.............................. CYCLE   76 ..............................
........................................................................

 iter      E             dE          RMSdq      gap      omega  full diag
   1   -162.4303734 -0.162430E+03  0.315E-02    0.18       0.0  T
   2   -162.4302560  0.117435E-03  0.634E-02    0.18       1.0  T
   3   -162.4302618 -0.587808E-05  0.624E-02    0.18       1.0  T
   4   -162.4303389 -0.770389E-04  0.228E-02    0.18       1.0  T
   5   -162.4303734 -0.344825E-04  0.622E-03    0.18       1.8  T
   6   -162.4303754 -0.202409E-05  0.119E-03    0.18       9.6  T
   7   -162.4303753  0.898939E-07  0.201E-03    0.18       5.6  T
   8   -162.4303754 -0.132826E-06  0.391E-04    0.18      28.9  T
   9   -162.4303754  0.159557E-07  0.765E-04    0.18      14.8  T
     SCC iter.                  ...        0 min,  0.135 sec
     gradient                   ...        0 min,  0.022 sec
 * total energy  :  -160.3157562 Eh     change       -0.1273618E-04 Eh
   gradient norm :     0.0008259 Eh/α   predicted    -0.5157919E-05 ( -59.50%)
   displ. norm   :     0.1677562 α      lambda       -0.1110067E-04
   maximum displ.:     0.1010737 α      in ANC's #4, #1, #2, ...

........................................................................
.............................. CYCLE   77 ..............................
........................................................................

 iter      E             dE          RMSdq      gap      omega  full diag
   1   -162.4303970 -0.162430E+03  0.323E-02    0.18       0.0  T
   2   -162.4303386  0.583437E-04  0.465E-02    0.18       1.0  T
   3   -162.4301599  0.178755E-03  0.885E-02    0.18       1.0  T
   4   -162.4303710 -0.211104E-03  0.210E-02    0.18       1.0  T
   5   -162.4303968 -0.258382E-04  0.497E-03    0.18       2.3  T
   6   -162.4303980 -0.114594E-05  0.768E-04    0.18      14.8  T
   7   -162.4303979  0.506667E-07  0.150E-03    0.18       7.5  T
   8   -162.4303980 -0.756566E-07  0.330E-04    0.18      34.3  T
   9   -162.4303980  0.226873E-07  0.890E-04    0.18      12.7  T
     SCC iter.                  ...        0 min,  0.133 sec
     gradient                   ...        0 min,  0.022 sec
 * total energy  :  -160.3157702 Eh     change       -0.1406944E-04 Eh
   gradient norm :     0.0009533 Eh/α   predicted    -0.5620942E-05 ( -60.05%)
   displ. norm   :     0.1843247 α      lambda       -0.1214035E-04
   maximum displ.:     0.1110151 α      in ANC's #4, #1, #2, ...

........................................................................
.............................. CYCLE   78 ..............................
........................................................................

 iter      E             dE          RMSdq      gap      omega  full diag
   1   -162.4301102 -0.162430E+03  0.354E-02    0.18       0.0  T
   2   -162.4300928  0.173729E-04  0.307E-02    0.18       1.0  T
   3   -162.4292543  0.838486E-03  0.163E-01    0.18       1.0  T
   4   -162.4300844 -0.830074E-03  0.250E-02    0.18       1.0  T
   5   -162.4301104 -0.259827E-04  0.218E-03    0.18       5.2  T
   6   -162.4301105 -0.110952E-06  0.196E-03    0.18       5.8  T
   7   -162.4301107 -0.194960E-06  0.626E-04    0.18      18.1  T
   8   -162.4301107 -0.893587E-08  0.388E-04    0.18      29.2  T
     SCC iter.                  ...        0 min,  0.118 sec
     gradient                   ...        0 min,  0.020 sec
 * total energy  :  -160.3157850 Eh     change       -0.1480756E-04 Eh
   gradient norm :     0.0007691 Eh/α   predicted    -0.6164451E-05 ( -58.37%)
   displ. norm   :     0.1798053 α      lambda       -0.1026219E-04
   maximum displ.:     0.1087966 α      in ANC's #4, #1, #2, ...

........................................................................
.............................. CYCLE   79 ..............................
........................................................................

 iter      E             dE          RMSdq      gap      omega  full diag
   1   -162.4296149 -0.162430E+03  0.345E-02    0.19       0.0  T
   2   -162.4296148  0.374112E-07  0.203E-02    0.19       1.0  T
   3   -162.4295996  0.152083E-04  0.144E-02    0.19       1.0  T
   4   -162.4295519  0.477480E-04  0.455E-02    0.19       1.0  T
   5   -162.4296139 -0.619808E-04  0.388E-03    0.19       2.9  T
   6   -162.4296145 -0.606476E-06  0.467E-03    0.19       2.4  T
   7   -162.4296153 -0.832663E-06  0.656E-04    0.19      17.3  T
   8   -162.4296153 -0.748872E-08  0.551E-04    0.19      20.5  T
     SCC iter.                  ...        0 min,  0.117 sec
     gradient                   ...        0 min,  0.019 sec
 * total energy  :  -160.3157969 Eh     change       -0.1182396E-04 Eh
   gradient norm :     0.0004838 Eh/α   predicted    -0.5206548E-05 ( -55.97%)
   displ. norm   :     0.1336681 α      lambda       -0.6775480E-05
   maximum displ.:     0.0821119 α      in ANC's #4, #1, #2, ...

........................................................................
.............................. CYCLE   80 ..............................
........................................................................

 iter      E             dE          RMSdq      gap      omega  full diag
   1   -162.4293870 -0.162429E+03  0.253E-02    0.19       0.0  T
   2   -162.4293806  0.645491E-05  0.210E-02    0.19       1.0  T
   3   -162.4289916  0.389019E-03  0.113E-01    0.19       1.0  T
   4   -162.4293638 -0.372280E-03  0.231E-02    0.19       1.0  T
   5   -162.4293861 -0.222953E-04  0.410E-03    0.19       2.8  T
   6   -162.4293872 -0.102191E-05  0.270E-03    0.19       4.2  T
   7   -162.4293874 -0.279006E-06  0.729E-04    0.19      15.5  T
   8   -162.4293874 -0.148035E-07  0.379E-04    0.19      29.9  T
     SCC iter.                  ...        0 min,  0.116 sec
     gradient                   ...        0 min,  0.019 sec
 * total energy  :  -160.3158051 Eh     change       -0.8257396E-05 Eh
   gradient norm :     0.0003985 Eh/α   predicted    -0.3416884E-05 ( -58.62%)
   displ. norm   :     0.1182724 α      lambda       -0.6555013E-05
   maximum displ.:     0.0732053 α      in ANC's #4, #1, #2, ...

........................................................................
.............................. CYCLE   81 ..............................
........................................................................

 iter      E             dE          RMSdq      gap      omega  full diag
   1   -162.4292528 -0.162429E+03  0.216E-02    0.19       0.0  T
   2   -162.4292389  0.138204E-04  0.247E-02    0.19       1.0  T
   3   -162.4290568  0.182095E-03  0.796E-02    0.19       1.0  T
   4   -162.4292391 -0.182251E-03  0.172E-02    0.19       1.0  T
   5   -162.4292516 -0.125293E-04  0.510E-03    0.19       2.2  T
   6   -162.4292531 -0.150366E-05  0.101E-03    0.19      11.2  T
   7   -162.4292532 -0.397430E-07  0.512E-04    0.19      22.1  T
   8   -162.4292532 -0.167654E-08  0.471E-04    0.19      24.0  T
     SCC iter.                  ...        0 min,  0.116 sec
     gradient                   ...        0 min,  0.019 sec
 * total energy  :  -160.3158136 Eh     change       -0.8506984E-05 Eh
   gradient norm :     0.0005353 Eh/α   predicted    -0.3301312E-05 ( -61.19%)
   displ. norm   :     0.1536485 α      lambda       -0.9071349E-05
   maximum displ.:     0.0943829 α      in ANC's #4, #1, #2, ...

........................................................................
.............................. CYCLE   82 ..............................
........................................................................

 iter      E             dE          RMSdq      gap      omega  full diag
   1   -162.4292028 -0.162429E+03  0.267E-02    0.19       0.0  T
   2   -162.4291904  0.123433E-04  0.252E-02    0.19       1.0  T
   3   -162.4287921  0.398360E-03  0.115E-01    0.19       1.0  T
   4   -162.4291868 -0.394705E-03  0.174E-02    0.19       1.0  T
   5   -162.4292020 -0.151756E-04  0.498E-03    0.19       2.3  T
   6   -162.4292033 -0.130735E-05  0.593E-04    0.19      19.1  T
   7   -162.4292033 -0.116817E-07  0.433E-04    0.19      26.1  T
   8   -162.4292033  0.407965E-09  0.460E-04    0.19      24.6  T
     SCC iter.                  ...        0 min,  0.123 sec
     gradient                   ...        0 min,  0.021 sec
 * total energy  :  -160.3158251 Eh     change       -0.1145155E-04 Eh
   gradient norm :     0.0007136 Eh/α   predicted    -0.4585096E-05 ( -59.96%)
   displ. norm   :     0.1961653 α      lambda       -0.1017950E-04
   maximum displ.:     0.1214317 α      in ANC's #1, #4, #2, ...

........................................................................
.............................. CYCLE   83 ..............................
........................................................................

 iter      E             dE          RMSdq      gap      omega  full diag
   1   -162.4291435 -0.162429E+03  0.334E-02    0.19       0.0  T
   2   -162.4291423  0.119480E-05  0.204E-02    0.19       1.0  T
   3   -162.4287787  0.363624E-03  0.107E-01    0.19       1.0  T
   4   -162.4291002 -0.321521E-03  0.332E-02    0.19       1.0  T
   5   -162.4291416 -0.413776E-04  0.811E-03    0.19       1.4  T
   6   -162.4291438 -0.227202E-05  0.205E-03    0.19       5.5  T
   7   -162.4291439 -0.851662E-07  0.103E-03    0.19      11.0  T
   8   -162.4291440 -0.264056E-07  0.531E-04    0.19      21.3  T
   9   -162.4291440  0.320588E-08  0.538E-04    0.19      21.1  T
     SCC iter.                  ...        0 min,  0.132 sec
     gradient                   ...        0 min,  0.020 sec
 * total energy  :  -160.3158371 Eh     change       -0.1200691E-04 Eh
   gradient norm :     0.0007904 Eh/α   predicted    -0.5177350E-05 ( -56.88%)
   displ. norm   :     0.1919185 α      lambda       -0.7957218E-05
   maximum displ.:     0.1205949 α      in ANC's #1, #4, #9, ...

........................................................................
.............................. CYCLE   84 ..............................
........................................................................

 iter      E             dE          RMSdq      gap      omega  full diag
   1   -162.4292156 -0.162429E+03  0.328E-02    0.19       0.0  T
   2   -162.4292008  0.148914E-04  0.291E-02    0.19       1.0  T
   3   -162.4285747  0.626011E-03  0.142E-01    0.19       1.0  T
   4   -162.4292012 -0.626415E-03  0.142E-02    0.19       1.0  T
   5   -162.4292150 -0.138914E-04  0.453E-03    0.19       2.5  T
   6   -162.4292155 -0.418032E-06  0.499E-03    0.19       2.3  T
   7   -162.4292160 -0.558840E-06  0.251E-03    0.19       4.5  T
   8   -162.4292162 -0.184444E-06  0.984E-04    0.19      11.5  T
   9   -162.4292162 -0.318431E-08  0.934E-04    0.19      12.1  T
     SCC iter.                  ...        0 min,  0.140 sec
     gradient                   ...        0 min,  0.020 sec
 * total energy  :  -160.3158461 Eh     change       -0.8971464E-05 Eh
   gradient norm :     0.0007054 Eh/α   predicted    -0.4045111E-05 ( -54.91%)
   displ. norm   :     0.1496380 α      lambda       -0.5332053E-05
   maximum displ.:     0.0960770 α      in ANC's #1, #4, #9, ...

........................................................................
.............................. CYCLE   85 ..............................
........................................................................

 iter      E             dE          RMSdq      gap      omega  full diag
   1   -162.4294173 -0.162429E+03  0.260E-02    0.19       0.0  T
   2   -162.4293688  0.484963E-04  0.423E-02    0.19       1.0  T
   3   -162.4293150  0.538227E-04  0.582E-02    0.19       1.0  T
   4   -162.4294108 -0.957621E-04  0.117E-02    0.19       1.0  T
   5   -162.4294155 -0.473082E-05  0.727E-03    0.19       1.6  T
   6   -162.4294169 -0.140908E-05  0.632E-03    0.19       1.8  T
   7   -162.4294175 -0.656533E-06  0.409E-03    0.19       2.8  T
   8   -162.4294181 -0.559401E-06  0.317E-04    0.19      35.7  T
   9   -162.4294181  0.996255E-08  0.684E-04    0.19      16.6  T
     SCC iter.                  ...        0 min,  0.134 sec
     gradient                   ...        0 min,  0.020 sec
 * total energy  :  -160.3158519 Eh     change       -0.5842421E-05 Eh
   gradient norm :     0.0004873 Eh/α   predicted    -0.2695267E-05 ( -53.87%)
   displ. norm   :     0.0969014 α      lambda       -0.3285765E-05
   maximum displ.:     0.0647437 α      in ANC's #1, #4, #9, ...

........................................................................
.............................. CYCLE   86 ..............................
........................................................................

 iter      E             dE          RMSdq      gap      omega  full diag
   1   -162.4296330 -0.162430E+03  0.178E-02    0.19       0.0  T
   2   -162.4295642  0.688492E-04  0.483E-02    0.19       1.0  T
   3   -162.4296166 -0.523880E-04  0.248E-02    0.19       1.0  T
   4   -162.4296314 -0.148180E-04  0.752E-03    0.19       1.5  T
   5   -162.4296322 -0.809019E-06  0.466E-03    0.19       2.4  T
   6   -162.4296331 -0.937917E-06  0.487E-03    0.19       2.3  T
   7   -162.4296336 -0.422262E-06  0.311E-03    0.19       3.6  T
   8   -162.4296339 -0.331349E-06  0.206E-04    0.19      55.0  T
   9   -162.4296339  0.324431E-08  0.398E-04    0.19      28.5  T
     SCC iter.                  ...        0 min,  0.135 sec
     gradient                   ...        0 min,  0.019 sec
 * total energy  :  -160.3158554 Eh     change       -0.3521226E-05 Eh
   gradient norm :     0.0002506 Eh/α   predicted    -0.1650802E-05 ( -53.12%)
   displ. norm   :     0.0520617 α      lambda       -0.1758814E-05
   maximum displ.:     0.0366732 α      in ANC's #1, #4, #17, ...

........................................................................
.............................. CYCLE   87 ..............................
........................................................................

 iter      E             dE          RMSdq      gap      omega  full diag
   1   -162.4296911 -0.162430E+03  0.100E-02    0.19       0.0  T
   2   -162.4296480  0.431355E-04  0.376E-02    0.19       1.0  T
   3   -162.4296897 -0.417332E-04  0.904E-03    0.19       1.3  T
   4   -162.4296911 -0.136534E-05  0.392E-03    0.19       2.9  T
   5   -162.4296910  0.114542E-06  0.301E-03    0.19       3.8  T
   6   -162.4296912 -0.259784E-06  0.339E-03    0.19       3.3  T
   7   -162.4296914 -0.221286E-06  0.222E-03    0.19       5.1  T
   8   -162.4296916 -0.168390E-06  0.145E-04    0.19      78.3  T
   9   -162.4296916  0.140417E-08  0.236E-04    0.19      48.0  T
     SCC iter.                  ...        0 min,  0.135 sec
     gradient                   ...        0 min,  0.019 sec
 * total energy  :  -160.3158574 Eh     change       -0.1996301E-05 Eh
   gradient norm :     0.0002003 Eh/α   predicted    -0.8833167E-06 ( -55.75%)
   displ. norm   :     0.0349458 α      lambda       -0.1291272E-05
   maximum displ.:     0.0239790 α      in ANC's #1, #4, #5, ...

........................................................................
.............................. CYCLE   88 ..............................
........................................................................

 iter      E             dE          RMSdq      gap      omega  full diag
   1   -162.4296731 -0.162430E+03  0.675E-03    0.19       0.0  T
   2   -162.4296515  0.216338E-04  0.265E-02    0.19       1.0  T
   3   -162.4296730 -0.215275E-04  0.466E-03    0.19       2.4  T
   4   -162.4296728  0.181622E-06  0.313E-03    0.19       3.6  T
   5   -162.4296730 -0.180438E-06  0.181E-03    0.19       6.3  T
   6   -162.4296731 -0.151781E-06  0.224E-03    0.19       5.0  T
   7   -162.4296733 -0.111140E-06  0.168E-03    0.19       6.7  T
   8   -162.4296734 -0.966134E-07  0.120E-04    0.19      94.3  T
   9   -162.4296733  0.112706E-08  0.245E-04    0.19      46.2  T
     SCC iter.                  ...        0 min,  0.133 sec
     gradient                   ...        0 min,  0.019 sec
 * total energy  :  -160.3158590 Eh     change       -0.1590674E-05 Eh
   gradient norm :     0.0002570 Eh/α   predicted    -0.6492087E-06 ( -59.19%)
   displ. norm   :     0.0403338 α      lambda       -0.1536831E-05
   maximum displ.:     0.0245044 α      in ANC's #1, #8, #4, ...

........................................................................
.............................. CYCLE   89 ..............................
........................................................................

 iter      E             dE          RMSdq      gap      omega  full diag
   1   -162.4295781 -0.162430E+03  0.749E-03    0.19       0.0  T
   2   -162.4295633  0.148385E-04  0.221E-02    0.19       1.0  T
   3   -162.4295750 -0.117215E-04  0.108E-02    0.19       1.0  T
   4   -162.4295773 -0.224752E-05  0.331E-03    0.19       3.4  T
   5   -162.4295779 -0.638287E-06  0.219E-03    0.19       5.2  T
   6   -162.4295783 -0.349906E-06  0.112E-03    0.19      10.1  T
   7   -162.4295783 -0.140313E-07  0.112E-03    0.19      10.2  T
   8   -162.4295783 -0.431203E-07  0.121E-04    0.19      93.8  T
   9   -162.4295783  0.127639E-08  0.214E-04    0.19      53.0  T
     SCC iter.                  ...        0 min,  0.135 sec
     gradient                   ...        0 min,  0.020 sec
 * total energy  :  -160.3158609 Eh     change       -0.1924084E-05 Eh
   gradient norm :     0.0002938 Eh/α   predicted    -0.7714351E-06 ( -59.91%)
   displ. norm   :     0.0562094 α      lambda       -0.1995360E-05
   maximum displ.:     0.0333814 α      in ANC's #1, #8, #2, ...

........................................................................
.............................. CYCLE   90 ..............................
........................................................................

 iter      E             dE          RMSdq      gap      omega  full diag
   1   -162.4294662 -0.162429E+03  0.980E-03    0.19       0.0  T
   2   -162.4294594  0.687939E-05  0.157E-02    0.19       1.0  T
   3   -162.4294503  0.905358E-05  0.231E-02    0.19       1.0  T
   4   -162.4294625 -0.121997E-04  0.709E-03    0.19       1.6  T
   5   -162.4294661 -0.362168E-05  0.243E-03    0.19       4.7  T
   6   -162.4294663 -0.210391E-06  0.963E-04    0.19      11.8  T
   7   -162.4294663  0.321000E-08  0.109E-03    0.19      10.4  T
   8   -162.4294664 -0.388434E-07  0.160E-04    0.19      71.0  T
     SCC iter.                  ...        0 min,  0.121 sec
     gradient                   ...        0 min,  0.020 sec
 * total energy  :  -160.3158634 Eh     change       -0.2456622E-05 Eh
   gradient norm :     0.0002808 Eh/α   predicted    -0.1000901E-05 ( -59.26%)
   displ. norm   :     0.0603904 α      lambda       -0.1975233E-05
   maximum displ.:     0.0368621 α      in ANC's #1, #2, #8, ...

........................................................................
.............................. CYCLE   91 ..............................
........................................................................

 iter      E             dE          RMSdq      gap      omega  full diag
   1   -162.4294061 -0.162429E+03  0.974E-03    0.19       0.0  T
   2   -162.4294060  0.129131E-06  0.587E-03    0.19       1.9  T
   3   -162.4293978  0.816317E-05  0.132E-02    0.19       1.0  T
   4   -162.4293950  0.285958E-05  0.182E-02    0.19       1.0  T
   5   -162.4294060 -0.110627E-04  0.196E-03    0.19       5.8  T
   6   -162.4294062 -0.160065E-06  0.255E-04    0.19      44.5  T
   7   -162.4294062  0.676721E-10  0.265E-04    0.19      42.7  T
     SCC iter.                  ...        0 min,  0.106 sec
     gradient                   ...        0 min,  0.021 sec
 * total energy  :  -160.3158658 Eh     change       -0.2395263E-05 Eh
   gradient norm :     0.0002478 Eh/α   predicted    -0.9928273E-06 ( -58.55%)
   displ. norm   :     0.0565979 α      lambda       -0.1724689E-05
   maximum displ.:     0.0366351 α      in ANC's #1, #2, #5, ...

........................................................................
.............................. CYCLE   92 ..............................
........................................................................

 iter      E             dE          RMSdq      gap      omega  full diag
   1   -162.4294223 -0.162429E+03  0.831E-03    0.19       0.0  T
   2   -162.4294208  0.147229E-05  0.818E-03    0.19       1.4  T
   3   -162.4293852  0.356590E-04  0.345E-02    0.19       1.0  T
   4   -162.4294197 -0.345362E-04  0.524E-03    0.19       2.2  T
   5   -162.4294223 -0.259972E-05  0.938E-04    0.19      12.1  T
   6   -162.4294224 -0.681670E-07  0.399E-04    0.19      28.4  T
   7   -162.4294224 -0.468253E-08  0.195E-04    0.19      58.2  T
     SCC iter.                  ...        0 min,  0.103 sec
     gradient                   ...        0 min,  0.023 sec
 * total energy  :  -160.3158679 Eh     change       -0.2113370E-05 Eh
   gradient norm :     0.0002031 Eh/α   predicted    -0.8655517E-06 ( -59.04%)
   displ. norm   :     0.0478529 α      lambda       -0.1424289E-05
   maximum displ.:     0.0327978 α      in ANC's #1, #2, #5, ...
 * RMSD in coord.:     0.2919275 α      energy gain  -0.2945839E-03 Eh

generating ANC from exact Hessian ...
Using Lindh-Hessian (1995)
 Shifting diagonal of input Hessian by    9.9159517415106559E-003
 Lowest  eigenvalues of input Hessian
    0.000000    0.000000    0.000000    0.000000    0.000000    0.000000
    0.010000    0.010195    0.010404    0.010423    0.010425    0.010546
    0.010669    0.010677    0.011194    0.011448    0.011513    0.011585
 Highest eigenvalues
    2.056762    2.059307    2.081698    2.083856    2.092891    2.099963


........................................................................
.............................. CYCLE   93 ..............................
........................................................................

 iter      E             dE          RMSdq      gap      omega  full diag
   1   -162.4294899 -0.162429E+03  0.635E-03    0.19       0.0  T
   2   -162.4294856  0.432356E-05  0.120E-02    0.19       1.0  T
   3   -162.4294847  0.908394E-06  0.135E-02    0.19       1.0  T
   4   -162.4294881 -0.345169E-05  0.583E-03    0.19       1.9  T
   5   -162.4294898 -0.168737E-05  0.181E-03    0.19       6.2  T
   6   -162.4294900 -0.147053E-06  0.603E-04    0.19      18.8  T
   7   -162.4294900 -0.168178E-07  0.199E-04    0.19      57.0  T
     SCC iter.                  ...        0 min,  0.107 sec
     gradient                   ...        0 min,  0.020 sec
 * total energy  :  -160.3158697 Eh     change       -0.1770879E-05 Eh
   gradient norm :     0.0001713 Eh/α   predicted     0.0000000E+00 (-100.00%)
   displ. norm   :     0.0094787 α      lambda       -0.2359116E-07
   maximum displ.:     0.0057760 α      in ANC's #1, #2, #11, ...

........................................................................
.............................. CYCLE   94 ..............................
........................................................................

 iter      E             dE          RMSdq      gap      omega  full diag
   1   -162.4294586 -0.162429E+03  0.170E-03    0.19       0.0  T
   2   -162.4294577  0.932282E-06  0.543E-03    0.19       2.1  T
   3   -162.4294585 -0.840455E-06  0.207E-03    0.19       5.5  T
   4   -162.4294585  0.510057E-07  0.196E-03    0.19       5.8  T
   5   -162.4294586 -0.133262E-06  0.526E-04    0.19      21.5  T
   6   -162.4294586 -0.163020E-07  0.280E-04    0.19      40.5  T
     SCC iter.                  ...        0 min,  0.087 sec
     gradient                   ...        0 min,  0.020 sec
 * total energy  :  -160.3158703 Eh     change       -0.6508438E-06 Eh
   gradient norm :     0.0001171 Eh/α   predicted    -0.2437322E-06 ( -62.55%)
   displ. norm   :     0.0382497 α      lambda       -0.1645702E-05
   maximum displ.:     0.0211484 α      in ANC's #1, #2, #11, ...

   *** GEOMETRY OPTIMIZATION CONVERGED AFTER 94 ITERATIONS ***

------------------------------------------------------------------------
 total energy gain   :        -0.2153759 Eh     -135.1504 kcal/mol
 total RMSD          :         1.6972587 a0        0.8982 Å
 total power (kW/mol):        -6.0156317 (step)  -32.8416 (real)
------------------------------------------------------------------------

 ANCopt (total)                0 d,  0 h,  0 min, 17.218 sec
 optimizer setup                ...        0 min,  0.000 sec (  0.001%)
 model hessian                  ...        0 min,  0.046 sec (  0.265%)
 ANC generation                 ...        0 min,  0.026 sec (  0.149%)
 coordinate transformation      ...        0 min,  0.002 sec (  0.011%)
 single point calculation       ...        0 min, 17.115 sec ( 99.404%)
 optimization log               ...        0 min,  0.011 sec (  0.064%)
 hessian update                 ...        0 min,  0.004 sec (  0.022%)
 rational function              ...        0 min,  0.011 sec (  0.062%)

================
 final structure:
================
78
 xtb: 6.7.1 (edcfbbe)
N            2.38384563894798        0.07751650438363       -0.17691100540194
N            0.35609166627818       -1.95699337972060       -0.21344613734958
C            2.73791951283545        2.49693156054668       -0.20410571015892
C            3.17518599612896        1.17938373506534       -0.09427925374797
C            4.54257241907086        0.78627904232654        0.12788278706391
H            5.36352543258694        1.46568556201252        0.25111805030132
C            4.56161706917546       -0.56435464458218        0.17318413097079
H            5.40142102981473       -1.21078877252915        0.33814717220290
C            3.20720645146733       -1.01031603159377       -0.03966481593706
C            2.80647754780212       -2.32594119534569       -0.12344007543338
C            1.45971646359339       -2.74575838323865       -0.32566030166617
C            1.08924596405795       -4.06736455632478       -0.66490177363014
H            1.76745641491903       -4.88036928737553       -0.83587680885144
C           -0.28150301382343       -4.08547035528360       -0.73709933341334
H           -0.91584333507862       -4.91532259456193       -0.98009181128841
C           -0.72278056014053       -2.77192891577728       -0.43714976255323
C            3.81703916171900       -3.39363447383053       -0.00093904588426
C            3.79565631260440       -4.26080868601299        1.09430954142120
C            4.72992411233164       -5.27346564636344        1.23274427011812
C            5.70543419842986       -5.43716615927097        0.26432182432183
H            6.43517809091861       -6.22490360688032        0.36642869143717
C            5.74988460556565       -4.59829744290112       -0.83581847367187
C            4.81109183621013       -3.58764633484640       -0.96104048845061
N           -1.72192154371206        0.02705322066081       -0.21061883481958
N            0.30531920381269        2.06045864851235       -0.12471720798177
C           -2.07462038896306       -2.38861343398681       -0.35066567189995
C           -2.51416030424888       -1.07709538161128       -0.19063109183825
C           -3.88539742491529       -0.69374595043131        0.02448123974824
H           -4.70808167107585       -1.37772253284190        0.10266189087047
C           -3.90570582430790        0.65355853854621        0.12945730575403
H           -4.74848856627852        1.29238081776171        0.30830338892631
C           -2.54796339095489        1.10795330349294       -0.03987093742148
C           -2.14646816671260        2.42591533358710       -0.05919244105645
C           -0.79673623536441        2.85367154312703       -0.22039741052847
C           -0.42143667660349        4.18846091817413       -0.49674631649925
H           -1.09713828474502        5.00831352729415       -0.64315793655925
C            0.95025177532052        4.20912260933725       -0.54681061441489
H            1.58783789134729        5.04842816525706       -0.74462064645282
C            1.38730596239671        2.88386378305025       -0.29619472398363
C           -3.16005923860356        3.48724330430595        0.09035505374076
C           -3.15996161012037        4.30734022287580        1.22143620813582
C           -4.09807164442058        5.31263078376250        1.38539436877670
C           -5.05589914141951        5.51652887673426        0.40700613063416
H           -5.78847427005938        6.29881330768176        0.52882542919497
C           -5.07889555470939        4.72501629811658       -0.72832721672025
C           -4.13654058502012        3.72119510873878       -0.87889327544687
Fe           0.32794427377379        0.04383308749534        0.18568167069310
C           -3.08933988386574       -3.45823096768889       -0.41700651213058
C           -3.19633253553806       -4.41437897718324        0.59562486432924
C           -3.97686515987894       -3.55117988176423       -1.49042993394622
C           -4.14777625992208       -5.41952368554274        0.54152193931018
C           -4.93067327182297       -4.55276493254702       -1.55838826549335
H           -4.20791693539546       -6.13839382507575        1.34245789341654
C           -5.01148982349050       -5.48477401573466       -0.53817945689910
H           -5.59697784372740       -4.59829920158948       -2.40461878190703
H           -5.75285514683447       -6.26685525445883       -0.58500274301339
C            3.75240633716125        3.56858315329398       -0.20738228008164
C            3.83634558469873        4.48562730615144        0.84311296320506
C            4.66207072675388        3.70413272529410       -1.25766747542265
C            4.78573316894611        5.49414422217012        0.84684810619164
C            5.61457373579418        4.70922280863534       -1.26739733027471
H            4.82698361936203        6.18231884193423        1.67547232470845
C            5.67149347465802        5.60222466743115       -0.21133235368776
H            6.29831844616659        4.78797182317906       -2.09712254046693
H            6.41130054941886        6.38717212153710       -0.21312072254341
H            4.68911380702753       -5.92147657317667        2.09309646477100
H            6.50188164726793       -4.72427790557890       -1.59794199517757
H           -4.07396216606290        5.92376705855562        2.27292881334949
H           -5.81688465515156        4.88266854508135       -1.49820564538754
Cl           2.75119225546009        4.33257170333254        2.17805857833001
Cl           4.57414140346984        2.60578203961059       -2.58890871715827
Cl          -2.13737717326846       -4.31507381199040        1.95645898398104
Cl          -3.85926651178831       -2.40185714102946       -2.77553242990237
Cl          -1.97550655590322        4.03113645355755        2.44799019141433
Cl          -4.14648005428691        2.75811223146514       -2.31392559608938
Cl           2.58922255178649       -4.03494457551056        2.30970512147621
Cl           4.84802407207647       -2.56461964094025       -2.35353468509676
Cl           0.31114180615379       -0.00389018330710        2.31860565719316

 Bond Distances (Angstroems)
 ---------------------------
N1-C4=1.3591         N1-C9=1.3712         N1-Fe47=2.0879       N2-C11=1.3612        N2-C16=1.3704        N2-Fe47=2.0404       
C3-C4=1.3926         C3-C39=1.4080        C3-C57=1.4757        C4-N1=1.3591         C4-C3=1.3926         C4-C5=1.4400         
C5-C4=1.4400         C5-H6=1.0727         C5-C7=1.3515         H6-C5=1.0727         C7-C5=1.3515         C7-H8=1.0725         
C7-C9=1.4417         H8-C7=1.0725         C9-N1=1.3712         C9-C7=1.4417         C9-C10=1.3779        C10-C9=1.3779        
C10-C11=1.4251       C10-C17=1.4752       C11-N2=1.3612        C11-C10=1.4251       C11-C12=1.4139       C12-C11=1.4139       
C12-H13=1.0725       C12-C14=1.3728       H13-C12=1.0725       C14-C12=1.3728       C14-H15=1.0724       C14-C16=1.4178       
H15-C14=1.0724       C16-N2=1.3704        C16-C14=1.4178       C16-C26=1.4078       C17-C10=1.4752       C17-C18=1.3971       
C17-C23=1.3956       C18-C17=1.3971       C18-C19=1.3847       C18-Cl76=1.7273      C19-C18=1.3847       C19-C20=1.3843       
C19-H66=1.0779       C20-C19=1.3843       C20-H21=1.0786       C20-C22=1.3842       H21-C20=1.0786       C22-C20=1.3842       
C22-C23=1.3851       C22-H67=1.0781       C23-C17=1.3956       C23-C22=1.3851       C23-Cl77=1.7283      N24-C27=1.3591       
N24-C32=1.3711       N24-Fe47=2.0879      N25-C34=1.3612       N25-C39=1.3704       N25-Fe47=2.0405      C26-C16=1.4078       
C26-C27=1.3924       C26-C48=1.4759       C27-N24=1.3591       C27-C26=1.3924       C27-C28=1.4400       C28-C27=1.4400       
C28-H29=1.0727       C28-C30=1.3515       H29-C28=1.0727       C30-C28=1.3515       C30-H31=1.0725       C30-C32=1.4417       
H31-C30=1.0725       C32-N24=1.3711       C32-C30=1.4417       C32-C33=1.3779       C33-C32=1.3779       C33-C34=1.4250       
C33-C40=1.4752       C34-N25=1.3612       C34-C33=1.4250       C34-C35=1.4138       C35-C34=1.4138       C35-H36=1.0725       
C35-C37=1.3728       H36-C35=1.0725       C37-C35=1.3728       C37-H38=1.0724       C37-C39=1.4178       H38-C37=1.0724       
C39-C3=1.4080        C39-N25=1.3704       C39-C37=1.4178       C40-C33=1.4752       C40-C41=1.3971       C40-C46=1.3956       
C41-C40=1.3971       C41-C42=1.3848       C41-Cl74=1.7273      C42-C41=1.3848       C42-C43=1.3843       C42-H68=1.0779       
C43-C42=1.3843       C43-H44=1.0786       C43-C45=1.3842       H44-C43=1.0786       C45-C43=1.3842       C45-C46=1.3850       
C45-H69=1.0781       C46-C40=1.3956       C46-C45=1.3850       C46-Cl75=1.7283      Fe47-N1=2.0879       Fe47-N2=2.0404       
Fe47-N24=2.0879      Fe47-N25=2.0405      Fe47-Cl78=2.1335     C48-C26=1.4759       C48-C49=1.3968       C48-C50=1.3959       
C49-C48=1.3968       C49-C51=1.3851       C49-Cl72=1.7272      C50-C48=1.3959       C50-C52=1.3848       C50-Cl73=1.7281      
C51-C49=1.3851       C51-H53=1.0779       C51-C54=1.3842       C52-C50=1.3848       C52-C54=1.3842       C52-H55=1.0780       
H53-C51=1.0779       C54-C51=1.3842       C54-C52=1.3842       C54-H56=1.0786       H55-C52=1.0780       H56-C54=1.0786       
C57-C3=1.4757        C57-C58=1.3970       C57-C59=1.3961       C58-C57=1.3970       C58-C60=1.3851       C58-Cl70=1.7272      
C59-C57=1.3961       C59-C61=1.3848       C59-Cl71=1.7281      C60-C58=1.3851       C60-H62=1.0779       C60-C63=1.3842       
C61-C59=1.3848       C61-C63=1.3842       C61-H64=1.0780       H62-C60=1.0779       C63-C60=1.3842       C63-C61=1.3842       
C63-H65=1.0786       H64-C61=1.0780       H65-C63=1.0786       H66-C19=1.0779       H67-C22=1.0781       H68-C42=1.0779       
H69-C45=1.0781       Cl70-C58=1.7272      Cl71-C59=1.7281      Cl72-C49=1.7272      Cl73-C50=1.7281      Cl74-C41=1.7273      
Cl75-C46=1.7283      Cl76-C18=1.7273      Cl77-C23=1.7283      Cl78-Fe47=2.1335     
 C  H  Rav=1.0759 sigma=0.0028  Rmin=1.0724  Rmax=1.0786    20
 C  C  Rav=1.4023 sigma=0.0299  Rmin=1.3515  Rmax=1.4759    48
 N  C  Rav=1.3655 sigma=0.0054  Rmin=1.3591  Rmax=1.3712     8
 Cl C  Rav=1.7277 sigma=0.0005  Rmin=1.7272  Rmax=1.7283     8
 Fe N  Rav=2.0642 sigma=0.0237  Rmin=2.0404  Rmax=2.0879     4
 Fe Cl Rav=2.1335 sigma=0.0000  Rmin=2.1335  Rmax=2.1335     1

 selected bond angles (degree)
 --------------------
C9-N1-C4=106.71                Fe47-N1-C4=125.16              Fe47-N1-C9=124.13              C16-N2-C11=106.28              
Fe47-N2-C11=126.55             Fe47-N2-C16=127.17             C39-C3-C4=124.50               C57-C3-C4=118.13               
C57-C3-C39=117.37              C3-C4-N1=125.41                C5-C4-N1=109.93                C5-C4-C3=124.65                
H6-C5-C4=124.86                C7-C5-C4=106.94                C7-C5-H6=128.19                H8-C7-C5=128.21                
C9-C7-C5=106.91                C9-C7-H8=124.88                C7-C9-N1=109.48                C10-C9-N1=125.23               
C10-C9-C7=125.28               C11-C10-C9=124.39              C17-C10-C9=119.13              C17-C10-C11=116.48             

 selected dihedral angles (degree)
 ---------------------------------
C3-C4-N1-C9=179.00            C3-C4-N1-Fe47=337.12          C5-C4-N1-C9=358.88            C5-C4-N1-Fe47=157.00          
N1-C4-C3-C39=  6.09           N1-C4-C3-C57=185.25           C5-C4-C3-C39=186.22           C5-C4-C3-C57=  5.39           
H6-C5-C4-N1=181.38            H6-C5-C4-C3=  1.26            C7-C5-C4-N1=  0.19            C7-C5-C4-C3=180.07            
H8-C7-C5-C4=181.06            H8-C7-C5-H6=359.81            C9-C7-C5-C4=  0.78            C9-C7-C5-H6=179.53            
C7-C9-N1-C4=  1.60            C7-C9-N1-Fe47=203.20          C10-C9-N1-C4=182.99           C10-C9-N1-Fe47= 24.59         
N1-C9-C7-C5=358.49            N1-C9-C7-H8=178.22            C10-C9-C7-C5=177.10           C10-C9-C7-H8=356.83           
C11-C10-C9-N1=357.96          C11-C10-C9-C7=179.57          C17-C10-C9-N1=177.88          C17-C10-C9-C7=359.49          
           -------------------------------------------------
          |                Final Singlepoint                |
           -------------------------------------------------

          ...................................................
          :                      SETUP                      :
          :.................................................:
          :  # basis functions                 312          :
          :  # atomic orbitals                 302          :
          :  # shells                          146          :
          :  # electrons                       287          :
          :  max. iterations                   250          :
          :  Hamiltonian                  GFN2-xTB          :
          :  restarted?                      false          :
          :  GBSA solvation                  false          :
          :  PC potential                    false          :
          :  electronic temp.          300.0000000     K    :
          :  accuracy                    1.0000000          :
          :  -> integral cutoff          0.2500000E+02      :
          :  -> integral neglect         0.1000000E-07      :
          :  -> SCF convergence          0.1000000E-05 Eh   :
          :  -> wf. convergence          0.1000000E-03 e    :
          :  Broyden damping             0.4000000          :
          :  net charge                          0          :
          :  unpaired electrons                  5          :
          ...................................................

 iter      E             dE          RMSdq      gap      omega  full diag
   1   -162.4294586 -0.162429E+03  0.593E-05    0.19       0.0  T
   2   -162.4294586  0.194245E-08  0.241E-04    0.19      47.1  T
   3   -162.4294586 -0.195286E-08  0.523E-05    0.19     216.4  T

   *** convergence criteria satisfied after 3 iterations ***

         #    Occupation            Energy/Eh            Energy/eV
      -------------------------------------------------------------
         1        2.0000           -1.0641634             -28.9574
       ...           ...                  ...                  ...
       140        1.9781           -0.3788064             -10.3078
       141        1.6414           -0.3757481             -10.2246
       142        1.3804           -0.3747323             -10.1970
       143        1.0000           -0.3610344              -9.8242
       144        1.0000           -0.3609776              -9.8227
       145        1.0000           -0.3317817              -9.0282
       146        0.9764           -0.3131572              -8.5214 (HOMO)
       147        0.0236           -0.3060815              -8.3289 (LUMO)
       148                         -0.2852425              -7.7618
       149                         -0.2757028              -7.5023
       150                         -0.2554266              -6.9505
       151                         -0.2538392              -6.9073
       ...                                ...                  ...
       302                          1.0254130              27.9029
      -------------------------------------------------------------
                  HL-Gap            0.0070757 Eh            0.1925 eV
             Fermi-level           -0.3424075 Eh           -9.3174 eV

 SCC (total)                   0 d,  0 h,  0 min,  0.077 sec
 SCC setup                      ...        0 min,  0.000 sec (  0.278%)
 Dispersion                     ...        0 min,  0.001 sec (  0.717%)
 classical contributions        ...        0 min,  0.000 sec (  0.146%)
 integral evaluation            ...        0 min,  0.005 sec (  6.729%)
 iterations                     ...        0 min,  0.048 sec ( 62.254%)
 molecular gradient             ...        0 min,  0.021 sec ( 26.643%)
 printout                       ...        0 min,  0.002 sec (  3.224%)

         :::::::::::::::::::::::::::::::::::::::::::::::::::::
         ::                     SUMMARY                     ::
         :::::::::::::::::::::::::::::::::::::::::::::::::::::
         :: total energy            -160.315870329197 Eh    ::
         :: gradient norm              0.000116115461 Eh/a0 ::
         :: HOMO-LUMO gap              0.192538704302 eV    ::
         ::.................................................::
         :: SCC energy              -162.427084440063 Eh    ::
         :: -> isotropic ES            0.054360248704 Eh    ::
         :: -> anisotropic ES         -0.013544315214 Eh    ::
         :: -> anisotropic XC          0.055439883065 Eh    ::
         :: -> dispersion             -0.150660613713 Eh    ::
         :: repulsion energy           2.111214110866 Eh    ::
         :: add. restraining           0.000000000000 Eh    ::
         :: total charge               0.000000000109 e     ::
         :::::::::::::::::::::::::::::::::::::::::::::::::::::

           -------------------------------------------------
          |                Property Printout                |
           -------------------------------------------------

    * Orbital Energies and Occupations

         #    Occupation            Energy/Eh            Energy/eV
      -------------------------------------------------------------
         1        2.0000           -1.0641634             -28.9574
       ...           ...                  ...                  ...
       134        2.0000           -0.4069695             -11.0742
       135        2.0000           -0.4066769             -11.0662
       136        2.0000           -0.4065560             -11.0630
       137        2.0000           -0.4057057             -11.0398
       138        2.0000           -0.4053380             -11.0298
       139        2.0000           -0.4031632             -10.9706
       140        1.9781           -0.3788064             -10.3078
       141        1.6414           -0.3757481             -10.2246
       142        1.3804           -0.3747323             -10.1970
       143        1.0000           -0.3610344              -9.8242
       144        1.0000           -0.3609776              -9.8227
       145        1.0000           -0.3317817              -9.0282
       146        0.9764           -0.3131572              -8.5214 (HOMO)
       147        0.0236           -0.3060815              -8.3289 (LUMO)
       148                         -0.2852425              -7.7618
       149                         -0.2757028              -7.5023
       150                         -0.2554266              -6.9505
       151                         -0.2538392              -6.9073
       152                         -0.2537953              -6.9061
       153                         -0.2536719              -6.9028
       154                         -0.2534887              -6.8978
       155                         -0.2533662              -6.8944
       156                         -0.2532379              -6.8910
       157                         -0.2469655              -6.7203
       ...                                ...                  ...
       302                          1.0254130              27.9029
      -------------------------------------------------------------
                  HL-Gap            0.0070757 Eh            0.1925 eV
             Fermi-level           -0.3424075 Eh           -9.3174 eV

     #   Z          covCN         q      C6AA      α(0)
     1   7 N        2.584    -0.221    25.838     7.549
     2   7 N        2.624    -0.201    25.373     7.481
     3   6 C        2.960     0.001    28.002     8.680
     4   6 C        3.132     0.089    25.825     8.319
     5   6 C        3.012    -0.040    28.969     8.829
     6   1 H        0.926     0.040     2.453     2.449
     7   6 C        3.012    -0.037    28.891     8.817
     8   1 H        0.926     0.041     2.431     2.438
     9   6 C        3.131     0.082    25.965     8.342
    10   6 C        2.960     0.002    27.976     8.676
    11   6 C        3.147     0.080    25.975     8.338
    12   6 C        3.023    -0.052    29.260     8.873
    13   1 H        0.926     0.032     2.552     2.498
    14   6 C        3.025    -0.047    29.137     8.854
    15   1 H        0.926     0.034     2.533     2.489
    16   6 C        3.143     0.073    26.129     8.364
    17   6 C        3.052    -0.000    27.990     8.677
    18   6 C        2.893     0.097    25.839     8.334
    19   6 C        2.952    -0.044    29.080     8.845
    20   6 C        2.923    -0.027    28.670     8.781
    21   1 H        0.926     0.063     2.163     2.300
    22   6 C        2.954    -0.044    29.100     8.848
    23   6 C        2.892     0.096    25.877     8.340
    24   7 N        2.584    -0.221    25.837     7.549
    25   7 N        2.624    -0.201    25.373     7.481
    26   6 C        2.960     0.001    28.001     8.679
    27   6 C        3.133     0.089    25.825     8.319
    28   6 C        3.012    -0.040    28.971     8.829
    29   1 H        0.926     0.040     2.454     2.449
    30   6 C        3.012    -0.037    28.891     8.817
    31   1 H        0.926     0.041     2.431     2.438
    32   6 C        3.132     0.082    25.964     8.342
    33   6 C        2.960     0.002    27.977     8.676
    34   6 C        3.147     0.080    25.976     8.338
    35   6 C        3.023    -0.052    29.261     8.873
    36   1 H        0.926     0.032     2.553     2.498
    37   6 C        3.025    -0.047    29.137     8.854
    38   1 H        0.926     0.034     2.533     2.489
    39   6 C        3.143     0.073    26.130     8.364
    40   6 C        3.052    -0.000    27.990     8.677
    41   6 C        2.893     0.097    25.839     8.334
    42   6 C        2.952    -0.044    29.080     8.845
    43   6 C        2.923    -0.027    28.671     8.781
    44   1 H        0.926     0.063     2.163     2.300
    45   6 C        2.954    -0.044    29.100     8.848
    46   6 C        2.892     0.096    25.877     8.340
    47  26 Fe       3.686     0.628     5.108     7.291
    48   6 C        3.052    -0.001    27.992     8.677
    49   6 C        2.893     0.097    25.845     8.335
    50   6 C        2.893     0.096    25.873     8.340
    51   6 C        2.953    -0.044    29.085     8.846
    52   6 C        2.953    -0.044    29.097     8.847
    53   1 H        0.926     0.072     2.065     2.247
    54   6 C        2.923    -0.027    28.672     8.781
    55   1 H        0.926     0.071     2.079     2.255
    56   1 H        0.926     0.063     2.164     2.300
    57   6 C        3.051    -0.001    27.993     8.677
    58   6 C        2.893     0.097    25.845     8.335
    59   6 C        2.893     0.096    25.874     8.340
    60   6 C        2.953    -0.044    29.085     8.846
    61   6 C        2.953    -0.044    29.097     8.847
    62   1 H        0.926     0.072     2.065     2.247
    63   6 C        2.923    -0.027    28.672     8.781
    64   1 H        0.926     0.071     2.079     2.255
    65   1 H        0.926     0.063     2.164     2.301
    66   1 H        0.926     0.072     2.062     2.246
    67   1 H        0.926     0.071     2.079     2.255
    68   1 H        0.926     0.072     2.062     2.246
    69   1 H        0.926     0.071     2.079     2.255
    70  17 Cl       0.968    -0.149   103.831    15.589
    71  17 Cl       0.969    -0.156   104.048    15.605
    72  17 Cl       0.968    -0.149   103.832    15.589
    73  17 Cl       0.969    -0.156   104.050    15.606
    74  17 Cl       0.969    -0.146   103.733    15.582
    75  17 Cl       0.968    -0.158   104.090    15.609
    76  17 Cl       0.969    -0.146   103.732    15.582
    77  17 Cl       0.968    -0.158   104.090    15.609
    78  17 Cl       0.788    -0.297   108.514    15.935

 Mol. C6AA /au·bohr⁶  :     140603.578405
 Mol. C8AA /au·bohr⁸  :    4208165.453444
 Mol. α(0) /au        :        604.494578


Wiberg/Mayer (AO) data.
largest (>0.10) Wiberg bond orders for each atom

 ---------------------------------------------------------------------------
     #   Z sym  total        # sym  WBO       # sym  WBO       # sym  WBO
 ---------------------------------------------------------------------------
     1   7 N    3.374 --     4 C    1.255     9 C    1.197    47 Fe   0.599
     2   7 N    3.440 --    11 C    1.257    16 C    1.214    47 Fe   0.655
     3   6 C    3.877 --     4 C    1.312    39 C    1.250    57 C    1.029
     4   6 C    3.923 --     3 C    1.312     1 N    1.255     5 C    1.151
     5   6 C    3.954 --     7 C    1.669     4 C    1.151     6 H    0.970
     6   1 H    0.998 --     5 C    0.970
     7   6 C    3.949 --     5 C    1.669     9 C    1.141     8 H    0.970
     8   1 H    0.998 --     7 C    0.970
     9   6 C    3.934 --    10 C    1.397     1 N    1.197     7 C    1.141
    10   6 C    3.870 --     9 C    1.397    11 C    1.164    17 C    1.029
    11   6 C    3.900 --    12 C    1.264     2 N    1.257    10 C    1.164
    12   6 C    3.929 --    14 C    1.511    11 C    1.264    13 H    0.972
    13   1 H    0.998 --    12 C    0.972
    14   6 C    3.917 --    12 C    1.511    16 C    1.245    15 H    0.971
    15   1 H    0.998 --    14 C    0.971
    16   6 C    3.916 --    26 C    1.251    14 C    1.245     2 N    1.214
    17   6 C    3.983 --    23 C    1.357    18 C    1.351    10 C    1.029
    18   6 C    3.913 --    19 C    1.406    17 C    1.351    76 Cl   0.992
    19   6 C    3.985 --    20 C    1.432    18 C    1.406    66 H    0.965
    20   6 C    3.980 --    22 C    1.432    19 C    1.432    21 H    0.967
    21   1 H    0.996 --    20 C    0.967
    22   6 C    3.985 --    20 C    1.432    23 C    1.405    67 H    0.965
    23   6 C    3.912 --    22 C    1.405    17 C    1.357    77 Cl   0.984
    24   7 N    3.374 --    27 C    1.255    32 C    1.198    47 Fe   0.599
    25   7 N    3.440 --    34 C    1.257    39 C    1.214    47 Fe   0.655
    26   6 C    3.877 --    27 C    1.312    16 C    1.251    48 C    1.028
    27   6 C    3.923 --    26 C    1.312    24 N    1.255    28 C    1.151
    28   6 C    3.954 --    30 C    1.669    27 C    1.151    29 H    0.970
    29   1 H    0.998 --    28 C    0.970
    30   6 C    3.949 --    28 C    1.669    32 C    1.141    31 H    0.970
    31   1 H    0.998 --    30 C    0.970
    32   6 C    3.934 --    33 C    1.396    24 N    1.198    30 C    1.141
    33   6 C    3.870 --    32 C    1.396    34 C    1.164    40 C    1.029
    34   6 C    3.900 --    35 C    1.264    25 N    1.257    33 C    1.164
    35   6 C    3.929 --    37 C    1.511    34 C    1.264    36 H    0.972
    36   1 H    0.998 --    35 C    0.972
    37   6 C    3.917 --    35 C    1.511    39 C    1.245    38 H    0.971
    38   1 H    0.998 --    37 C    0.971
    39   6 C    3.916 --     3 C    1.250    37 C    1.245    25 N    1.214
    40   6 C    3.983 --    46 C    1.357    41 C    1.351    33 C    1.029
    41   6 C    3.913 --    42 C    1.406    40 C    1.351    74 Cl   0.992
    42   6 C    3.985 --    43 C    1.432    41 C    1.406    68 H    0.965
    43   6 C    3.980 --    45 C    1.432    42 C    1.432    44 H    0.967
    44   1 H    0.996 --    43 C    0.967
    45   6 C    3.985 --    43 C    1.432    46 C    1.405    69 H    0.965
    46   6 C    3.912 --    45 C    1.405    40 C    1.357    75 Cl   0.984
    47  26 Fe   4.071 --    78 Cl   1.080    25 N    0.655     2 N    0.655
                            24 N    0.599     1 N    0.599
    48   6 C    3.983 --    50 C    1.356    49 C    1.353    26 C    1.028
    49   6 C    3.915 --    51 C    1.405    48 C    1.353    72 Cl   0.991
    50   6 C    3.912 --    52 C    1.406    48 C    1.356    73 Cl   0.984
    51   6 C    3.985 --    54 C    1.433    49 C    1.405    53 H    0.965
    52   6 C    3.985 --    54 C    1.432    50 C    1.406    55 H    0.965
    53   1 H    0.993 --    51 C    0.965
    54   6 C    3.980 --    51 C    1.433    52 C    1.432    56 H    0.967
    55   1 H    0.994 --    52 C    0.965
    56   1 H    0.996 --    54 C    0.967
    57   6 C    3.983 --    59 C    1.356    58 C    1.352     3 C    1.029
    58   6 C    3.914 --    60 C    1.406    57 C    1.352    70 Cl   0.991
    59   6 C    3.911 --    61 C    1.406    57 C    1.356    71 Cl   0.984
    60   6 C    3.985 --    63 C    1.432    58 C    1.406    62 H    0.965
    61   6 C    3.985 --    63 C    1.432    59 C    1.406    64 H    0.965
    62   1 H    0.993 --    60 C    0.965
    63   6 C    3.980 --    60 C    1.432    61 C    1.432    65 H    0.967
    64   1 H    0.994 --    61 C    0.965
    65   1 H    0.996 --    63 C    0.967
    66   1 H    0.993 --    19 C    0.965
    67   1 H    0.994 --    22 C    0.965
    68   1 H    0.993 --    42 C    0.965
    69   1 H    0.994 --    45 C    0.965
    70  17 Cl   1.134 --    58 C    0.991
    71  17 Cl   1.125 --    59 C    0.984
    72  17 Cl   1.134 --    49 C    0.991
    73  17 Cl   1.125 --    50 C    0.984
    74  17 Cl   1.137 --    41 C    0.992
    75  17 Cl   1.124 --    46 C    0.984
    76  17 Cl   1.137 --    18 C    0.992
    77  17 Cl   1.124 --    23 C    0.984
    78  17 Cl   1.208 --    47 Fe   1.080
 ---------------------------------------------------------------------------

Topologies differ in total number of bonds
Writing topology from bond orders to xtbtopo.mol

molecular dipole:
                 x           y           z       tot (Debye)
 q only:        0.002       0.012      -0.569
   full:        0.003       0.015      -0.694       1.764
molecular quadrupole (traceless):
                xx          xy          yy          xz          yz          zz
 q only:       34.162       0.219      36.206       0.387       2.167     -70.368
  q+dip:       30.649       0.489      30.992       0.143       1.873     -61.641
   full:       27.123       0.469      26.453       0.052       1.598     -53.576

           -------------------------------------------------
          |                Geometry Summary                 |
           -------------------------------------------------

      molecular mass/u    :      979.5795901
   center of mass at/Å    :        0.3292499       0.0489282      -0.0355536
  moments of inertia/u·Å² :        0.1358917E+05   0.1371713E+05   0.2313014E+05
rotational constants/cm⁻¹ :        0.1240520E-02   0.1228948E-02   0.7288167E-03

 * 81 selected distances

     #   Z          #   Z                                           value/Å
     1   7 N        4   6 C                                       1.3591024
     3   6 C        4   6 C                                       1.3925503
     4   6 C        5   6 C                                       1.4400116
     5   6 C        6   1 H                                       1.0727275
     5   6 C        7   6 C                                       1.3515275
     7   6 C        8   1 H                                       1.0725487
     1   7 N        9   6 C                                       1.3711818
     7   6 C        9   6 C                                       1.4417402
     9   6 C       10   6 C                                       1.3778505
     2   7 N       11   6 C                                       1.3611504
    10   6 C       11   6 C                                       1.4250983
    11   6 C       12   6 C                                       1.4138516
    12   6 C       13   1 H                                       1.0724639
    12   6 C       14   6 C                                       1.3727685
    14   6 C       15   1 H                                       1.0724215
     2   7 N       16   6 C                                       1.3704484
    14   6 C       16   6 C                                       1.4177754
    17   6 C       18   6 C                                       1.3971464
    18   6 C       19   6 C                                       1.3847364
    19   6 C       20   6 C                                       1.3842905
    20   6 C       21   1 H                                       1.0786484
    20   6 C       22   6 C                                       1.3841913
    17   6 C       23   6 C                                       1.3955560
    22   6 C       23   6 C                                       1.3850734
    16   6 C       26   6 C                                       1.4077931
    24   7 N       27   6 C                                       1.3591123
    26   6 C       27   6 C                                       1.3924390
    27   6 C       28   6 C                                       1.4399728
    28   6 C       29   1 H                                       1.0727282
    28   6 C       30   6 C                                       1.3515407
    30   6 C       31   1 H                                       1.0725497
    24   7 N       32   6 C                                       1.3710745
    30   6 C       32   6 C                                       1.4417391
    32   6 C       33   6 C                                       1.3778955
    25   7 N       34   6 C                                       1.3612009
    33   6 C       34   6 C                                       1.4250400
    34   6 C       35   6 C                                       1.4138181
    35   6 C       36   1 H                                       1.0724586
    35   6 C       37   6 C                                       1.3727574
    37   6 C       38   1 H                                       1.0724173 (min)
     3   6 C       39   6 C                                       1.4079610
    25   7 N       39   6 C                                       1.3704365
    37   6 C       39   6 C                                       1.4177927
    40   6 C       41   6 C                                       1.3971055
    41   6 C       42   6 C                                       1.3847535
    42   6 C       43   6 C                                       1.3842875
    43   6 C       44   1 H                                       1.0786452
    43   6 C       45   6 C                                       1.3841977
    40   6 C       46   6 C                                       1.3955973
    45   6 C       46   6 C                                       1.3850489
    48   6 C       49   6 C                                       1.3968139
    48   6 C       50   6 C                                       1.3959150
    49   6 C       51   6 C                                       1.3850951
    50   6 C       52   6 C                                       1.3847531
    51   6 C       53   1 H                                       1.0779099
    51   6 C       54   6 C                                       1.3842016
    52   6 C       54   6 C                                       1.3841960
    52   6 C       55   1 H                                       1.0780266
    54   6 C       56   1 H                                       1.0786409
    57   6 C       58   6 C                                       1.3969812
    57   6 C       59   6 C                                       1.3960524
    58   6 C       60   6 C                                       1.3850839
    59   6 C       61   6 C                                       1.3847610
    60   6 C       62   1 H                                       1.0779166
    60   6 C       63   6 C                                       1.3841961
    61   6 C       63   6 C                                       1.3841842
    61   6 C       64   1 H                                       1.0780317
    63   6 C       65   1 H                                       1.0786382
    19   6 C       66   1 H                                       1.0778635
    22   6 C       67   1 H                                       1.0780552
    42   6 C       68   1 H                                       1.0778620
    45   6 C       69   1 H                                       1.0780516
    58   6 C       70  17 Cl                                      1.7271549
    59   6 C       71  17 Cl                                      1.7280942
    49   6 C       72  17 Cl                                      1.7271705
    50   6 C       73  17 Cl                                      1.7280802
    41   6 C       74  17 Cl                                      1.7273267
    46   6 C       75  17 Cl                                      1.7282783
    18   6 C       76  17 Cl                                      1.7273344
    23   6 C       77  17 Cl                                      1.7282906
    47  26 Fe      78  17 Cl                                      2.1335242 (max)

 * 5 distinct bonds (by element types)

   Z      Z             #   av. dist./Å        max./Å        min./Å
   1 H    6 C          20     1.0759303     1.0786484     1.0724173
   6 C    6 C          44     1.3955941     1.4417402     1.3515275
   6 C    7 N           8     1.3654634     1.3711818     1.3591024
   6 C   17 Cl          8     1.7277162     1.7282906     1.7271549
  17 Cl  26 Fe          1     2.1335242     2.1335242     2.1335242


optimized geometry written to: xtbopt.xyz


           -------------------------------------------------
          | TOTAL ENERGY             -160.315870329197 Eh   |
          | GRADIENT NORM               0.000116115461 Eh/α |
          | HOMO-LUMO GAP               0.192538704302 eV   |
           -------------------------------------------------

------------------------------------------------------------------------
 * finished run on 2026/09/18 at 10:12:14.402     
------------------------------------------------------------------------
 total:
 * wall-time:     0 d,  0 h,  0 min, 17.743 sec
 *  cpu-time:     0 d,  0 h,  0 min, 31.860 sec
 * ratio c/w:     1.796 speedup
 SCF:
 * wall-time:     0 d,  0 h,  0 min,  0.429 sec
 *  cpu-time:     0 d,  0 h,  0 min,  0.704 sec
 * ratio c/w:     1.642 speedup
 ANC optimizer:
 * wall-time:     0 d,  0 h,  0 min, 17.296 sec
 *  cpu-time:     0 d,  0 h,  0 min, 31.132 sec
 * ratio c/w:     1.800 speedup

normal termination of xtb
Note: The following floating-point exceptions are signalling: IEEE_UNDERFLOW_FLAG
