58
aligned d3map frame 1
Cu   0.5033515367 -0.8871630487  0.2115496493
C   -0.1931208435  0.8654985787  0.1234116042
Cl   1.2171696663 -2.8767918037  0.2355987650
N    0.4101489112  2.0737701376  0.1059969567
N   -1.5128664685  1.1346125233  0.0081130442
C   -0.5200615545  3.0837991515 -0.0124574419
C    1.8345724091  2.3346715393  0.2113409115
C   -2.5183219454  0.1307877445 -0.0309480232
C   -1.7425593605  2.4876258254 -0.0772447219
C   -0.1594531021  4.5240272706 -0.0543085452
C    2.6753329596  1.0949353617  0.0474355844
H    2.0271384979  2.7999716390  1.1827436730
H    2.0976951128  3.0618926764 -0.5636109421
C   -3.1415862718 -0.2560875514  1.1542572336
C   -2.8554543074 -0.4463684768 -1.2544401443
C   -3.1025747592  3.0728311496 -0.2176640474
H    0.4356619898  4.7526574794 -0.9390415553
H    0.4209231068  4.8050421486  0.8241362894
H   -1.0634839757  5.1254545242 -0.0824833149
C    2.9388860460  0.6087669224 -1.2371042942
C    3.1925936110  0.4302846212  1.1638008753
C   -4.1277780614 -1.2275734648  1.0926925665
C   -2.7226429458  0.3539243628  2.4564394102
C   -3.8461785914 -1.4147707210 -1.2737747251
C   -2.1324801802 -0.0409046096 -2.5015014404
H   -3.3348850287  3.7206243620  0.6273338751
H   -3.8434722186  2.2778440861 -0.2617236173
H   -3.1743673819  3.6681828090 -1.1272887327
C    3.6987709766 -0.5401514555 -1.3855390529
C    2.3915689713  1.2978366619 -2.4542842461
C    2.9166404584  0.9082879730  2.5609420372
C    3.9537085422 -0.7121780707  0.9763297759
C   -4.4919407897 -1.8138540278 -0.1115573460
H   -4.6156177226 -1.5404976066  2.0044231308
H   -1.6705969030  0.1348018969  2.6405302438
H   -3.3111430518 -0.0484631146  3.2759600893
H   -2.8420186956  1.4368326589  2.4379515667
H   -4.1138748277 -1.8747071353 -2.2138626885
H   -2.1617280540  1.0397413786 -2.6386032457
H   -2.5716195407 -0.5176348122 -3.3731196430
H   -1.0868550195 -0.3436562417 -2.4276675691
C    4.2024098760 -1.2225654388 -0.2888152630
H    3.8799029946 -0.9288291976 -2.3776187529
H    1.3099453771  1.4071377247 -2.3866224491
H    2.6196094853  0.7208436223 -3.3464050986
H    2.8308064107  2.2896260417 -2.5719952027
H    3.3217040588  0.2033003827  3.2816928487
H    1.8444593126  0.9917125675  2.7353191220
H    3.3770777799  1.8802064042  2.7436394447
H    4.3336090122 -1.2405479297  1.8386964440
C   -5.5372856237 -2.8851343374 -0.1526811892
C    4.9352703687 -2.5137376075 -0.4564137884
H   -6.0757046076 -2.8679019817 -1.0973424950
H   -6.2463937971 -2.7701947309  0.6635491146
H   -5.0630687874 -3.8616746404 -0.0533838856
H    4.2162041233 -3.3273142819 -0.3552158344
H    5.6972414535 -2.6370278125  0.3100178001
H    5.3962659311 -2.5830671181 -1.4389335171
58
aligned d3map frame 2
Cu   0.5033515367 -0.8871630487  0.2115496493
C   -0.1930894667  0.8656289979  0.1258384751
Cl   1.2089874870 -2.8733091238  0.3730045115
N    0.4064268810  2.0752515750  0.1662914791
N   -1.5155978304  1.1358353496  0.0527629118
C   -0.5280916074  3.0868724616  0.1129986275
C    1.8330397086  2.3359374166  0.2378423520
C   -2.5207514579  0.1322681580  0.0010666120
C   -1.7502665074  2.4906568440  0.0428342298
C   -0.1715416363  4.5285435907  0.1344410839
C    2.6420093421  1.1075478638  0.5653303926
H    1.9937465906  3.0976472679  1.0076529493
H    2.1527025530  2.7584817818 -0.7194887373
C   -3.0279421050 -0.3845006178  1.1923393738
C   -2.9742209094 -0.3142191718 -1.2391183194
C   -3.1151550780  3.0774284031 -0.0240906128
H    0.5229136463  4.7692325836 -0.6701099318
H    0.2995829054  4.8008811962  1.0794312136
H   -1.0691347230  5.1278887752  0.0123342411
C    3.2978673452  0.3948172719 -0.4434331005
C    2.7350310307  0.6803482937  1.8937226967
C   -4.0161886803 -1.3530375535  1.1208980946
C   -2.4837132500  0.0835273740  2.5064870395
C   -3.9637612961 -1.2837907892 -1.2680383666
C   -2.3749793302  0.2317932552 -2.4985391115
H   -3.2078687030  3.7440519330 -0.8808805580
H   -3.3328207423  3.6533868018  0.8751820447
H   -3.8538532064  2.2843421478 -0.1153247044
C    4.0233430025 -0.7367948139 -0.1077435368
C    3.2081948694  0.8095448041 -1.8844758711
C    2.0372510240  1.4224898418  2.9974667573
C    3.4647264047 -0.4592938261  2.1909424963
C   -4.4952820580 -1.8105291775 -0.0989859452
H   -4.4146645425 -1.7664227535  2.0359399519
H   -1.4385845097 -0.2174979955  2.5928190185
H   -3.0403713381 -0.3527726107  3.3308693316
H   -2.5294224568  1.1693183508  2.5860155508
H   -4.3211081864 -1.6425112869 -2.2223906134
H   -2.4827216809  1.3150653473 -2.5461401752
H   -2.8510940562 -0.2055198433 -3.3714331880
H   -1.3103183650 -0.0016143279 -2.5269573052
C    4.1031766674 -1.1897094775  1.2005311065
H    4.5100647841 -1.3026475675 -0.8888271045
H    2.1682605295  0.8787192374 -2.2018582712
H    3.7049068824  0.0762464144 -2.5138474861
H    3.6883060778  1.7753555032 -2.0478062882
H    2.1453699378  0.8866561193  3.9366108759
H    0.9739763611  1.5266875488  2.7852415983
H    2.4615899752  2.4193434134  3.1265456377
H    3.5141789518 -0.8024138877  3.2146223559
C   -5.5414741985 -2.8804524400 -0.1519644946
C    4.8015835821 -2.4714898853  1.5190637997
H   -6.2022379453 -2.8222513963  0.7097463493
H   -5.0626646117 -3.8597612021 -0.1435378439
H   -6.1335670798 -2.8027027145 -1.0606602485
H    4.0979279469 -3.2892072535  1.3595417432
H    5.1290168766 -2.4974892694  2.5557672325
H    5.6570402161 -2.6275569150  0.8655661364
58
aligned d3map frame 3
Cu   0.5033515367 -0.8871630487  0.2115496493
C   -0.1935827319  0.8654159199  0.1257764862
Cl   1.2092847302 -2.8725529441  0.3807613091
N    0.4068247515  2.0744923676  0.1697675130
N   -1.5159590604  1.1367118057  0.0553291154
C   -0.5269572423  3.0869280156  0.1209007870
C    1.8340602535  2.3311948777  0.2406908303
C   -2.5217543062  0.1336647590  0.0070908565
C   -1.7496733532  2.4917442229  0.0508687177
C   -0.1699270120  4.5284757631  0.1465865014
C    2.6354723849  1.1068877923  0.6010049843
H    1.9947146648  3.1092303136  0.9939612955
H    2.1598892342  2.7303661358 -0.7244668955
C   -3.0142859621 -0.3930075902  1.2003067741
C   -2.9900217338 -0.3029356698 -1.2310202876
C   -3.1140981833  3.0799454880 -0.0136356173
H    0.3024441841  4.7977967934  1.0918780753
H   -1.0675319432  5.1283422531  0.0271807272
H    0.5233571773  4.7714877284 -0.6582253113
C    3.3131245540  0.3803977018 -0.3832112876
C    2.6992261621  0.6980532535  1.9369173419
C   -4.0034346078 -1.3608778017  1.1328416219
C   -2.4541494822  0.0636966353  2.5117536178
C   -3.9800823266 -1.2721033397 -1.2559080443
C   -2.4054045386  0.2528541533 -2.4930195236
H   -3.2347210076  3.6815134744 -0.9143304179
H   -3.2982040308  3.7223740449  0.8467570970
H   -3.8578762968  2.2864856145 -0.0222260183
C    4.0316866246 -0.7457872395 -0.0157595491
C    3.2547751431  0.7739151223 -1.8318038228
C    1.9779216647  1.4556891535  3.0146830860
C    3.4218448915 -0.4373526393  2.2658702665
C   -4.4975712193 -1.8081841632 -0.0848488073
H   -4.3907098945 -1.7819108686  2.0491972441
H   -1.4109296463 -0.2471393725  2.5867329092
H   -3.0068725432 -0.3721674761  3.3390189171
H   -2.4894294435  1.1494475928  2.5973562111
H   -4.3487969910 -1.6231643183 -2.2087809217
H   -1.3384399932  0.0317285541 -2.5295846842
H   -2.5258811139  1.3348955780 -2.5370004814
H   -2.8827717002 -0.1873672863 -3.3637520359
C    4.0828006729 -1.1805314107  1.3000522772
H    4.5357754573 -1.3220481455 -0.7779466958
H    3.7394289169  1.7367234520 -1.9993215551
H    2.2219001450  0.8388707631 -2.1722935530
H    3.7637634091  0.0306827736 -2.4393334069
H    2.0697210038  0.9359200620  3.9645446050
H    0.9185849188  1.5526846859  2.7806069488
H    2.3961882671  2.4561526162  3.1351364616
H    3.4484628387 -0.7664092245  3.2950344324
C   -5.5446524438 -2.8774626680 -0.1332276350
C    4.7761372107 -2.4565602728  1.6513865565
H   -6.2008357131 -2.8193289046  0.7320122049
H   -5.0664733293 -3.8570943625 -0.1276547556
H   -6.1414636636 -2.7987388410 -1.0387028788
H    4.0812636030 -3.2790233383  1.4785455375
H    5.0727845552 -2.4713428748  2.6975385521
H    5.6514082006 -2.6148834320  1.0251935758
58
aligned d3map frame 4
Cu   0.5033515367 -0.8871630487  0.2115496493
C   -0.1939360089  0.8652621572  0.1256910840
Cl   1.2100581223 -2.8716123773  0.3883325689
N    0.4073947064  2.0737830484  0.1731511699
N   -1.5162502931  1.1376560202  0.0578585013
C   -0.5257228863  3.0869907279  0.1286847887
C    1.8350937456  2.3283653220  0.2428724512
C   -2.5229415349  0.1356977592  0.0052607080
C   -1.7489334030  2.4928789911  0.0580464815
C   -0.1681049698  4.5283204097  0.1591184277
C    2.6327595971  1.1068481998  0.6208239995
H    1.9959511131  3.1154617120  0.9865751438
H    2.1635090012  2.7143503412 -0.7267095427
C   -3.0119385228 -0.4001858439  1.1958073879
C   -2.9959709539 -0.2903592757 -1.2347724141
C   -3.1130103619  3.0825249308 -0.0002534224
H    0.5309843970  4.7722714877 -0.6403308533
H    0.2973273636  4.7960148881  1.1083299002
H   -1.0646638169  5.1287620115  0.0346858078
C    3.3214677956  0.3727314682 -0.3500094063
C    2.6817188259  0.7085375200  1.9605424558
C   -4.0016348838 -1.3671621096  1.1238076071
C   -2.4478633377  0.0462174614  2.5090597602
C   -3.9865900784 -1.2588720617 -1.2641678558
C   -2.4165977461  0.2763652814 -2.4944075323
H   -3.8553332066  2.2901077247 -0.0626765993
H   -3.2178016668  3.7305552471 -0.8699420408
H   -3.3141608522  3.6787883013  0.8893703253
C    4.0340936286 -0.7516662678  0.0340975738
C    3.2818630480  0.7559911008 -1.8019831054
C    1.9513272341  1.4765562952  3.0247464748
C    3.3985391213 -0.4256118692  2.3061763713
C   -4.5000118876 -1.8045405219 -0.0957656248
H   -4.3860305243 -1.7954383719  2.0380112904
H   -1.4035948054 -0.2626784976  2.5775121433
H   -2.9965009400 -0.3981553217  3.3345040034
H   -2.4855740508  1.1311030097  2.6041523423
H   -4.3589549908 -1.6017149842 -2.2186256977
H   -2.8961171484 -0.1580674761 -3.3668797666
H   -1.3493251859  0.0579130774 -2.5364856812
H   -2.5395358879  1.3584817531 -2.5297169033
C    4.0687837669 -1.1772492406  1.3534442586
H    4.5464673494 -1.3340349103 -0.7178292968
H    3.7654579835  1.7193002024 -1.9695578465
H    2.2535720364  0.8147477972 -2.1572086487
H    3.8017686950  0.0103053760 -2.3971336590
H    2.0369884412  0.9673353752  3.9808821316
H    0.8935795517  1.5695498455  2.7820551838
H    2.3672097013  2.4789312834  3.1372618712
H    3.4133949803 -0.7465781008  3.3381444910
C   -5.5473858800 -2.8733000687 -0.1491410199
C    4.7553417376 -2.4522356591  1.7214890624
H   -6.2022952184 -2.8202942611  0.7174021690
H   -5.0693765350 -3.8530369112 -0.1501151900
H   -6.1455174274 -2.7890176444 -1.0532425439
H    4.0633444150 -3.2750723319  1.5391767605
H    5.0335699702 -2.4634546736  2.7727216094
H    5.6414345591 -2.6130641809  1.1113351074
58
aligned d3map frame 5
Cu   0.5033515367 -0.8871630487  0.2115496493
C   -0.1938005483  0.8651981173  0.1230626163
Cl   1.2195713574 -2.8760678478  0.2177327946
N    0.4117178665  2.0723066580  0.0981639807
N   -1.5127389567  1.1355691809  0.0023070959
C   -0.5164354012  3.0830075652 -0.0293729379
C    1.8370394900  2.3273660559  0.2049703638
C   -2.5189870569  0.1324666765 -0.0346209203
C   -1.7397941182  2.4883596063 -0.0931650380
C   -0.1543613027  4.5226663737 -0.0803020255
C    2.6727707900  1.0930846163 -0.0175349608
H    2.0378805237  2.7522814417  1.1928827919
H    2.0956416872  3.0844500716 -0.5422742839
C   -3.1601590820 -0.2340098941  1.1475569737
C   -2.8381775920 -0.4652647951 -1.2530620679
C   -3.0979808332  3.0749347965 -0.2450230620
H    0.4332944588  4.7471492818 -0.9711254272
H    0.4332474406  4.8066918195  0.7922773389
H   -1.0580380188  5.1248511446 -0.1041491216
C    2.8889890753  0.6389575420 -1.3224856648
C    3.2310427105  0.4017050547  1.0623300401
C   -4.1455318551 -1.2064719151  1.0878829271
C   -2.7617780393  0.3990742931  2.4452922069
C   -3.8284483774 -1.4341710211 -1.2704892144
C   -2.0971914585 -0.0812705018 -2.4962601369
H   -3.8433738604  2.2829830263 -0.2516928074
H   -3.1749947784  3.6335561925 -1.1774016983
H   -3.3190044759  3.7575999346  0.5749978081
C    3.6391219130 -0.5078028401 -1.5270557515
C    2.3024228137  1.3609067924 -2.5017287258
C    3.0104360553  0.8456652259  2.4803960175
C    3.9822467818 -0.7367086569  0.8186479627
C   -4.4913637507 -1.8136617474 -0.1114069283
H   -4.6471206020 -1.5036951761  1.9974235952
H   -1.7088546440  0.1972440542  2.6429645561
H   -3.3531156333  0.0000165117  3.2644136984
H   -2.8958909355  1.4799012030  2.4109899466
H   -4.0819953751 -1.9102289338 -2.2064438803
H   -2.1165161780  0.9977125832 -2.6474657804
H   -2.5292631745 -0.5660047280 -3.3669859236
H   -1.0548117043 -0.3910151100 -2.4056926512
C    4.1809652049 -1.2176994968 -0.4667079374
H    3.7827767105 -0.8718511077 -2.5345549225
H    1.2228715425  1.4628928479 -2.3993385102
H    2.5064503580  0.8122803560 -3.4172787436
H    2.7334703323  2.3581489560 -2.6021633272
H    3.4483646546  0.1263764537  3.1669692970
H    1.9458537662  0.9177465337  2.7005638018
H    3.4728397582  1.8158553753  2.6669762634
H    4.3935829703 -1.2860764495  1.6529422391
C   -5.5353992191 -2.8863127094 -0.1497671936
C    4.9030004911 -2.5063663953 -0.6912433461
H   -5.0621748108 -3.8605633531 -0.0266470353
H   -6.0594840862 -2.8857507733 -1.1025483902
H   -6.2567641158 -2.7580012988  0.6535718586
H    4.1900966828 -3.3215272950 -0.5629679115
H    5.7044430957 -2.6402365092  0.0319894649
H    5.3114208414 -2.5618226803 -1.6975979733
58
aligned d3map frame 6
Cu   0.5033515367 -0.8871630487  0.2115496493
C   -0.1940646173  0.8650810010  0.1232555484
Cl   1.2218162831 -2.8752595710  0.2130065713
N    0.4128176590  2.0714902234  0.0959356118
N   -1.5125892311  1.1366131619  0.0007045592
C   -0.5140669738  3.0829217641 -0.0347667724
C    1.8382723048  2.3248413765  0.2045293284
C   -2.5213373049  0.1358977240 -0.0319686256
C   -1.7380101965  2.4894946851 -0.0981906207
C   -0.1507022279  4.5221713291 -0.0883322607
C    2.6733934344  1.0914770374 -0.0254756939
H    2.0393205015  2.7437565489  1.1949405107
H    2.0974588277  3.0861020460 -0.5382476724
C   -3.1647281905 -0.2218278250  1.1516964111
C   -2.8422793491 -0.4668063747 -1.2475070632
C   -3.0952930408  3.0773090187 -0.2533440786
H    0.4381481922  4.7443964679 -0.9789260127
H    0.4359991944  4.8075490212  0.7844204147
H   -1.0539077268  5.1249735077 -0.1145684753
C    2.8832543273  0.6413774084 -1.3328718776
C    3.2383179187  0.3977096350  1.0493916525
C   -4.1548385429 -1.1897469530  1.0963443812
C   -2.7640488554  0.4158409724  2.4464896207
C   -3.8372788496 -1.4309223762 -1.2606207606
C   -2.0985752178 -0.0928560703 -2.4921157069
H   -3.8418977704  2.2864858012 -0.2563883331
H   -3.1711597353  3.6313691420 -1.1885437996
H   -3.3155502476  3.7643940047  0.5631689993
C    3.6334029375 -0.5040441162 -1.5447696915
C    2.2900557979  1.3663779281 -2.5068908132
C    3.0254819515  0.8374214480  2.4699797219
C    3.9895217572 -0.7391055981  0.7983560967
C   -4.5032120396 -1.8009060538 -0.1001504934
H   -4.6584618614 -1.4798116138  2.0070744043
H   -1.7119410619  0.2108972622  2.6452769900
H   -3.3570690591  0.0229958613  3.2673981334
H   -2.8939438481  1.4970073846  2.4070921988
H   -4.0926657568 -1.9104868019 -2.1942825918
H   -2.1128553847  0.9853758562 -2.6491189112
H   -2.5321121390 -0.5803131106 -3.3605914618
H   -1.0576747007 -0.4068323448 -2.3989663382
C    4.1818341079 -1.2162522948 -0.4893973172
H    3.7721343268 -0.8649361933 -2.5540969678
H    1.2104500326  1.4636149913 -2.4005004038
H    2.4932246431  0.8227728651 -3.4256210550
H    2.7167050090  2.3658156574 -2.6041206532
H    3.4888125689  1.8071208503  2.6568515059
H    3.4673924719  0.1161532648  3.1519150309
H    1.9621576216  0.9085848723  2.6964036888
H    4.4061752740 -1.2902558660  1.6288272985
C   -5.5536217055 -2.8674742717 -0.1343767783
C    4.9047561357 -2.5031206782 -0.7213952901
H   -6.0825721139 -2.8625841282 -1.0845368421
H   -6.2701882225 -2.7358526756  0.6727545158
H   -5.0855705702 -3.8447400371 -0.0150235009
H    5.3061385853 -2.5559105477 -1.7307199965
H    4.1945530075 -3.3200402678 -0.5894982754
H    5.7116461169 -2.6365874641 -0.0041551989
