241
constructed unoptimized 1a-Ru-allenylidene + 4d + OTs; inherited bound-I pose; charge=0; proposed multiplicity=1; NOT TS
Ru  0.08912200  1.02638600 -1.52795600
N  -3.10819000 -1.12664300  3.22804100
N  -4.66589000 -2.14979400  1.97504000
N   1.57117600 -4.44780400 -0.59905700
N   2.83965100 -4.16757800  1.27429800
N  -7.71144800 -1.15555600  0.34493200
N   6.18551900 -2.83738600  1.36181800
C  -0.36014400  1.58952300  4.89134100
C  -0.04568300  0.24674900  4.67753800
C  -1.00116800 -0.63036800  4.16523400
C  -2.29272000 -0.17861800  3.84767500
C  -2.63328600  1.15657600  4.11534600
C  -1.66130400  2.01697300  4.63049400
C   1.32956200 -0.24573900  4.96248700
C  -4.42477400 -1.14051800  2.84269500
C  -5.96597900 -2.52695400  1.46537800
C  -5.91421900 -4.00499600  0.94090800
C  -7.29315500 -4.39477800  0.38189400
C  -5.59113900 -4.92476000  2.13491900
C  -4.85652600 -4.20085100 -0.16265700
C  -2.24939000 -4.44934600 -3.59581100
C  -0.75937800 -4.33803500 -3.43406200
C   1.98805200 -4.16718700 -3.03668800
C   1.44069800 -4.03299700 -4.31049000
C   0.06801900 -4.12126100 -4.53520400
C   2.82785600 -4.44260800 -0.05265600
C   4.07298500 -3.97931900  2.02442200
C   3.77990200 -3.82839100  3.55823100
C   5.11286400 -3.63619400  4.30435800
C   3.12472500 -5.13655300  4.04606900
C   2.85211200 -2.61669800  3.80341200
C   2.55762300 -2.27675000  5.26218900
C   4.83516300 -2.74483400  1.49372400
C  -6.40512700 -1.53976900  0.36271900
C  -8.66979400 -1.31743600  1.45688000
C  -9.81699000 -0.37261900  1.08581600
C  -9.79117200 -0.39173500 -0.44266000
C  -8.27900100 -0.39258900 -0.79784000
C   6.99863900 -4.06468900  1.33511800
C   8.32594400 -3.58713800  0.73571000
C   8.42971600 -2.14239300  1.24019800
C   6.97966300 -1.62364000  1.11419000
C   2.38191700 -3.81147400 -5.46275100
C  -1.99245200  3.45491200  4.92047400
C  -7.77081300  1.05209500 -0.81762600
C  -7.90969300  1.83805200 -1.97375700
C  -7.23770000  1.64593400  0.33371400
C  -6.84585000  2.98042600  0.33633700
C  -6.96247800  3.71979000 -0.83657300
C   6.70755700 -0.96021400 -0.22319000
C   7.02669400  0.39546300 -0.36213900
C   6.15013000 -1.64730300 -1.30634600
C   6.71321100  1.08734100 -1.52436600
C   5.82957300 -0.97262500 -2.47964100
C   6.07790100  0.39711000 -2.55491800
C  -7.49594000  3.16511800 -1.99812500
O   2.33753300  0.43758900  4.89216800
O   1.31189900 -1.54597300  5.29979200
O  -5.60628900 -1.17821300 -0.50552200
O   4.24855400 -1.67585200  1.30581400
F   1.76941300 -3.18092800 -6.49310700
F   2.87506000 -4.97117000 -5.94671200
F   3.44266000 -3.05143900 -5.10190300
F  -1.71761600  3.78007900  6.20237500
F  -3.28988800  3.74776200  4.69734500
F  -1.25326000  4.29480600  4.14735700
F  -2.67996000 -5.72345600 -3.47586900
F  -2.90607800 -3.73017300 -2.64979600
F  -2.66691300 -3.99827000 -4.80085400
S   4.25521600 -4.80139200 -0.89050900
S  -5.63557800 -0.09878400  3.39724100
H   0.39259700  2.26988600  5.27228400
H  -0.73285800 -1.66664800  3.98663900
H  -3.63701200  1.50684300  3.92598900
H  -2.60721600 -1.99208300  3.00607100
H  -3.87686500 -2.72900200  1.70654500
H  -6.67318600 -2.49484100  2.29617700
H  -7.27824900 -5.44398300  0.06869400
H  -8.07874700 -4.28776400  1.13835200
H  -7.56755300 -3.79238500 -0.48914300
H  -6.34279400 -4.82216700  2.92692000
H  -5.59041000 -5.97024700  1.80470400
H  -4.60942000 -4.70536400  2.56330700
H  -3.83360400 -4.09195800  0.21036000
H  -4.99336100 -3.49714900 -0.98542300
H  -0.34351600 -4.00224900 -5.52894600
H   1.95712000 -3.95923100  1.73933500
H   4.68689000 -4.87355100  1.89637900
H   4.93747400 -3.59728000  5.38441500
H   5.79670500 -4.47147800  4.11830500
H   5.61853900 -2.70973500  4.01304000
H   3.02827000 -5.13876200  5.13697100
H   2.12583400 -5.26809700  3.62444600
H   3.74096000 -6.00019000  3.77040800
H   1.87957200 -2.81153400  3.35173700
H   3.26520700 -1.73546400  3.31169100
H   3.34124900 -1.67700300  5.73109900
H   2.36137000 -3.15962300  5.87169600
H  -9.02464300 -2.35295800  1.51194600
H  -8.19377300 -1.05353600  2.40444500
H  -9.61334700  0.63619600  1.45872800
H  -10.77234300 -0.70090200  1.50361700
H   7.14898900 -4.45391100  2.34970900
H   6.50436200 -4.82612600  0.72790900
H   8.26725500 -3.60050500 -0.35802700
H   9.16891000 -4.21365600  1.03906400
H  -4.93429300 -5.21838600 -0.56214000
H  -10.31184000  0.45082900 -0.90456800
H  -10.24154200 -1.31871600 -0.81804800
H  -8.33103500  1.41063000 -2.87642300
H  -7.08357300  1.05446900  1.22889900
H  -6.42625500  3.44038300  1.22148300
H   8.73353900 -2.12919700  2.29362600
H   9.13405700 -1.52932200  0.67295400
H   7.46182700  0.93151400  0.47530900
H   5.88280700 -2.69282700 -1.20575700
H   6.89424600  2.14978200 -1.61923700
H   5.33934700 -1.47810600 -3.30229300
H  -7.57575700  3.76847100 -2.89344900
Ru -1.67581900  3.13928800 -1.10343500
C   1.70950300  2.01829300 -1.40399000
S  -0.63262200  1.86990200  0.56363200
S  -0.73529200  2.49015800 -3.16931600
Cl  0.00471600  4.88764000 -0.81670500
C   1.31991800 -0.87126700 -1.73338300
C   0.55426100 -0.64720400 -2.92884400
C  -0.84937000 -0.85897900 -2.60662500
C  -0.94772600 -1.09986100 -1.21898900
C   0.39666800 -1.06859000 -0.66393900
C   2.80679100 -0.93227000 -1.65156400
H   3.14115600 -1.95276500 -1.86602900
H   3.18858100 -0.67557500 -0.66382000
H   3.26500400 -0.27113700 -2.38668600
C   1.09988100 -0.42658100 -4.30659200
H   0.44688200  0.23530600 -4.88224100
H   1.17582900 -1.37053700 -4.85356000
H   2.09605500  0.02161300 -4.27540400
C  -1.93443500 -0.87220400 -3.63220700
H  -2.91046000 -1.05262800 -3.18277700
H  -1.74925600 -1.66486300 -4.36387600
H  -1.96654700  0.07583900 -4.17969600
C  -2.14829900 -1.45059200 -0.40417000
H  -2.18462300 -0.85239800  0.51036000
H  -2.07886600 -2.50163800 -0.10136500
H  -3.08928100 -1.31157000 -0.93564200
C   0.72999400 -1.37430000  0.76211500
C  -3.29504800  4.73044600 -1.04413300
C  -3.31498700  3.92864700  0.14760400
C  -3.67072800  2.57406900 -0.22801000
C  -3.80626400  2.53589700 -1.64827800
C  -3.57343200  3.87349300 -2.14901900
C  -3.08469600  6.20638800 -1.09764300
H  -2.63265200  6.51105300 -2.04412200
H  -4.05478900  6.70724000 -0.99279600
H  -2.42530400  6.53562300 -0.29298300
C  -3.15614100  4.43114200  1.54391600
H  -2.99244300  3.60173000  2.23019900
H  -4.05839400  4.96834400  1.86179200
H  -2.30525300  5.11216400  1.62615500
C  -3.93095500  1.46757700  0.73679100
H  -4.35439400  0.59087700  0.24855400
H  -4.63932900  1.79077000  1.50116800
H  -3.02022500  1.16931200  1.26209000
C  -4.27997400  1.39165800 -2.48168200
H  -3.67615600  1.28754800 -3.38567400
H  -4.25762300  0.45332300 -1.92812600
H  -5.31732500  1.56322500 -2.79026300
C  -3.72683600  4.30271100 -3.57298600
H  -3.06577000  5.14059000 -3.80866800
H  -4.75931800  4.63315800 -3.74360800
H  -3.50414200  3.48491500 -4.26255300
C   0.65005300  2.72721900  1.54128000
H   0.12703500  3.37756200  2.24542300
H   1.30714400  3.31365600  0.90544200
H   1.19831800  1.96440700  2.09983400
C   0.55638300  3.59944700 -3.83383500
H   1.02858300  4.15526500 -3.02698100
H   0.06951500  4.28129200 -4.53632300
H   1.28642600  2.98160200 -4.36319000
S  -1.07378200 -4.52240800  2.21212300
O   0.18079300 -4.00784000  2.83436700
O  -0.91714700 -4.76155600  0.74781800
O  -2.28008300 -3.69813300  2.53437600
C  -1.39371900 -6.12880500  2.95347400
C   2.85374600  2.51161500 -1.26048900
C   4.04816700  2.98666600 -0.83838300
C   4.60828700  2.64135500  0.43247600
H   4.62068300  3.66304500 -1.46936400
C   5.81463600  3.24964500  0.89382900
C   4.00805800  1.66573100  1.25586100
C   4.52954800  1.30455200  2.48027500
C   5.70673200  1.93438700  2.92194500
C   6.34816800  2.90475500  2.12957400
H   1.80035900 -1.28406100  0.95888200
H   0.43131900 -2.39739700  0.99800800
H   0.18310900 -0.72658000  1.45304800
H   7.25289100  3.35661100  2.51410000
H   3.11521300  1.17542900  0.88935100
H   3.05503100 -4.09685900 -2.89833800
O   6.38538700  4.13598100  0.04668300
C   7.63442100  4.74104200  0.39793300
H   8.36882800  3.95286900  0.60372400
H   7.50710500  5.33861100  1.31085700
H   0.78113400 -4.48432600  0.05549400
N   5.56545300  1.15471200 -3.69598300
N  -6.48475700  5.10048900 -0.85928600
O  -6.44511100  5.68014400 -1.94754100
O   5.85255200  2.35078300 -3.77229200
O  -6.13436900  5.60789200  0.20734200
O   4.84511000  0.56001200 -4.50190700
H   4.02714600  0.55999800  3.07965900
C   1.14916200 -4.38602400 -1.93526000
C  -0.23627800 -4.47459400 -2.15350300
H  -0.90034900 -4.62491900 -1.31247300
C   8.05390300  5.61267200 -0.77462400
H   7.46471429  5.62037340 -1.67971922
C   9.15472441  6.37149498 -0.68529367
C   9.97304206  6.36079859  0.57178302
H   10.82240976  7.03441696  0.45814851
H   9.35748764  6.69023898  1.40883845
H   10.33387294  5.34996713  0.76183784
C   9.56866954  7.23162006 -1.84237373
H   10.48003766  7.77171972 -1.58585764
H   9.75157819  6.60394643 -2.71453784
H   8.77519289  7.94421827 -2.06753723
H   6.74844700 -0.88817400  1.89201600
H  -8.10755708 -0.90723715 -1.74327337
H   6.19132465  1.71037891  3.86076891
C  -2.70736532 -6.51741927  3.24211267
C  -2.95649479 -7.76829312  3.81939000
C  -1.89197793 -8.63055270  4.10802867
C  -0.57833161 -8.24193843  3.81939000
C  -0.32920214 -6.99106458  3.24211267
H  -3.52856404 -5.85224760  3.01944855
H  -3.96987910 -8.06808128  4.04205412
H   0.24286711 -8.90711010  4.04205412
H   0.68418217 -6.69127642  3.01944855
C  -2.15890236 -9.97077468  4.72654010
H  -3.23142439 -10.09467506  4.87635731
H  -1.79130453 -10.75567884  4.06555803
H  -1.64794324 -10.03586478  5.68715660
