114
Part 3c canonical analysis input derived from fecltmp.xyz; metal-centred porphyrin frame
N    1.9496426804 -0.0000000000  0.0034643656
N    0.0525409620 -1.9555994997  0.0365943052
C    2.2491286876  2.4814178724 -0.3757644799
C    2.7228034447  1.0970696722 -0.1843356061
C    4.0664749311  0.7788357527 -0.1064718887
H    4.9137033169  1.4438156576 -0.2219939982
C    4.1386766386 -0.5481804179  0.1818576840
H    5.0563154102 -1.1086286771  0.3093452431
C    2.8345740173 -1.0160235086  0.2195423717
C    2.5124491859 -2.3067946980  0.4232931661
C    1.1302193262 -2.7580952477  0.2233216132
C    0.7910493985 -4.0936593203  0.0969247262
H    1.4400183538 -4.9574815163  0.1725035838
C   -0.5372438090 -4.1238715024 -0.1928773980
H   -1.1314197242 -5.0119763996 -0.3639838814
C   -0.9644069214 -2.8097792018 -0.2165920267
C    3.5591656456 -3.3536653885  0.6708781734
C    3.6693731085 -4.0047442044  1.9348714574
C    4.6301993119 -4.9808233169  2.1318522526
C    5.4632780558 -5.3100352654  1.0868179052
C    5.3876486734 -4.7102738625 -0.1498207437
C    4.4390426292 -3.7357096970 -0.3678397361
N   -1.9797871838 -0.1075700805  0.0035130116
N   -0.0806847137  1.9615899354  0.0356495929
C   -2.3570363625 -2.4273678617 -0.4525070568
C   -2.7827816640 -1.1779633614 -0.2406078778
C   -4.1165930836 -0.8084209820 -0.2611593467
H   -4.9794639316 -1.4346681655 -0.4544361909
C   -4.1528964586  0.5155422547  0.0459465744
H   -5.0550468890  1.1092443087  0.1139162451
C   -2.8356253794  0.9332707709  0.1660486845
C   -2.4467190448  2.3488743497  0.3516296588
C   -1.1705889920  2.7609089575  0.2007999512
C   -0.8079856460  4.0985399777  0.1417412184
H   -1.4505314349  4.9642229355  0.2374827747
C    0.5224884417  4.1379384636 -0.1413786104
H    1.1048037583  5.0419170997 -0.2734492813
C    0.9597034055  2.8239023008 -0.1711031146
C   -3.5224399613  3.3571443894  0.6347549174
C   -3.6274665385  3.8869428243  1.9461511704
C   -4.6011465639  4.8131576758  2.2467187551
C   -5.4658344432  5.2120377640  1.2523156792
C   -5.4059491462  4.7277525987 -0.0394362588
C   -4.4300945614  3.7974524980 -0.3594795522
Fe   0.0000000000  0.0000000000  0.0000000000
C   -3.3104548928 -3.4757967685 -0.9025887163
C   -4.0673794671 -4.2450916236  0.0083690083
C   -3.4627568863 -3.7004090368 -2.2946745815
C   -4.9460394190 -5.2031143080 -0.4637311349
C   -4.3420883004 -4.6571266828 -2.7456823442
H   -5.5504326698 -5.8197677611  0.2089146084
C   -5.0626781848 -5.3851641754 -1.8266049800
H   -4.4759382416 -4.8452310971 -3.8138845814
C    3.2767206009  3.5245760987 -0.7219331617
C    3.8821788753  4.3178804563  0.2736062190
C    3.6609712172  3.7058105817 -2.0761219816
C    4.8339489127  5.2566086149 -0.0718720605
C    4.6142708563  4.6500797797 -2.4107093567
H    5.3221226392  5.8805701219  0.6784657545
C    5.1776631488  5.4010487590 -1.4008145655
H    4.9380084795  4.8217482889 -3.4441281768
H    4.7489592065 -5.5027341268  3.0895757729
H    6.0686036702 -5.0227705046 -0.9431008595
H   -4.7007461463  5.2351941108  3.2497761775
H   -6.1251868219  5.1021860957 -0.7750723657
C    3.5321310840  4.1559807870  1.6965170845
C    3.0562151902  2.9062756551 -3.1635605646
C   -3.9746227353 -4.0871991769  1.4731383689
C   -2.7245050992 -2.9572244904 -3.3465452970
C   -2.7206638386  3.4618612289  3.0370376088
C   -4.3444191291  3.3248002443 -1.7593445550
C    2.8164940469 -3.7011038120  3.1076757075
C    4.3926952721 -3.1689056227 -1.7340233907
H   -2.0410333670 -2.2101566499 -2.9207753126
H   -3.4674483879 -2.4415886259 -3.9909773759
H   -2.1355133113 -3.6903274890 -3.9369790079
H   -3.2499152577 -3.3054910994  1.7459670529
H   -3.6440886070 -5.0574548551  1.8969125781
H   -4.9797013638 -3.8061004182  1.8482562080
H    3.4654076341  3.1809649036 -4.1606027576
H    1.9686256239  3.1048258610 -3.1463383390
H    3.2789427106  1.8442274784 -2.9565617087
H    4.1081262511  4.8501945244  2.3444880099
H    3.7643755767  3.1098552148  1.9656968772
H    2.4552126232  4.3684984900  1.8007410654
H   -5.1222889799  3.7920885456 -2.3988338224
H   -4.4853555404  2.2374011293 -1.7962002349
H   -3.3384102907  3.5982288703 -2.1242465466
H    2.0794359255 -2.9205798693  2.8753005020
H    3.4752697193 -3.3502010426  3.9313306200
H    2.2932914843 -4.6337713704  3.4082278562
H    3.5826862737 -2.4383692496 -1.8505424345
H    4.2030608468 -4.0022682991 -2.4400122170
H    5.3666178819 -2.6773595394 -1.9322122486
H   -2.9583783994  3.9623409918  4.0013461687
H   -1.6924592712  3.7289624219  2.7425203251
H   -2.8400690870  2.3689264742  3.1502311465
C   -6.4701323895  6.1761598036  1.5542164223
C    6.4359955684 -6.3265671121  1.3104729983
C    6.1614037343  6.3637336827 -1.7677246453
C   -5.9744020422 -6.3757657502 -2.2892420500
H    6.5034732266  6.8680211904 -0.8516502600
H    5.6186032471  7.0431345923 -2.4473390333
H    6.9551106069  5.7569778832 -2.2376104597
H   -5.9409133227 -6.3860662460 -3.3898146240
H   -6.9478662684 -6.0315380974 -1.9005583716
H   -5.5867308348 -7.3089952313 -1.8467978485
H    7.0079704776 -6.4625955509  0.3800395863
H    5.8299000657 -7.2134569746  1.5658410088
H    7.0525281173 -5.9207131528  2.1303824408
H   -6.3742942089  6.4530955005  2.6155927538
H   -7.4122532713  5.6440571365  1.3407777183
H   -6.2323251014  7.0155887031  0.8783202327
Cl   0.3984586170 -0.2949092416  1.7425671001
