114
 energy: -165.958858324757 gnorm: 0.000091005537 xtb: 6.7.1 (edcfbbe)
N            2.05481810789716        0.03459890855487       -0.16509137964181
N            0.07266273995710       -2.02774674481381       -0.19135019101319
C            2.38155771876628        2.46255506358484       -0.27135684431417
C            2.83581351175242        1.15258961150519       -0.21360198708926
C            4.22084910530569        0.77814803091215       -0.14541738960437
H            5.03985667280772        1.47114522708887       -0.16945719106977
C            4.26027556298902       -0.57195375119437       -0.02823969086355
H            5.11811662925943       -1.21027314342032        0.06197962715662
C            2.90057295712639       -1.03361814240253       -0.05229465355281
C            2.52024566382768       -2.36510572768773       -0.01157964621888
C            1.18465796017995       -2.81912951629099       -0.14589515363609
C            0.82585591994216       -4.17499389949882       -0.31170959127952
H            1.51039202909276       -5.00080251673014       -0.32015692238813
C           -0.54171194287241       -4.20474221490410       -0.46914258742996
H           -1.16985046814180       -5.05963668544763       -0.62803962963951
C           -0.98996882544208       -2.86716680289858       -0.38079173656999
C            3.57075464655748       -3.39449974984646        0.15661561094178
C            3.83053726810706       -3.89089366054340        1.43667158811145
C            4.81716960246789       -4.84955201969125        1.59750674732153
C            5.54645288960125       -5.32843347340793        0.51676092271242
C            5.26830160017552       -4.82795126535141       -0.74580242947630
C            4.28895274764924       -3.86507685196247       -0.94216367840904
N           -2.02715673706964       -0.06248216642053       -0.22503299765000
N           -0.04616707076915        1.99784879606647       -0.10579377831204
C           -2.34924808112192       -2.48353929199349       -0.44344425145209
C           -2.80575544415604       -1.17702051807701       -0.34271318786744
C           -4.19239444957710       -0.80511554947814       -0.29737424347802
H           -5.00992693825467       -1.49605884658316       -0.37376746368638
C           -4.23596455775187        0.53881132377066       -0.12421215234428
H           -5.09643119619175        1.17311398937132       -0.03072067077473
C           -2.87642321249256        1.00040624802489       -0.09068916679076
C           -2.49822442601824        2.32873723959400        0.01767926494297
C           -1.15952966127816        2.78718771924320       -0.05819203286553
C           -0.79704912848902        4.14869311517996       -0.15588552838353
H           -1.48156295557195        4.97453460248423       -0.14837625728388
C            0.57438092024257        4.18433447867413       -0.27333380735241
H            1.20615622535414        5.04491064010188       -0.37781672424908
C            1.02085381506459        2.84396146364225       -0.22947699376544
C           -3.55383718157013        3.35097710362203        0.19675525758570
C           -3.84659368463430        3.80143156048533        1.48546073153868
C           -4.83724181727432        4.75638737203477        1.65547331758117
C           -5.53634021908017        5.27467791463536        0.57520463019293
C           -5.22570791542552        4.81792514299051       -0.69828774286587
C           -4.24355625637273        3.86186547300165       -0.90374353570825
Fe           0.00859695854186       -0.02202102418491        0.17935161958982
C           -3.35324864818321       -3.56367141931969       -0.58347344078302
C           -3.80549266947853       -4.24338342010957        0.54998484098374
C           -3.84159971499408       -3.89640622837648       -1.84682278811138
C           -4.74558672321919       -5.24950410403167        0.39924524533328
C           -4.78066044299953       -4.91082398744193       -1.96260608080737
H           -5.10046570978315       -5.77704590321122        1.27362447091659
C           -5.24337660589866       -5.59648933749313       -0.85024418350426
H           -5.15654125585595       -5.17058805406303       -2.94248216905080
C            3.38840476184554        3.54682251519337       -0.34086847918038
C            3.80731089785621        4.18349981029597        0.82778759376089
C            3.91361950771973        3.92549917038216       -1.57814826619337
C            4.75280559141242        5.19511180729162        0.74200016982567
C            4.85411566561317        4.94101741367858       -1.62851668527654
H            5.07977747413229        5.68697283839052        1.64747326323389
C            5.28561468444528        5.58611407528919       -0.47671355214430
H            5.26093985659562        5.23903947117813       -2.58488626237502
H            5.02463524379848       -5.23404390261194        2.58637352884380
H            5.82363635630758       -5.19495945292447       -1.59778712077295
H           -5.06731433278122        5.10441245556185        2.65278570886785
H           -5.75913455648142        5.21847220791722       -1.54916346418875
C            3.23979461491202        3.76827434083983        2.15093740438815
C            3.45135618239365        3.23831166680962       -2.82797822915929
C           -3.27513249791852       -3.87685327302490        1.90259073212199
C           -3.34552657227188       -3.16376272505028       -3.05726786796475
C           -3.09379668581291        3.25145927279432        2.65834661977073
C           -3.90866231884554        3.38518721248399       -2.28540989720850
C            3.04672422927829       -3.38246693820126        2.60797527569814
C            3.99180483121964       -3.33769305091626       -2.31400361077900
H           -3.62503241527615       -2.11168732644145       -3.00515401991242
H           -3.76351834567907       -3.59062807583961       -3.96559135157398
H           -2.25863695153817       -3.21303099181085       -3.11185011375142
H           -2.20568267470047       -4.07849967097139        1.95745107895253
H           -3.77747898551813       -4.44435329835436        2.68189611822365
H           -3.41563990787932       -2.81369503625097        2.09389344940721
H            3.90454359915114        3.68973753976750       -3.70707390947314
H            2.36750926902283        3.30268064392923       -2.91730650649680
H            3.71711672946350        2.18181280424184       -2.80121680897347
H            3.71910039023380        4.30756568234567        2.96405754892093
H            3.37661942041010        2.69899591258765        2.30778376513839
H            2.16890861363778        3.96718797290574        2.18304782319962
H           -4.47189200561477        3.93973861193646       -3.03187829513962
H           -4.14050354086765        2.32553386668753       -2.38971026691894
H           -2.84438664943198        3.50988472037508       -2.48165637431369
H            3.10828593000210       -2.29672610886574        2.67094041630419
H            3.41633370048776       -3.81041493176057        3.53638370251927
H            1.99348367756288       -3.64028933410872        2.49964091637496
H            2.93222698227033       -3.44843644319000       -2.54142216346588
H            4.57078523117780       -3.86885491036065       -3.06542211333208
H            4.23217054206003       -2.27648190974092       -2.37450021600100
H           -3.48689534606928        3.64762264972911        3.59121138949159
H           -2.03783516940364        3.51083862118773        2.58636867987239
H           -3.15813755457409        2.16429499959187        2.68200654213002
C           -6.61934541521402        6.29124971073371        0.77634176465622
C            6.60367158158571       -6.37048793477547        0.72501289458747
C            6.30005454195826        6.68611237097374       -0.56537383734151
C           -6.26092529865798       -6.68972230598793       -0.97823779518589
H            6.61145542855005        7.01024359299694        0.42428634063103
H            5.88175589316561        7.54268115104559       -1.09364869061812
H            7.17776717295977        6.35248693362373       -1.11687896864371
H           -6.51973696797253       -6.86183168482094       -2.01987587373714
H           -7.16779393540646       -6.42832551590386       -0.43385744429203
H           -5.87679311257142       -7.61763654828801       -0.55655907489866
H            7.12927098317626       -6.58433728910047       -0.20215089957788
H            6.15622243233233       -7.29438762214450        1.09053030238514
H            7.32675029692584       -6.03588383198171        1.46750650619641
H           -6.47954695282559        6.82824899482822        1.71135890621431
H           -7.59143676096592        5.79807160613349        0.81107534445802
H           -6.63635038437256        7.00650216962724       -0.04311253053472
Cl          -0.02210908017415       -0.06907465411096        2.32801397042913
