      -----------------------------------------------------------      
     |                   =====================                   |     
     |                           x T B                           |     
     |                   =====================                   |     
     |                         S. Grimme                         |     
     |          Mulliken Center for Theoretical Chemistry        |     
     |                    University of Bonn                     |     
      -----------------------------------------------------------      

   * xtb version 6.7.1 (edcfbbe) compiled by 'runner@sat12-gn217-0cbadaec-b866-44ae-a866-732403219ae3-6E01A8DFFD18.local' on 2026-06-10

   xtb is free software: you can redistribute it and/or modify it under
   the terms of the GNU Lesser General Public License as published by
   the Free Software Foundation, either version 3 of the License, or
   (at your option) any later version.
   
   xtb is distributed in the hope that it will be useful,
   but WITHOUT ANY WARRANTY; without even the implied warranty of
   MERCHANTABILITY or FITNESS FOR A PARTICULAR PURPOSE.  See the
   GNU Lesser General Public License for more details.
   
   Cite this work as:
   * C. Bannwarth, E. Caldeweyher, S. Ehlert, A. Hansen, P. Pracht,
     J. Seibert, S. Spicher, S. Grimme, WIREs Comput. Mol. Sci., 2020, 11,
     e01493. DOI: 10.1002/wcms.1493
   
   for GFN2-xTB:
   * C. Bannwarth, S. Ehlert and S. Grimme., J. Chem. Theory Comput., 2019,
     15, 1652-1671. DOI: 10.1021/acs.jctc.8b01176
   for GFN1-xTB:
   * S. Grimme, C. Bannwarth, P. Shushkov, J. Chem. Theory Comput., 2017,
     13, 1989-2009. DOI: 10.1021/acs.jctc.7b00118
   for GFN0-xTB:
   * P. Pracht, E. Caldeweyher, S. Ehlert, S. Grimme, ChemRxiv, 2019, preprint.
     DOI: 10.26434/chemrxiv.8326202.v1
   for GFN-FF:
   * S. Spicher and S. Grimme, Angew. Chem. Int. Ed., 2020, 59, 15665-15673.
     DOI: 10.1002/anie.202004239
   
   for ALPB and GBSA implicit solvation:
   * S. Ehlert, M. Stahn, S. Spicher, S. Grimme, J. Chem. Theory Comput.,
     2021, 17, 4250-4261. DOI: 10.1021/acs.jctc.1c00471
   
   for ddCOSMO and CPCM-X implicit solvation:
   * M. Stahn, S. Ehlert, S. Grimme, J. Phys. Chem. A,
     2023, XX, XXXX-XXXX. DOI: 10.1021/acs.jpca.3c04382
   
   for DFT-D4:
   * E. Caldeweyher, C. Bannwarth and S. Grimme, J. Chem. Phys., 2017,
     147, 034112. DOI: 10.1063/1.4993215
   * E. Caldeweyher, S. Ehlert, A. Hansen, H. Neugebauer, S. Spicher,
     C. Bannwarth and S. Grimme, J. Chem. Phys., 2019, 150, 154122.
     DOI: 10.1063/1.5090222
   * E. Caldeweyher, J.-M. Mewes, S. Ehlert and S. Grimme, Phys. Chem. Chem. Phys.
     2020, 22, 8499-8512. DOI: 10.1039/D0CP00502A
   
   for sTDA-xTB:
   * S. Grimme and C. Bannwarth, J. Chem. Phys., 2016, 145, 054103.
     DOI: 10.1063/1.4959605
   
   in the mass-spec context:
   * V. Asgeirsson, C. Bauer and S. Grimme, Chem. Sci., 2017, 8, 4879.
     DOI: 10.1039/c7sc00601b
   * J. Koopman and S. Grimme, ACS Omega 2019, 4, 12, 15120-15133.
     DOI: 10.1021/acsomega.9b02011
   
   for metadynamics refer to:
   * S. Grimme, J. Chem. Theory Comput., 2019, 155, 2847-2862
     DOI: 10.1021/acs.jctc.9b00143
   
   for SPH calculations refer to:
   * S. Spicher and S. Grimme, J. Chem. Theory Comput., 2021, 17, 1701-1714
     DOI: 10.1021/acs.jctc.0c01306
   
   for ONIOM refer to:
   * C. Plett, A. Katbashev, S. Ehlert, S. Grimme, M. Bursch,
     Phys. Chem. Chem. Phys., 2023, 25, 17860-17868. DOI: 10.1039/D3CP02178E
   
   for DIPRO refer to:
   * J. Kohn, N. Gildemeister, S. Grimme, D. Fazzi, A. Hansen,
     J. Chem. Phys., 2023, just accepted.
   
   for PTB refer to:
   * S. Grimme, M. Mueller, A. Hansen, J. Chem. Phys., 2023, 158, 124111.
     DOI: 10.1063/5.0137838
   
   with help from (in alphabetical order)
   P. Atkinson, C. Bannwarth, F. Bohle, G. Brandenburg, E. Caldeweyher
   M. Checinski, S. Dohm, S. Ehlert, S. Ehrlich, I. Gerasimov, C. Hölzer
   A. Katbashev, J. Kohn, J. Koopman, C. Lavigne, S. Lehtola, F. März, M. Müller,
   F. Musil, H. Neugebauer, J. Pisarek, C. Plett, P. Pracht, F. Pultar,
   J. Seibert, P. Shushkov, S. Spicher, M. Stahn, M. Steiner, T. Strunk,
   J. Stückrath, T. Rose, and J. Unsleber
   
 * started run on 2026/09/18 at 10:11:56.881     
   ID    Z sym.   atoms
    1    7 N      1, 2, 23, 24
    2    6 C      3-5, 7, 9-12, 14, 16-22, 25-27, 29, 31-34, 36, 38-44,
                  46-50, 52, 54-58, 60, 66-73, 98-101
    3    1 H      6, 8, 13, 15, 28, 30, 35, 37, 51, 53, 59, 61-65, 74-97,
                  102-113
    4   26 Fe     45
    5   17 Cl     114

           -------------------------------------------------
          |                Calculation Setup                |
           -------------------------------------------------

          program call               : SOURCE_WORKSPACE/.micromamba/part3c-crest212/bin/xtb input.xyz --gfn 2 --opt tight --chrg 0 --uhf 5 --parallel 4
          coordinate file            : input.xyz
          omp threads                :                     4


           -------------------------------------------------
          |                 G F N 2 - x T B                 |
           -------------------------------------------------

        Reference                      10.1021/acs.jctc.8b01176
      * Hamiltonian:
        H0-scaling (s, p, d)           1.850000    2.230000    2.230000
        zeta-weighting                 0.500000
      * Dispersion:
        s8                             2.700000
        a1                             0.520000
        a2                             5.000000
        s9                             5.000000
      * Repulsion:
        kExp                           1.500000    1.000000
        rExp                           1.000000
      * Coulomb:
        alpha                          2.000000
        third order                    shell-resolved
        anisotropic                    true
        a3                             3.000000
        a5                             4.000000
        cn-shift                       1.200000
        cn-exp                         4.000000
        max-rad                        5.000000


          ...................................................
          :                      SETUP                      :
          :.................................................:
          :  # basis functions                 312          :
          :  # atomic orbitals                 310          :
          :  # shells                          178          :
          :  # electrons                       311          :
          :  max. iterations                   250          :
          :  Hamiltonian                  GFN2-xTB          :
          :  restarted?                      false          :
          :  GBSA solvation                  false          :
          :  PC potential                    false          :
          :  electronic temp.          300.0000000     K    :
          :  accuracy                    1.0000000          :
          :  -> integral cutoff          0.2500000E+02      :
          :  -> integral neglect         0.1000000E-07      :
          :  -> SCF convergence          0.1000000E-05 Eh   :
          :  -> wf. convergence          0.1000000E-03 e    :
          :  Broyden damping             0.4000000          :
          :  net charge                          0          :
          :  unpaired electrons                  5          :
          ...................................................

 iter      E             dE          RMSdq      gap      omega  full diag
   1   -168.4066658 -0.168407E+03  0.416E+00    0.55       0.0  T
   2   -167.9249319  0.481734E+00  0.407E+00    0.06       1.0  T
   3   -168.0836006 -0.158669E+00  0.250E+00    0.68       1.0  T
   4   -167.5852405  0.498360E+00  0.329E+00    0.05       1.0  T
   5   -168.5494912 -0.964251E+00  0.147E+00    0.68       1.0  T
   6   -168.5907561 -0.412648E-01  0.126E+00    0.54       1.0  T
   7   -168.5741447  0.166114E-01  0.861E-01    0.50       1.0  T
   8   -168.5990513 -0.249066E-01  0.470E-01    0.29       1.0  T
   9   -168.6189077 -0.198564E-01  0.295E-01    0.10       1.0  T
  10   -168.6192332 -0.325478E-03  0.165E-01    0.10       1.0  T
  11   -168.6198781 -0.644973E-03  0.998E-02    0.11       1.0  T
  12   -168.6195772  0.300907E-03  0.891E-02    0.10       1.0  T
  13   -168.6200597 -0.482507E-03  0.407E-02    0.11       1.0  T
  14   -168.6203308 -0.271047E-03  0.297E-02    0.11       1.0  T
  15   -168.6203543 -0.235445E-04  0.208E-02    0.11       1.0  T
  16   -168.6203484  0.592486E-05  0.309E-02    0.11       1.0  T
  17   -168.6203662 -0.177889E-04  0.207E-02    0.11       1.0  T
  18   -168.6203732 -0.700167E-05  0.435E-03    0.11       2.2  T
  19   -168.6203727  0.464001E-06  0.799E-03    0.11       1.2  T
  20   -168.6203742 -0.149058E-05  0.310E-03    0.11       3.0  T
  21   -168.6203744 -0.164951E-06  0.210E-03    0.11       4.5  T
  22   -168.6203744 -0.356806E-07  0.119E-03    0.11       7.9  T
  23   -168.6203744 -0.102816E-07  0.250E-04    0.11      37.5  T
  24   -168.6203744 -0.254073E-08  0.116E-04    0.11      80.7  T

   *** convergence criteria satisfied after 24 iterations ***

         #    Occupation            Energy/Eh            Energy/eV
      -------------------------------------------------------------
         1        2.0000           -1.0714328             -29.1552
       ...           ...                  ...                  ...
       152        2.0000           -0.3653374              -9.9413
       153        1.9503           -0.3585887              -9.7577
       154        1.0411           -0.3527941              -9.6000
       155        1.0086           -0.3512741              -9.5587
       156        1.0000           -0.3445444              -9.3755
       157        0.9420           -0.2858826              -7.7793
       158        0.9235           -0.2856021              -7.7716 (HOMO)
       159        0.1345           -0.2814665              -7.6591 (LUMO)
       160                         -0.2485433              -6.7632
       161                         -0.2329607              -6.3392
       162                         -0.2122816              -5.7765
       163                         -0.2112259              -5.7478
       ...                                ...                  ...
       310                          2.0517087              55.8298
      -------------------------------------------------------------
                  HL-Gap            0.0041356 Eh            0.1125 eV
             Fermi-level           -0.3195103 Eh           -8.6943 eV

 SCC (total)                   0 d,  0 h,  0 min,  0.495 sec
 SCC setup                      ...        0 min,  0.000 sec (  0.046%)
 Dispersion                     ...        0 min,  0.001 sec (  0.214%)
 classical contributions        ...        0 min,  0.000 sec (  0.030%)
 integral evaluation            ...        0 min,  0.007 sec (  1.314%)
 iterations                     ...        0 min,  0.451 sec ( 91.209%)
 molecular gradient             ...        0 min,  0.032 sec (  6.545%)
 printout                       ...        0 min,  0.003 sec (  0.640%)

         :::::::::::::::::::::::::::::::::::::::::::::::::::::
         ::                     SUMMARY                     ::
         :::::::::::::::::::::::::::::::::::::::::::::::::::::
         :: total energy            -165.767494616426 Eh    ::
         :: gradient norm              0.307881474743 Eh/a0 ::
         :: HOMO-LUMO gap              0.112536485778 eV    ::
         ::.................................................::
         :: SCC energy              -168.617177269374 Eh    ::
         :: -> isotropic ES            0.023879964427 Eh    ::
         :: -> anisotropic ES          0.022704686167 Eh    ::
         :: -> anisotropic XC          0.083169859524 Eh    ::
         :: -> dispersion             -0.167699471187 Eh    ::
         :: repulsion energy           2.849682652948 Eh    ::
         :: add. restraining           0.000000000000 Eh    ::
         :: total charge              -0.000000000121 e     ::
         :::::::::::::::::::::::::::::::::::::::::::::::::::::

      ----------------------------------------------------------- 
     |                   =====================                   |
     |                        A N C O P T                        |
     |                   =====================                   |
     |               Approximate Normal Coordinate               |
     |                Rational Function Optimizer                |
      ----------------------------------------------------------- 
      ----------------------------------------------------------- 
     |                   =====================                   |
     |                        A N C O P T                        |
     |                   =====================                   |
     |               Approximate Normal Coordinate               |
     |                Rational Function Optimizer                |
      ----------------------------------------------------------- 

          ...................................................
          :                      SETUP                      :
          :.................................................:
          :   optimization level             tight          :
          :   max. optcycles                   570          :
          :   ANC micro-cycles                  20          :
          :   degrees of freedom               336          :
          :.................................................:
          :   RF solver                   davidson          :
          :   write xtbopt.log                true          :
          :   linear?                        false          :
          :   energy convergence         0.1000000E-05 Eh   :
          :   grad. convergence          0.8000000E-03 Eh/α :
          :   maxmium RF displ.          1.0000000          :
          :   Hlow (freq-cutoff)         0.1000000E-01      :
          :   Hmax (freq-cutoff)         5.0000000          :
          :   S6 in model hess.         20.0000000          :
          ...................................................

generating ANC from exact Hessian ...
Using Lindh-Hessian (1995)
 Shifting diagonal of input Hessian by    9.9593727728177900E-003
 Lowest  eigenvalues of input Hessian
    0.000000    0.000000    0.000000    0.000000    0.000000    0.000000
    0.010000    0.010052    0.010159    0.010172    0.010175    0.010194
    0.010231    0.010246    0.010410    0.010452    0.010648    0.010685
 Highest eigenvalues
    2.083079    2.112220    2.186410    2.189101    2.207853    2.239838


........................................................................
.............................. CYCLE    1 ..............................
........................................................................

 iter      E             dE          RMSdq      gap      omega  full diag
   1   -168.6203744 -0.168620E+03  0.461E-05    0.11       0.0  T
   2   -168.6203744  0.121159E-08  0.168E-04    0.11      55.9  T
   3   -168.6203744 -0.111743E-08  0.622E-05    0.11     150.6  T
     SCC iter.                  ...        0 min,  0.047 sec
     gradient                   ...        0 min,  0.032 sec
 * total energy  :  -165.7674946 Eh     change       -0.1994920E-09 Eh
   gradient norm :     0.3078810 Eh/α   predicted     0.0000000E+00 (-100.00%)
   displ. norm   :     0.6020705 α      lambda       -0.1287104E+00
   maximum displ.:     0.2430844 α      in ANC's #93, #84, #97, ...

........................................................................
.............................. CYCLE    2 ..............................
........................................................................

 iter      E             dE          RMSdq      gap      omega  full diag
   1   -168.5705323 -0.168571E+03  0.143E+00    0.01       0.0  T
   2   -167.9363678  0.634164E+00  0.278E+00    0.13       1.0  T
   3   -168.6999271 -0.763559E+00  0.101E+00    0.11       1.0  T
   4   -168.6729832  0.269440E-01  0.772E-01    0.12       1.0  T
   5   -168.7045402 -0.315570E-01  0.825E-01    0.02       1.0  T
   6   -168.6896541  0.148860E-01  0.877E-01    0.01       1.0  T
   7   -168.6958274 -0.617331E-02  0.757E-01    0.04       1.0  T
   8   -168.7041971 -0.836968E-02  0.603E-01    0.01       1.0  T
   9   -168.7116654 -0.746832E-02  0.425E-01    0.01       1.0  T
  10   -168.7185031 -0.683765E-02  0.158E-01    0.00       1.0  T
  11   -168.7208605 -0.235745E-02  0.350E-02    0.02       1.0  T
  12   -168.7207638  0.967425E-04  0.902E-02    0.02       1.0  T
  13   -168.7209138 -0.150025E-03  0.221E-02    0.01       1.0  T
  14   -168.7209254 -0.115408E-04  0.186E-02    0.02       1.0  T
  15   -168.7209423 -0.169401E-04  0.591E-03    0.02       1.6  T
  16   -168.7209409  0.145469E-05  0.126E-02    0.02       1.0  T
  17   -168.7209382  0.268216E-05  0.156E-02    0.02       1.0  T
  18   -168.7209428 -0.461980E-05  0.780E-03    0.02       1.2  T
  19   -168.7209435 -0.714211E-06  0.587E-03    0.02       1.6  T
  20   -168.7209418  0.172501E-05  0.999E-03    0.02       1.0  T
  21   -168.7209437 -0.191722E-05  0.389E-03    0.02       2.4  T
  22   -168.7209440 -0.324682E-06  0.120E-03    0.02       7.8  T
  23   -168.7209441 -0.382215E-07  0.485E-04    0.02      19.3  T
  24   -168.7209441 -0.431345E-08  0.393E-04    0.02      23.8  T
     SCC iter.                  ...        0 min,  0.369 sec
     gradient                   ...        0 min,  0.033 sec
 * total energy  :  -165.8666079 Eh     change       -0.9911327E-01 Eh
   gradient norm :     0.1500025 Eh/α   predicted    -0.8773927E-01 ( -11.48%)
   displ. norm   :     0.6389599 α      lambda       -0.7008914E-01
   maximum displ.:     0.2707582 α      in ANC's #93, #84, #97, ...

........................................................................
.............................. CYCLE    3 ..............................
........................................................................

 iter      E             dE          RMSdq      gap      omega  full diag
   1   -168.7587473 -0.168759E+03  0.485E-01    0.02       0.0  T
   2   -168.4114594  0.347288E+00  0.182E+00    0.24       1.0  T
   3   -168.7672538 -0.355794E+00  0.361E-01    0.01       1.0  T
   4   -168.7653167  0.193711E-02  0.288E-01    0.04       1.0  T
   5   -168.7658338 -0.517104E-03  0.288E-01    0.06       1.0  T
   6   -168.7736270 -0.779319E-02  0.132E-01    0.01       1.0  T
   7   -168.7739989 -0.371984E-03  0.634E-02    0.02       1.0  T
   8   -168.7738887  0.110199E-03  0.484E-02    0.01       1.0  T
   9   -168.7740268 -0.138024E-03  0.282E-02    0.01       1.0  T
  10   -168.7740921 -0.653828E-04  0.182E-02    0.01       1.0  T
  11   -168.7740953 -0.317348E-05  0.946E-03    0.01       1.0  T
  12   -168.7740965 -0.119297E-05  0.278E-03    0.01       3.4  T
  13   -168.7740970 -0.532272E-06  0.387E-03    0.01       2.4  T
  14   -168.7740969  0.171862E-06  0.336E-03    0.01       2.8  T
  15   -168.7740971 -0.199831E-06  0.204E-03    0.01       4.6  T
  16   -168.7740972 -0.761425E-07  0.880E-04    0.01      10.6  T
  17   -168.7740972 -0.839606E-08  0.763E-04    0.01      12.3  T
     SCC iter.                  ...        0 min,  0.268 sec
     gradient                   ...        0 min,  0.032 sec
 * total energy  :  -165.9184296 Eh     change       -0.5182171E-01 Eh
   gradient norm :     0.0672701 Eh/α   predicted    -0.4935221E-01 (  -4.77%)
   displ. norm   :     0.6014597 α      lambda       -0.3159366E-01
   maximum displ.:     0.2482105 α      in ANC's #93, #84, #97, ...

........................................................................
.............................. CYCLE    4 ..............................
........................................................................

 iter      E             dE          RMSdq      gap      omega  full diag
   1   -168.7652223 -0.168765E+03  0.361E-01    0.03       0.0  T
   2   -168.6971608  0.680615E-01  0.133E+00    0.02       1.0  T
   3   -168.7621682 -0.650075E-01  0.293E-01    0.01       1.0  T
   4   -168.7647674 -0.259921E-02  0.233E-01    0.03       1.0  T
   5   -168.7665674 -0.179994E-02  0.116E-01    0.03       1.0  T
   6   -168.7669895 -0.422093E-03  0.120E-01    0.02       1.0  T
   7   -168.7675912 -0.601782E-03  0.738E-02    0.02       1.0  T
   8   -168.7677426 -0.151315E-03  0.440E-02    0.02       1.0  T
   9   -168.7678219 -0.793494E-04  0.125E-02    0.02       1.0  T
  10   -168.7678063  0.156120E-04  0.170E-02    0.02       1.0  T
  11   -168.7678157 -0.944954E-05  0.155E-02    0.02       1.0  T
  12   -168.7678275 -0.117279E-04  0.617E-03    0.02       1.5  T
  13   -168.7678279 -0.383787E-06  0.206E-03    0.02       4.5  T
  14   -168.7678279 -0.148378E-07  0.110E-03    0.02       8.5  T
  15   -168.7678280 -0.142135E-06  0.576E-04    0.02      16.3  T
  16   -168.7678280 -0.325337E-07  0.235E-04    0.02      39.9  T
     SCC iter.                  ...        0 min,  0.248 sec
     gradient                   ...        0 min,  0.033 sec
 * total energy  :  -165.9406620 Eh     change       -0.2223235E-01 Eh
   gradient norm :     0.0337658 Eh/α   predicted    -0.2151141E-01 (  -3.24%)
   displ. norm   :     0.4841300 α      lambda       -0.1077317E-01
   maximum displ.:     0.2371458 α      in ANC's #53, #93, #84, ...

........................................................................
.............................. CYCLE    5 ..............................
........................................................................

 iter      E             dE          RMSdq      gap      omega  full diag
   1   -168.7430275 -0.168743E+03  0.233E-01    0.03       0.0  T
   2   -168.6961375  0.468900E-01  0.110E+00    0.02       1.0  T
   3   -168.7424317 -0.462943E-01  0.176E-01    0.02       1.0  T
   4   -168.7423653  0.664511E-04  0.181E-01    0.04       1.0  T
   5   -168.7432069 -0.841571E-03  0.122E-01    0.03       1.0  T
   6   -168.7440816 -0.874754E-03  0.621E-02    0.02       1.0  T
   7   -168.7441930 -0.111418E-03  0.527E-02    0.03       1.0  T
   8   -168.7442773 -0.842272E-04  0.289E-02    0.03       1.0  T
   9   -168.7443079 -0.306219E-04  0.851E-03    0.03       1.1  T
  10   -168.7443051  0.272986E-05  0.735E-03    0.03       1.3  T
  11   -168.7443045  0.599960E-06  0.111E-02    0.03       1.0  T
  12   -168.7443101 -0.557219E-05  0.487E-03    0.03       1.9  T
  13   -168.7443104 -0.238329E-06  0.148E-03    0.03       6.3  T
  14   -168.7443105 -0.169227E-06  0.865E-04    0.03      10.8  T
  15   -168.7443106 -0.435711E-07  0.411E-04    0.03      22.8  T
     SCC iter.                  ...        0 min,  0.235 sec
     gradient                   ...        0 min,  0.035 sec
 * total energy  :  -165.9481117 Eh     change       -0.7449722E-02 Eh
   gradient norm :     0.0176754 Eh/α   predicted    -0.6649132E-02 ( -10.75%)
   displ. norm   :     0.4130894 α      lambda       -0.3690984E-02
   maximum displ.:     0.2219533 α      in ANC's #53, #34, #27, ...

........................................................................
.............................. CYCLE    6 ..............................
........................................................................

 iter      E             dE          RMSdq      gap      omega  full diag
   1   -168.7323566 -0.168732E+03  0.137E-01    0.05       0.0  T
   2   -168.7101218  0.222347E-01  0.762E-01    0.02       1.0  T
   3   -168.7324823 -0.223604E-01  0.793E-02    0.03       1.0  T
   4   -168.7322073  0.274949E-03  0.115E-01    0.05       1.0  T
   5   -168.7325021 -0.294801E-03  0.839E-02    0.04       1.0  T
   6   -168.7328539 -0.351808E-03  0.312E-02    0.03       1.0  T
   7   -168.7328892 -0.353176E-04  0.362E-02    0.04       1.0  T
   8   -168.7329389 -0.497134E-04  0.122E-02    0.04       1.0  T
   9   -168.7329426 -0.361449E-05  0.696E-03    0.04       1.3  T
  10   -168.7329423  0.288054E-06  0.508E-03    0.04       1.8  T
  11   -168.7329415  0.769710E-06  0.804E-03    0.04       1.2  T
  12   -168.7329439 -0.243584E-05  0.399E-03    0.04       2.3  T
  13   -168.7329443 -0.375738E-06  0.125E-03    0.04       7.5  T
  14   -168.7329445 -0.147471E-06  0.621E-04    0.04      15.1  T
  15   -168.7329445 -0.854322E-08  0.432E-04    0.04      21.7  T
     SCC iter.                  ...        0 min,  0.231 sec
     gradient                   ...        0 min,  0.033 sec
 * total energy  :  -165.9506848 Eh     change       -0.2573112E-02 Eh
   gradient norm :     0.0118033 Eh/α   predicted    -0.2160414E-02 ( -16.04%)
   displ. norm   :     0.3673435 α      lambda       -0.1602432E-02
   maximum displ.:     0.1582489 α      in ANC's #53, #34, #27, ...

........................................................................
.............................. CYCLE    7 ..............................
........................................................................

 iter      E             dE          RMSdq      gap      omega  full diag
   1   -168.7310015 -0.168731E+03  0.804E-02    0.06       0.0  T
   2   -168.7263196  0.468184E-02  0.350E-01    0.03       1.0  T
   3   -168.7309755 -0.465583E-02  0.553E-02    0.04       1.0  T
   4   -168.7308139  0.161620E-03  0.932E-02    0.06       1.0  T
   5   -168.7311650 -0.351182E-03  0.360E-02    0.05       1.0  T
   6   -168.7311780 -0.129637E-04  0.362E-02    0.05       1.0  T
   7   -168.7311998 -0.218251E-04  0.333E-02    0.05       1.0  T
   8   -168.7312400 -0.401662E-04  0.108E-02    0.05       1.0  T
   9   -168.7312466 -0.656939E-05  0.393E-03    0.05       2.4  T
  10   -168.7312469 -0.307659E-06  0.228E-03    0.05       4.1  T
  11   -168.7312458  0.110393E-05  0.595E-03    0.05       1.6  T
  12   -168.7312468 -0.984270E-06  0.304E-03    0.05       3.1  T
  13   -168.7312472 -0.404436E-06  0.884E-04    0.05      10.6  T
  14   -168.7312472 -0.423616E-07  0.576E-04    0.05      16.3  T
     SCC iter.                  ...        0 min,  0.212 sec
     gradient                   ...        0 min,  0.033 sec
 * total energy  :  -165.9518263 Eh     change       -0.1141540E-02 Eh
   gradient norm :     0.0100247 Eh/α   predicted    -0.9093353E-03 ( -20.34%)
   displ. norm   :     0.3359567 α      lambda       -0.8896462E-03
   maximum displ.:     0.1208375 α      in ANC's #18, #27, #17, ...

........................................................................
.............................. CYCLE    8 ..............................
........................................................................

 iter      E             dE          RMSdq      gap      omega  full diag
   1   -168.7347087 -0.168735E+03  0.655E-02    0.08       0.0  T
   2   -168.7344186  0.290037E-03  0.702E-02    0.05       1.0  T
   3   -168.7345821 -0.163407E-03  0.776E-02    0.07       1.0  T
   4   -168.7343308  0.251262E-03  0.107E-01    0.08       1.0  T
   5   -168.7348144 -0.483612E-03  0.241E-02    0.07       1.0  T
   6   -168.7348298 -0.154442E-04  0.280E-02    0.07       1.0  T
   7   -168.7348318 -0.194201E-05  0.308E-02    0.07       1.0  T
   8   -168.7348655 -0.336683E-04  0.989E-03    0.07       1.0  T
   9   -168.7348716 -0.615705E-05  0.253E-03    0.07       3.7  T
  10   -168.7348716 -0.155563E-07  0.275E-03    0.07       3.4  T
  11   -168.7348719 -0.282657E-06  0.773E-04    0.07      12.1  T
  12   -168.7348719  0.194481E-08  0.733E-04    0.07      12.8  T
     SCC iter.                  ...        0 min,  0.186 sec
     gradient                   ...        0 min,  0.033 sec
 * total energy  :  -165.9524700 Eh     change       -0.6436915E-03 Eh
   gradient norm :     0.0098096 Eh/α   predicted    -0.4950311E-03 ( -23.09%)
   displ. norm   :     0.3239226 α      lambda       -0.6091512E-03
   maximum displ.:     0.1339300 α      in ANC's #18, #17, #27, ...

........................................................................
.............................. CYCLE    9 ..............................
........................................................................

 iter      E             dE          RMSdq      gap      omega  full diag
   1   -168.7403920 -0.168740E+03  0.681E-02    0.11       0.0  T
   2   -168.7395923  0.799669E-03  0.127E-01    0.08       1.0  T
   3   -168.7393400  0.252323E-03  0.169E-01    0.09       1.0  T
   4   -168.7404242 -0.108421E-02  0.409E-02    0.10       1.0  T
   5   -168.7404553 -0.311239E-04  0.338E-02    0.10       1.0  T
   6   -168.7405068 -0.514219E-04  0.299E-02    0.09       1.0  T
   7   -168.7405423 -0.355015E-04  0.136E-02    0.09       1.0  T
   8   -168.7405481 -0.583009E-05  0.773E-03    0.09       1.2  T
   9   -168.7405509 -0.277983E-05  0.111E-03    0.09       8.4  T
  10   -168.7405505  0.329238E-06  0.289E-03    0.09       3.2  T
  11   -168.7405509 -0.316707E-06  0.948E-04    0.09       9.9  T
  12   -168.7405509 -0.573797E-07  0.492E-04    0.09      19.0  T
     SCC iter.                  ...        0 min,  0.190 sec
     gradient                   ...        0 min,  0.033 sec
 * total energy  :  -165.9529216 Eh     change       -0.4516292E-03 Eh
   gradient norm :     0.0091328 Eh/α   predicted    -0.3365360E-03 ( -25.48%)
   displ. norm   :     0.3356963 α      lambda       -0.4999010E-03
   maximum displ.:     0.1529012 α      in ANC's #17, #18, #22, ...

........................................................................
.............................. CYCLE   10 ..............................
........................................................................

 iter      E             dE          RMSdq      gap      omega  full diag
   1   -168.7458378 -0.168746E+03  0.662E-02    0.14       0.0  T
   2   -168.7446042  0.123356E-02  0.171E-01    0.11       1.0  T
   3   -168.7453893 -0.785130E-03  0.111E-01    0.12       1.0  T
   4   -168.7458559 -0.466536E-03  0.415E-02    0.13       1.0  T
   5   -168.7458535  0.232367E-05  0.415E-02    0.13       1.0  T
   6   -168.7459304 -0.768380E-04  0.231E-02    0.12       1.0  T
   7   -168.7459631 -0.327322E-04  0.380E-03    0.12       2.5  T
   8   -168.7459635 -0.404721E-06  0.278E-03    0.12       3.4  T
   9   -168.7459641 -0.577716E-06  0.108E-03    0.12       8.7  T
  10   -168.7459640  0.682382E-07  0.152E-03    0.12       6.2  T
  11   -168.7459641 -0.115844E-06  0.712E-04    0.12      13.2  T
  12   -168.7459641  0.199782E-07  0.105E-03    0.12       8.9  T
  13   -168.7459642 -0.502387E-07  0.155E-04    0.12      60.4  T
     SCC iter.                  ...        0 min,  0.206 sec
     gradient                   ...        0 min,  0.032 sec
 * total energy  :  -165.9532871 Eh     change       -0.3654347E-03 Eh
   gradient norm :     0.0069622 Eh/α   predicted    -0.2781212E-03 ( -23.89%)
   displ. norm   :     0.3056620 α      lambda       -0.3605953E-03
   maximum displ.:     0.1482864 α      in ANC's #17, #18, #2, ...

........................................................................
.............................. CYCLE   11 ..............................
........................................................................

 iter      E             dE          RMSdq      gap      omega  full diag
   1   -168.7486638 -0.168749E+03  0.478E-02    0.16       0.0  T
   2   -168.7481790  0.484793E-03  0.116E-01    0.14       1.0  T
   3   -168.7485406 -0.361530E-03  0.591E-02    0.15       1.0  T
   4   -168.7485712 -0.306036E-04  0.531E-02    0.16       1.0  T
   5   -168.7486743 -0.103131E-03  0.222E-02    0.15       1.0  T
   6   -168.7487014 -0.270526E-04  0.109E-02    0.15       1.0  T
   7   -168.7487021 -0.765419E-06  0.136E-02    0.15       1.0  T
   8   -168.7487097 -0.755889E-05  0.141E-03    0.15       6.6  T
   9   -168.7487095  0.145965E-06  0.245E-03    0.15       3.8  T
  10   -168.7487097 -0.148288E-06  0.141E-03    0.15       6.6  T
  11   -168.7487098 -0.122151E-06  0.601E-04    0.15      15.6  T
  12   -168.7487099 -0.354936E-07  0.487E-04    0.15      19.2  T
     SCC iter.                  ...        0 min,  0.193 sec
     gradient                   ...        0 min,  0.033 sec
 * total energy  :  -165.9535451 Eh     change       -0.2580399E-03 Eh
   gradient norm :     0.0057379 Eh/α   predicted    -0.1971466E-03 ( -23.60%)
   displ. norm   :     0.2585236 α      lambda       -0.2412854E-03
   maximum displ.:     0.1252124 α      in ANC's #17, #18, #2, ...

........................................................................
.............................. CYCLE   12 ..............................
........................................................................

 iter      E             dE          RMSdq      gap      omega  full diag
   1   -168.7484411 -0.168748E+03  0.337E-02    0.17       0.0  T
   2   -168.7484437 -0.257334E-05  0.224E-02    0.16       1.0  T
   3   -168.7484353  0.835647E-05  0.160E-02    0.17       1.0  T
   4   -168.7483700  0.653212E-04  0.430E-02    0.16       1.0  T
   5   -168.7484437 -0.737128E-04  0.698E-03    0.16       1.3  T
   6   -168.7484294  0.143264E-04  0.226E-02    0.16       1.0  T
   7   -168.7484414 -0.120566E-04  0.143E-02    0.16       1.0  T
   8   -168.7484500 -0.850776E-05  0.138E-03    0.16       6.8  T
   9   -168.7484500 -0.680177E-08  0.176E-03    0.16       5.3  T
  10   -168.7484501 -0.122187E-06  0.831E-04    0.16      11.3  T
  11   -168.7484501 -0.420661E-07  0.350E-04    0.16      26.7  T
     SCC iter.                  ...        0 min,  0.173 sec
     gradient                   ...        0 min,  0.033 sec
 * total energy  :  -165.9537207 Eh     change       -0.1755312E-03 Eh
   gradient norm :     0.0061014 Eh/α   predicted    -0.1287085E-03 ( -26.67%)
   displ. norm   :     0.2506322 α      lambda       -0.1846278E-03
   maximum displ.:     0.1152204 α      in ANC's #17, #2, #18, ...

........................................................................
.............................. CYCLE   13 ..............................
........................................................................

 iter      E             dE          RMSdq      gap      omega  full diag
   1   -168.7463865 -0.168746E+03  0.360E-02    0.16       0.0  T
   2   -168.7461044  0.282197E-03  0.791E-02    0.16       1.0  T
   3   -168.7461621 -0.577616E-04  0.774E-02    0.16       1.0  T
   4   -168.7463666 -0.204481E-03  0.173E-02    0.16       1.0  T
   5   -168.7463801 -0.135402E-04  0.175E-02    0.16       1.0  T
   6   -168.7463765  0.366635E-05  0.215E-02    0.16       1.0  T
   7   -168.7463945 -0.180025E-04  0.497E-03    0.16       1.9  T
   8   -168.7463957 -0.122069E-05  0.903E-04    0.16      10.4  T
   9   -168.7463957 -0.631994E-08  0.117E-03    0.16       8.0  T
  10   -168.7463958 -0.549520E-07  0.684E-04    0.16      13.7  T
  11   -168.7463958 -0.249504E-07  0.376E-04    0.16      24.9  T
     SCC iter.                  ...        0 min,  0.171 sec
     gradient                   ...        0 min,  0.033 sec
 * total energy  :  -165.9538558 Eh     change       -0.1351173E-03 Eh
   gradient norm :     0.0059353 Eh/α   predicted    -0.9811879E-04 ( -27.38%)
   displ. norm   :     0.2537812 α      lambda       -0.1467226E-03
   maximum displ.:     0.1082654 α      in ANC's #17, #2, #1, ...

........................................................................
.............................. CYCLE   14 ..............................
........................................................................

 iter      E             dE          RMSdq      gap      omega  full diag
   1   -168.7441667 -0.168744E+03  0.365E-02    0.16       0.0  T
   2   -168.7437256  0.441099E-03  0.102E-01    0.16       1.0  T
   3   -168.7439961 -0.270540E-03  0.671E-02    0.16       1.0  T
   4   -168.7441167 -0.120584E-03  0.294E-02    0.16       1.0  T
   5   -168.7441525 -0.357509E-04  0.238E-02    0.16       1.0  T
   6   -168.7441743 -0.217836E-04  0.851E-03    0.16       1.1  T
   7   -168.7441771 -0.287035E-05  0.404E-03    0.16       2.3  T
   8   -168.7441776 -0.495603E-06  0.148E-03    0.16       6.3  T
   9   -168.7441778 -0.156511E-06  0.363E-04    0.16      25.8  T
  10   -168.7441778  0.166653E-07  0.738E-04    0.16      12.7  T
     SCC iter.                  ...        0 min,  0.157 sec
     gradient                   ...        0 min,  0.033 sec
 * total energy  :  -165.9539656 Eh     change       -0.1098226E-03 Eh
   gradient norm :     0.0052079 Eh/α   predicted    -0.7809086E-04 ( -28.89%)
   displ. norm   :     0.2663624 α      lambda       -0.1335645E-03
   maximum displ.:     0.1126508 α      in ANC's #2, #17, #1, ...

........................................................................
.............................. CYCLE   15 ..............................
........................................................................

 iter      E             dE          RMSdq      gap      omega  full diag
   1   -168.7429061 -0.168743E+03  0.334E-02    0.15       0.0  T
   2   -168.7426301  0.276021E-03  0.824E-02    0.15       1.0  T
   3   -168.7427834 -0.153236E-03  0.564E-02    0.15       1.0  T
   4   -168.7428315 -0.481718E-04  0.348E-02    0.15       1.0  T
   5   -168.7428888 -0.572560E-04  0.226E-02    0.15       1.0  T
   6   -168.7429114 -0.225953E-04  0.814E-03    0.15       1.2  T
   7   -168.7429148 -0.341634E-05  0.100E-03    0.15       9.4  T
   8   -168.7429150 -0.162592E-06  0.518E-04    0.15      18.1  T
   9   -168.7429150 -0.455850E-08  0.644E-04    0.15      14.6  T
     SCC iter.                  ...        0 min,  0.141 sec
     gradient                   ...        0 min,  0.033 sec
 * total energy  :  -165.9540679 Eh     change       -0.1022982E-03 Eh
   gradient norm :     0.0043452 Eh/α   predicted    -0.7152542E-04 ( -30.08%)
   displ. norm   :     0.2953500 α      lambda       -0.1367018E-03
   maximum displ.:     0.1335426 α      in ANC's #2, #1, #17, ...

........................................................................
.............................. CYCLE   16 ..............................
........................................................................

 iter      E             dE          RMSdq      gap      omega  full diag
   1   -168.7427873 -0.168743E+03  0.304E-02    0.14       0.0  T
   2   -168.7427487  0.386143E-04  0.356E-02    0.14       1.0  T
   3   -168.7426197  0.128997E-03  0.635E-02    0.14       1.0  T
   4   -168.7427124 -0.926554E-04  0.336E-02    0.14       1.0  T
   5   -168.7427820 -0.695914E-04  0.115E-02    0.14       1.0  T
   6   -168.7427910 -0.901141E-05  0.296E-03    0.14       3.2  T
   7   -168.7427918 -0.858703E-06  0.358E-03    0.14       2.6  T
   8   -168.7427923 -0.495628E-06  0.170E-03    0.14       5.5  T
   9   -168.7427924 -0.122025E-06  0.863E-04    0.14      10.9  T
  10   -168.7427925 -0.330837E-07  0.204E-04    0.14      46.0  T
     SCC iter.                  ...        0 min,  0.156 sec
     gradient                   ...        0 min,  0.033 sec
 * total energy  :  -165.9541757 Eh     change       -0.1077730E-03 Eh
   gradient norm :     0.0041666 Eh/α   predicted    -0.7431435E-04 ( -31.05%)
   displ. norm   :     0.3489575 α      lambda       -0.1577683E-03
   maximum displ.:     0.1660851 α      in ANC's #2, #1, #9, ...

........................................................................
.............................. CYCLE   17 ..............................
........................................................................

 iter      E             dE          RMSdq      gap      omega  full diag
   1   -168.7436350 -0.168744E+03  0.329E-02    0.13       0.0  T
   2   -168.7436027  0.323861E-04  0.314E-02    0.13       1.0  T
   3   -168.7432472  0.355449E-03  0.970E-02    0.13       1.0  T
   4   -168.7435963 -0.349053E-03  0.193E-02    0.13       1.0  T
   5   -168.7436318 -0.355731E-04  0.999E-03    0.13       1.0  T
   6   -168.7436361 -0.428987E-05  0.107E-02    0.13       1.0  T
   7   -168.7436376 -0.145136E-05  0.787E-03    0.13       1.2  T
   8   -168.7436397 -0.207460E-05  0.366E-03    0.13       2.6  T
   9   -168.7436403 -0.595040E-06  0.101E-03    0.13       9.3  T
  10   -168.7436403 -0.439680E-07  0.385E-04    0.13      24.3  T
  11   -168.7436403 -0.331875E-08  0.174E-04    0.13      54.0  T
     SCC iter.                  ...        0 min,  0.171 sec
     gradient                   ...        0 min,  0.034 sec
 * total energy  :  -165.9543031 Eh     change       -0.1274809E-03 Eh
   gradient norm :     0.0050229 Eh/α   predicted    -0.8849214E-04 ( -30.58%)
   displ. norm   :     0.4199608 α      lambda       -0.1924826E-03
   maximum displ.:     0.2073469 α      in ANC's #2, #1, #9, ...

........................................................................
.............................. CYCLE   18 ..............................
........................................................................

 iter      E             dE          RMSdq      gap      omega  full diag
   1   -168.7450197 -0.168745E+03  0.399E-02    0.13       0.0  T
   2   -168.7447859  0.233790E-03  0.740E-02    0.13       1.0  T
   3   -168.7447380  0.478925E-04  0.859E-02    0.13       1.0  T
   4   -168.7449649 -0.226941E-03  0.261E-02    0.12       1.0  T
   5   -168.7449968 -0.318444E-04  0.263E-02    0.13       1.0  T
   6   -168.7450029 -0.617158E-05  0.253E-02    0.13       1.0  T
   7   -168.7450249 -0.220061E-04  0.885E-03    0.13       1.1  T
   8   -168.7450286 -0.365927E-05  0.921E-04    0.13      10.2  T
   9   -168.7450287 -0.852799E-07  0.107E-03    0.13       8.7  T
  10   -168.7450287 -0.468580E-07  0.386E-04    0.13      24.3  T
  11   -168.7450287 -0.728775E-08  0.242E-04    0.13      38.8  T
     SCC iter.                  ...        0 min,  0.170 sec
     gradient                   ...        0 min,  0.036 sec
 * total energy  :  -165.9544607 Eh     change       -0.1575617E-03 Eh
   gradient norm :     0.0062516 Eh/α   predicted    -0.1132185E-03 ( -28.14%)
   displ. norm   :     0.4777099 α      lambda       -0.2265479E-03
   maximum displ.:     0.2428431 α      in ANC's #2, #1, #9, ...

........................................................................
.............................. CYCLE   19 ..............................
........................................................................

 iter      E             dE          RMSdq      gap      omega  full diag
   1   -168.7465986 -0.168747E+03  0.459E-02    0.12       0.0  T
   2   -168.7461586  0.440004E-03  0.101E-01    0.12       1.0  T
   3   -168.7462638 -0.105196E-03  0.941E-02    0.12       1.0  T
   4   -168.7465061 -0.242263E-03  0.347E-02    0.12       1.0  T
   5   -168.7465636 -0.574690E-04  0.345E-02    0.12       1.0  T
   6   -168.7465706 -0.708024E-05  0.310E-02    0.12       1.0  T
   7   -168.7466110 -0.403734E-04  0.577E-03    0.12       1.6  T
   8   -168.7466127 -0.165303E-05  0.841E-04    0.12      11.1  T
   9   -168.7466126  0.115109E-07  0.847E-04    0.12      11.1  T
  10   -168.7466127 -0.442601E-07  0.827E-04    0.12      11.3  T
     SCC iter.                  ...        0 min,  0.155 sec
     gradient                   ...        0 min,  0.033 sec
 * total energy  :  -165.9546457 Eh     change       -0.1850329E-03 Eh
   gradient norm :     0.0067740 Eh/α   predicted    -0.1391294E-03 ( -24.81%)
   displ. norm   :     0.5122163 α      lambda       -0.2410658E-03
   maximum displ.:     0.2656735 α      in ANC's #2, #1, #9, ...

........................................................................
.............................. CYCLE   20 ..............................
........................................................................

 iter      E             dE          RMSdq      gap      omega  full diag
   1   -168.7471230 -0.168747E+03  0.468E-02    0.13       0.0  T
   2   -168.7467861  0.336911E-03  0.894E-02    0.13       1.0  T
   3   -168.7467722  0.139760E-04  0.960E-02    0.13       1.0  T
   4   -168.7469990 -0.226825E-03  0.379E-02    0.13       1.0  T
   5   -168.7471016 -0.102648E-03  0.290E-02    0.13       1.0  T
   6   -168.7471099 -0.823742E-05  0.248E-02    0.13       1.0  T
   7   -168.7471344 -0.245619E-04  0.839E-03    0.13       1.1  T
   8   -168.7471374 -0.298724E-05  0.349E-03    0.13       2.7  T
   9   -168.7471380 -0.565506E-06  0.101E-03    0.13       9.2  T
  10   -168.7471379  0.388861E-07  0.157E-03    0.13       6.0  T
  11   -168.7471380 -0.102143E-06  0.336E-04    0.13      27.9  T
  12   -168.7471380  0.743654E-09  0.439E-04    0.13      21.3  T
     SCC iter.                  ...        0 min,  0.193 sec
     gradient                   ...        0 min,  0.033 sec
 * total energy  :  -165.9548419 Eh     change       -0.1961794E-03 Eh
   gradient norm :     0.0062134 Eh/α   predicted    -0.1521611E-03 ( -22.44%)
   displ. norm   :     0.4821382 α      lambda       -0.2591867E-03
   maximum displ.:     0.2570881 α      in ANC's #2, #1, #9, ...
 * RMSD in coord.:     0.4973157 α      energy gain  -0.1873473E+00 Eh

generating ANC from exact Hessian ...
Using Lindh-Hessian (1995)
 Shifting diagonal of input Hessian by    9.9508126983933100E-003
 Lowest  eigenvalues of input Hessian
    0.000000    0.000000    0.000000    0.000000    0.000000    0.000000
    0.010000    0.010073    0.010180    0.010198    0.010200    0.010211
    0.010269    0.010276    0.010478    0.010491    0.010678    0.010713
 Highest eigenvalues
    2.048794    2.052043    2.073901    2.079288    2.081319    2.093049


........................................................................
.............................. CYCLE   21 ..............................
........................................................................

 iter      E             dE          RMSdq      gap      omega  full diag
   1   -168.7505541 -0.168751E+03  0.447E-02    0.14       0.0  T
   2   -168.7504163  0.137765E-03  0.600E-02    0.13       1.0  T
   3   -168.7501336  0.282681E-03  0.104E-01    0.14       1.0  T
   4   -168.7504306 -0.296987E-03  0.347E-02    0.14       1.0  T
   5   -168.7505525 -0.121831E-03  0.181E-02    0.14       1.0  T
   6   -168.7505581 -0.563482E-05  0.150E-02    0.14       1.0  T
   7   -168.7505689 -0.107937E-04  0.473E-03    0.14       2.0  T
   8   -168.7505704 -0.152742E-05  0.246E-03    0.14       3.8  T
   9   -168.7505706 -0.210024E-06  0.106E-03    0.14       8.9  T
  10   -168.7505706  0.560735E-07  0.184E-03    0.14       5.1  T
  11   -168.7505707 -0.133452E-06  0.500E-04    0.14      18.7  T
  12   -168.7505707  0.118862E-07  0.786E-04    0.14      11.9  T
     SCC iter.                  ...        0 min,  0.184 sec
     gradient                   ...        0 min,  0.033 sec
 * total energy  :  -165.9550168 Eh     change       -0.1748815E-03 Eh
   gradient norm :     0.0049429 Eh/α   predicted     0.0000000E+00 (-100.00%)
   displ. norm   :     0.0652308 α      lambda       -0.1097748E-03
   maximum displ.:     0.0231181 α      in ANC's #58, #17, #38, ...

........................................................................
.............................. CYCLE   22 ..............................
........................................................................

 iter      E             dE          RMSdq      gap      omega  full diag
   1   -168.7494841 -0.168749E+03  0.149E-02    0.14       0.0  T
   2   -168.7494543  0.298271E-04  0.240E-02    0.14       1.0  T
   3   -168.7493906  0.636660E-04  0.494E-02    0.14       1.0  T
   4   -168.7494637 -0.731264E-04  0.199E-02    0.14       1.0  T
   5   -168.7494840 -0.202817E-04  0.631E-03    0.14       1.5  T
   6   -168.7494780  0.598891E-05  0.144E-02    0.14       1.0  T
   7   -168.7494855 -0.750214E-05  0.361E-03    0.14       2.6  T
   8   -168.7494865 -0.935036E-06  0.807E-04    0.14      11.6  T
   9   -168.7494865 -0.245779E-07  0.712E-04    0.14      13.2  T
     SCC iter.                  ...        0 min,  0.145 sec
     gradient                   ...        0 min,  0.033 sec
 * total energy  :  -165.9551048 Eh     change       -0.8804443E-04 Eh
   gradient norm :     0.0026332 Eh/α   predicted    -0.5515957E-04 ( -37.35%)
   displ. norm   :     0.1669082 α      lambda       -0.1644203E-03
   maximum displ.:     0.0579304 α      in ANC's #17, #38, #1, ...

........................................................................
.............................. CYCLE   23 ..............................
........................................................................

 iter      E             dE          RMSdq      gap      omega  full diag
   1   -168.7472592 -0.168747E+03  0.273E-02    0.14       0.0  T
   2   -168.7471977  0.615095E-04  0.345E-02    0.14       1.0  T
   3   -168.7469835  0.214143E-03  0.839E-02    0.14       1.0  T
   4   -168.7471953 -0.211785E-03  0.333E-02    0.14       1.0  T
   5   -168.7472581 -0.628295E-04  0.914E-03    0.14       1.0  T
   6   -168.7472379  0.201986E-04  0.262E-02    0.14       1.0  T
   7   -168.7472632 -0.252601E-04  0.696E-03    0.14       1.3  T
   8   -168.7472660 -0.281501E-05  0.137E-03    0.14       6.8  T
   9   -168.7472661 -0.106082E-06  0.120E-03    0.14       7.8  T
  10   -168.7472662 -0.568070E-07  0.591E-04    0.14      15.8  T
  11   -168.7472662 -0.161759E-07  0.480E-04    0.14      19.5  T
     SCC iter.                  ...        0 min,  0.172 sec
     gradient                   ...        0 min,  0.032 sec
 * total energy  :  -165.9552123 Eh     change       -0.1074182E-03 Eh
   gradient norm :     0.0025788 Eh/α   predicted    -0.8450202E-04 ( -21.33%)
   displ. norm   :     0.1391105 α      lambda       -0.7439692E-04
   maximum displ.:     0.0544061 α      in ANC's #38, #17, #1, ...

........................................................................
.............................. CYCLE   24 ..............................
........................................................................

 iter      E             dE          RMSdq      gap      omega  full diag
   1   -168.7461313 -0.168746E+03  0.190E-02    0.14       0.0  T
   2   -168.7460715  0.598665E-04  0.369E-02    0.14       1.0  T
   3   -168.7460571  0.143243E-04  0.437E-02    0.14       1.0  T
   4   -168.7461145 -0.573554E-04  0.141E-02    0.14       1.0  T
   5   -168.7461294 -0.149283E-04  0.967E-03    0.14       1.0  T
   6   -168.7461296 -0.154222E-06  0.971E-03    0.14       1.0  T
   7   -168.7461336 -0.400334E-05  0.279E-03    0.14       3.4  T
   8   -168.7461339 -0.364497E-06  0.565E-04    0.14      16.6  T
   9   -168.7461339 -0.389565E-08  0.337E-04    0.14      27.8  T
     SCC iter.                  ...        0 min,  0.141 sec
     gradient                   ...        0 min,  0.033 sec
 * total energy  :  -165.9552725 Eh     change       -0.6024307E-04 Eh
   gradient norm :     0.0034772 Eh/α   predicted    -0.3792365E-04 ( -37.05%)
   displ. norm   :     0.2822560 α      lambda       -0.1438304E-03
   maximum displ.:     0.1175921 α      in ANC's #38, #17, #1, ...

........................................................................
.............................. CYCLE   25 ..............................
........................................................................

 iter      E             dE          RMSdq      gap      omega  full diag
   1   -168.7445179 -0.168745E+03  0.344E-02    0.15       0.0  T
   2   -168.7443203  0.197546E-03  0.710E-02    0.15       1.0  T
   3   -168.7443488 -0.285458E-04  0.648E-02    0.15       1.0  T
   4   -168.7444413 -0.924722E-04  0.341E-02    0.15       1.0  T
   5   -168.7444982 -0.569127E-04  0.218E-02    0.15       1.0  T
   6   -168.7445230 -0.247872E-04  0.428E-03    0.15       2.2  T
   7   -168.7445245 -0.143488E-05  0.214E-03    0.15       4.4  T
   8   -168.7445247 -0.263649E-06  0.502E-04    0.15      18.6  T
   9   -168.7445247  0.676002E-08  0.661E-04    0.15      14.2  T
     SCC iter.                  ...        0 min,  0.143 sec
     gradient                   ...        0 min,  0.033 sec
 * total energy  :  -165.9553819 Eh     change       -0.1094309E-03 Eh
   gradient norm :     0.0042609 Eh/α   predicted    -0.7764528E-04 ( -29.05%)
   displ. norm   :     0.3211597 α      lambda       -0.1522856E-03
   maximum displ.:     0.1391998 α      in ANC's #38, #1, #17, ...

........................................................................
.............................. CYCLE   26 ..............................
........................................................................

 iter      E             dE          RMSdq      gap      omega  full diag
   1   -168.7436159 -0.168744E+03  0.340E-02    0.15       0.0  T
   2   -168.7435703  0.455638E-04  0.402E-02    0.15       1.0  T
   3   -168.7433973  0.173037E-03  0.717E-02    0.15       1.0  T
   4   -168.7434935 -0.962654E-04  0.471E-02    0.15       1.0  T
   5   -168.7435975 -0.103914E-03  0.169E-02    0.15       1.0  T
   6   -168.7436087 -0.112459E-04  0.148E-02    0.15       1.0  T
   7   -168.7436182 -0.952790E-05  0.422E-03    0.15       2.2  T
   8   -168.7436192 -0.959180E-06  0.863E-04    0.15      10.8  T
   9   -168.7436192 -0.334071E-07  0.434E-04    0.15      21.6  T
     SCC iter.                  ...        0 min,  0.145 sec
     gradient                   ...        0 min,  0.033 sec
 * total energy  :  -165.9554984 Eh     change       -0.1164487E-03 Eh
   gradient norm :     0.0046297 Eh/α   predicted    -0.8399812E-04 ( -27.87%)
   displ. norm   :     0.3201583 α      lambda       -0.1700392E-03
   maximum displ.:     0.1424226 α      in ANC's #1, #38, #17, ...

........................................................................
.............................. CYCLE   27 ..............................
........................................................................

 iter      E             dE          RMSdq      gap      omega  full diag
   1   -168.7447134 -0.168745E+03  0.318E-02    0.15       0.0  T
   2   -168.7446813  0.320477E-04  0.304E-02    0.15       1.0  T
   3   -168.7442764  0.404946E-03  0.103E-01    0.15       1.0  T
   4   -168.7446526 -0.376240E-03  0.316E-02    0.15       1.0  T
   5   -168.7446976 -0.449729E-04  0.138E-02    0.15       1.0  T
   6   -168.7447026 -0.495639E-05  0.161E-02    0.15       1.0  T
   7   -168.7447156 -0.130657E-04  0.271E-03    0.15       3.5  T
   8   -168.7447158 -0.200016E-06  0.804E-04    0.15      11.7  T
   9   -168.7447158 -0.230219E-07  0.505E-04    0.15      18.5  T
     SCC iter.                  ...        0 min,  0.142 sec
     gradient                   ...        0 min,  0.035 sec
 * total energy  :  -165.9556282 Eh     change       -0.1297763E-03 Eh
   gradient norm :     0.0041371 Eh/α   predicted    -0.9375623E-04 ( -27.76%)
   displ. norm   :     0.3095830 α      lambda       -0.1679706E-03
   maximum displ.:     0.1494760 α      in ANC's #1, #38, #2, ...

........................................................................
.............................. CYCLE   28 ..............................
........................................................................

 iter      E             dE          RMSdq      gap      omega  full diag
   1   -168.7472099 -0.168747E+03  0.326E-02    0.15       0.0  T
   2   -168.7469423  0.267669E-03  0.792E-02    0.15       1.0  T
   3   -168.7471277 -0.185475E-03  0.490E-02    0.15       1.0  T
   4   -168.7471921 -0.643712E-04  0.153E-02    0.15       1.0  T
   5   -168.7472113 -0.191980E-04  0.101E-02    0.15       1.0  T
   6   -168.7472096  0.175193E-05  0.122E-02    0.15       1.0  T
   7   -168.7472166 -0.708672E-05  0.361E-03    0.15       2.6  T
   8   -168.7472172 -0.548555E-06  0.103E-03    0.15       9.1  T
   9   -168.7472172 -0.465292E-07  0.786E-04    0.15      11.9  T
  10   -168.7472173 -0.250801E-07  0.464E-04    0.15      20.2  T
     SCC iter.                  ...        0 min,  0.162 sec
     gradient                   ...        0 min,  0.035 sec
 * total energy  :  -165.9557577 Eh     change       -0.1295695E-03 Eh
   gradient norm :     0.0036772 Eh/α   predicted    -0.9210185E-04 ( -28.92%)
   displ. norm   :     0.3755344 α      lambda       -0.1709815E-03
   maximum displ.:     0.1876830 α      in ANC's #1, #38, #2, ...

........................................................................
.............................. CYCLE   29 ..............................
........................................................................

 iter      E             dE          RMSdq      gap      omega  full diag
   1   -168.7480309 -0.168748E+03  0.367E-02    0.15       0.0  T
   2   -168.7477150  0.315876E-03  0.890E-02    0.15       1.0  T
   3   -168.7479516 -0.236629E-03  0.475E-02    0.15       1.0  T
   4   -168.7479737 -0.220697E-04  0.311E-02    0.15       1.0  T
   5   -168.7480263 -0.525787E-04  0.154E-02    0.15       1.0  T
   6   -168.7480388 -0.124860E-04  0.387E-03    0.15       2.4  T
   7   -168.7480400 -0.124933E-05  0.164E-03    0.15       5.7  T
   8   -168.7480401 -0.952194E-07  0.619E-04    0.15      15.1  T
   9   -168.7480401  0.811241E-08  0.847E-04    0.15      11.1  T
     SCC iter.                  ...        0 min,  0.141 sec
     gradient                   ...        0 min,  0.034 sec
 * total energy  :  -165.9558895 Eh     change       -0.1317668E-03 Eh
   gradient norm :     0.0049781 Eh/α   predicted    -0.9754909E-04 ( -25.97%)
   displ. norm   :     0.3918938 α      lambda       -0.2737087E-03
   maximum displ.:     0.1981200 α      in ANC's #1, #2, #25, ...

........................................................................
.............................. CYCLE   30 ..............................
........................................................................

 iter      E             dE          RMSdq      gap      omega  full diag
   1   -168.7551071 -0.168755E+03  0.506E-02    0.14       0.0  T
   2   -168.7542822  0.824895E-03  0.144E-01    0.14       1.0  T
   3   -168.7548812 -0.599008E-03  0.761E-02    0.14       1.0  T
   4   -168.7549200 -0.387966E-04  0.600E-02    0.14       1.0  T
   5   -168.7550088 -0.888193E-04  0.489E-02    0.14       1.0  T
   6   -168.7551319 -0.123083E-03  0.849E-03    0.14       1.1  T
   7   -168.7551360 -0.414443E-05  0.322E-03    0.14       2.9  T
   8   -168.7551363 -0.297502E-06  0.143E-03    0.14       6.5  T
   9   -168.7551364 -0.108604E-06  0.927E-04    0.14      10.1  T
  10   -168.7551364 -0.128907E-08  0.126E-03    0.14       7.4  T
  11   -168.7551365 -0.751450E-07  0.493E-04    0.14      19.0  T
     SCC iter.                  ...        0 min,  0.180 sec
     gradient                   ...        0 min,  0.035 sec
 * total energy  :  -165.9559974 Eh     change       -0.1079507E-03 Eh
   gradient norm :     0.0069379 Eh/α   predicted    -0.1578723E-03 (  46.24%)
   displ. norm   :     0.5025365 α      lambda       -0.2906699E-03
   maximum displ.:     0.2582604 α      in ANC's #1, #38, #2, ...

........................................................................
.............................. CYCLE   31 ..............................
........................................................................

 iter      E             dE          RMSdq      gap      omega  full diag
   1   -168.7473601 -0.168747E+03  0.462E-02    0.14       0.0  T
   2   -168.7473347  0.253465E-04  0.413E-02    0.14       1.0  T
   3   -168.7467612  0.573544E-03  0.120E-01    0.14       1.0  T
   4   -168.7472728 -0.511582E-03  0.407E-02    0.13       1.0  T
   5   -168.7473623 -0.895348E-04  0.106E-02    0.14       1.0  T
   6   -168.7473622  0.130262E-06  0.116E-02    0.14       1.0  T
   7   -168.7473684 -0.627171E-05  0.556E-03    0.14       1.7  T
   8   -168.7473697 -0.129149E-05  0.826E-04    0.14      11.3  T
   9   -168.7473697  0.217647E-07  0.967E-04    0.14       9.7  T
  10   -168.7473698 -0.586758E-07  0.473E-04    0.14      19.8  T
     SCC iter.                  ...        0 min,  0.154 sec
     gradient                   ...        0 min,  0.035 sec
 * total energy  :  -165.9561002 Eh     change       -0.1027854E-03 Eh
   gradient norm :     0.0092450 Eh/α   predicted    -0.1820454E-03 (  77.11%)
   displ. norm   :     0.1613130 α      lambda       -0.2000832E-03
   maximum displ.:     0.0693906 α      in ANC's #38, #17, #1, ...

........................................................................
.............................. CYCLE   32 ..............................
........................................................................

 iter      E             dE          RMSdq      gap      omega  full diag
   1   -168.7496691 -0.168750E+03  0.266E-02    0.14       0.0  T
   2   -168.7493205  0.348611E-03  0.913E-02    0.14       1.0  T
   3   -168.7496307 -0.310196E-03  0.351E-02    0.14       1.0  T
   4   -168.7496435 -0.127912E-04  0.187E-02    0.14       1.0  T
   5   -168.7496756 -0.321039E-04  0.733E-03    0.14       1.3  T
   6   -168.7496778 -0.226216E-05  0.356E-03    0.14       2.6  T
   7   -168.7496789 -0.101529E-05  0.165E-03    0.14       5.7  T
   8   -168.7496790 -0.106891E-06  0.106E-03    0.14       8.9  T
   9   -168.7496790 -0.658239E-07  0.319E-04    0.14      29.3  T
  10   -168.7496790  0.109321E-08  0.466E-04    0.14      20.1  T
     SCC iter.                  ...        0 min,  0.152 sec
     gradient                   ...        0 min,  0.033 sec
 * total energy  :  -165.9562241 Eh     change       -0.1238913E-03 Eh
   gradient norm :     0.0034939 Eh/α   predicted    -0.1026465E-03 ( -17.15%)
   displ. norm   :     0.2215298 α      lambda       -0.1496489E-03
   maximum displ.:     0.1280297 α      in ANC's #1, #2, #37, ...

........................................................................
.............................. CYCLE   33 ..............................
........................................................................

 iter      E             dE          RMSdq      gap      omega  full diag
   1   -168.7487053 -0.168749E+03  0.261E-02    0.14       0.0  T
   2   -168.7484471  0.258166E-03  0.774E-02    0.14       1.0  T
   3   -168.7486678 -0.220686E-03  0.353E-02    0.14       1.0  T
   4   -168.7486709 -0.309217E-05  0.208E-02    0.14       1.0  T
   5   -168.7487088 -0.379290E-04  0.596E-03    0.14       1.6  T
   6   -168.7487091 -0.263589E-06  0.775E-03    0.14       1.2  T
   7   -168.7487115 -0.238846E-05  0.311E-03    0.14       3.0  T
   8   -168.7487121 -0.575998E-06  0.864E-04    0.14      10.8  T
   9   -168.7487121 -0.207826E-07  0.431E-04    0.14      21.7  T
     SCC iter.                  ...        0 min,  0.143 sec
     gradient                   ...        0 min,  0.033 sec
 * total energy  :  -165.9563386 Eh     change       -0.1144850E-03 Eh
   gradient norm :     0.0026743 Eh/α   predicted    -0.7849491E-04 ( -31.44%)
   displ. norm   :     0.4239071 α      lambda       -0.1779394E-03
   maximum displ.:     0.2533652 α      in ANC's #1, #2, #37, ...

........................................................................
.............................. CYCLE   34 ..............................
........................................................................

 iter      E             dE          RMSdq      gap      omega  full diag
   1   -168.7463717 -0.168746E+03  0.383E-02    0.14       0.0  T
   2   -168.7461598  0.211891E-03  0.722E-02    0.14       1.0  T
   3   -168.7462467 -0.869111E-04  0.597E-02    0.14       1.0  T
   4   -168.7463046 -0.579103E-04  0.278E-02    0.14       1.0  T
   5   -168.7463649 -0.602862E-04  0.137E-02    0.14       1.0  T
   6   -168.7463765 -0.115882E-04  0.511E-03    0.14       1.8  T
   7   -168.7463777 -0.123304E-05  0.231E-03    0.14       4.1  T
   8   -168.7463781 -0.448624E-06  0.667E-04    0.14      14.1  T
   9   -168.7463781  0.846083E-08  0.851E-04    0.14      11.0  T
     SCC iter.                  ...        0 min,  0.142 sec
     gradient                   ...        0 min,  0.035 sec
 * total energy  :  -165.9564694 Eh     change       -0.1307849E-03 Eh
   gradient norm :     0.0043844 Eh/α   predicted    -0.1049521E-03 ( -19.75%)
   displ. norm   :     0.4490886 α      lambda       -0.1618196E-03
   maximum displ.:     0.2777484 α      in ANC's #1, #2, #37, ...

........................................................................
.............................. CYCLE   35 ..............................
........................................................................

 iter      E             dE          RMSdq      gap      omega  full diag
   1   -168.7436252 -0.168744E+03  0.359E-02    0.14       0.0  T
   2   -168.7436145  0.107513E-04  0.262E-02    0.14       1.0  T
   3   -168.7430639  0.550591E-03  0.114E-01    0.14       1.0  T
   4   -168.7436041 -0.540226E-03  0.152E-02    0.14       1.0  T
   5   -168.7436131 -0.899194E-05  0.147E-02    0.14       1.0  T
   6   -168.7436268 -0.136539E-04  0.358E-03    0.14       2.6  T
   7   -168.7436277 -0.952159E-06  0.868E-04    0.14      10.8  T
   8   -168.7436277 -0.216453E-07  0.743E-04    0.14      12.6  T
     SCC iter.                  ...        0 min,  0.130 sec
     gradient                   ...        0 min,  0.036 sec
 * total energy  :  -165.9565713 Eh     change       -0.1018758E-03 Eh
   gradient norm :     0.0072023 Eh/α   predicted    -0.9722202E-04 (  -4.57%)
   displ. norm   :     0.3112982 α      lambda       -0.1999219E-03
   maximum displ.:     0.2049550 α      in ANC's #1, #2, #17, ...

........................................................................
.............................. CYCLE   36 ..............................
........................................................................

 iter      E             dE          RMSdq      gap      omega  full diag
   1   -168.7467017 -0.168747E+03  0.268E-02    0.14       0.0  T
   2   -168.7466875  0.142049E-04  0.230E-02    0.14       1.0  T
   3   -168.7463911  0.296368E-03  0.868E-02    0.14       1.0  T
   4   -168.7466916 -0.300447E-03  0.104E-02    0.14       1.0  T
   5   -168.7466994 -0.781381E-05  0.948E-03    0.14       1.0  T
   6   -168.7466994  0.654998E-08  0.813E-03    0.14       1.2  T
   7   -168.7467045 -0.513865E-05  0.364E-03    0.14       2.6  T
   8   -168.7467050 -0.507689E-06  0.626E-04    0.14      15.0  T
   9   -168.7467050  0.184158E-07  0.888E-04    0.14      10.6  T
     SCC iter.                  ...        0 min,  0.140 sec
     gradient                   ...        0 min,  0.033 sec
 * total energy  :  -165.9567220 Eh     change       -0.1507174E-03 Eh
   gradient norm :     0.0040259 Eh/α   predicted    -0.1096499E-03 ( -27.25%)
   displ. norm   :     0.4311851 α      lambda       -0.1941720E-03
   maximum displ.:     0.2899030 α      in ANC's #1, #2, #37, ...

........................................................................
.............................. CYCLE   37 ..............................
........................................................................

 iter      E             dE          RMSdq      gap      omega  full diag
   1   -168.7479359 -0.168748E+03  0.333E-02    0.15       0.0  T
   2   -168.7478329  0.103050E-03  0.528E-02    0.15       1.0  T
   3   -168.7477800  0.529218E-04  0.640E-02    0.15       1.0  T
   4   -168.7479197 -0.139792E-03  0.155E-02    0.15       1.0  T
   5   -168.7479361 -0.163515E-04  0.943E-03    0.15       1.0  T
   6   -168.7479369 -0.825001E-06  0.662E-03    0.15       1.4  T
   7   -168.7479407 -0.382702E-05  0.118E-03    0.15       7.9  T
   8   -168.7479408 -0.718987E-08  0.653E-04    0.15      14.3  T
   9   -168.7479408 -0.470092E-07  0.554E-04    0.15      16.9  T
     SCC iter.                  ...        0 min,  0.147 sec
     gradient                   ...        0 min,  0.033 sec
 * total energy  :  -165.9568791 Eh     change       -0.1571000E-03 Eh
   gradient norm :     0.0041334 Eh/α   predicted    -0.1151325E-03 ( -26.71%)
   displ. norm   :     0.4749682 α      lambda       -0.2344759E-03
   maximum displ.:     0.3223781 α      in ANC's #1, #2, #17, ...

........................................................................
.............................. CYCLE   38 ..............................
........................................................................

 iter      E             dE          RMSdq      gap      omega  full diag
   1   -168.7508570 -0.168751E+03  0.385E-02    0.16       0.0  T
   2   -168.7508216  0.354210E-04  0.370E-02    0.15       1.0  T
   3   -168.7503238  0.497805E-03  0.115E-01    0.15       1.0  T
   4   -168.7508325 -0.508697E-03  0.182E-02    0.16       1.0  T
   5   -168.7508554 -0.229614E-04  0.812E-03    0.15       1.2  T
   6   -168.7508595 -0.409402E-05  0.397E-03    0.15       2.4  T
   7   -168.7508608 -0.127877E-05  0.193E-03    0.15       4.9  T
   8   -168.7508609 -0.123218E-06  0.578E-04    0.15      16.2  T
   9   -168.7508609  0.658181E-08  0.825E-04    0.15      11.4  T
     SCC iter.                  ...        0 min,  0.141 sec
     gradient                   ...        0 min,  0.034 sec
 * total energy  :  -165.9570508 Eh     change       -0.1717095E-03 Eh
   gradient norm :     0.0044132 Eh/α   predicted    -0.1436815E-03 ( -16.32%)
   displ. norm   :     0.7000196 α      lambda       -0.2597152E-03
   maximum displ.:     0.4743891 α      in ANC's #1, #2, #37, ...

........................................................................
.............................. CYCLE   39 ..............................
........................................................................

 iter      E             dE          RMSdq      gap      omega  full diag
   1   -168.7438731 -0.168744E+03  0.539E-02    0.16       0.0  T
   2   -168.7437630  0.110159E-03  0.618E-02    0.16       1.0  T
   3   -168.7432149  0.548115E-03  0.128E-01    0.16       1.0  T
   4   -168.7438228 -0.607934E-03  0.336E-02    0.16       1.0  T
   5   -168.7438806 -0.578286E-04  0.416E-03    0.16       2.3  T
   6   -168.7438803  0.378106E-06  0.422E-03    0.16       2.2  T
   7   -168.7438828 -0.258112E-05  0.990E-04    0.16       9.5  T
   8   -168.7438828  0.575473E-07  0.135E-03    0.16       6.9  T
   9   -168.7438829 -0.780984E-07  0.751E-04    0.16      12.5  T
  10   -168.7438829 -0.348454E-07  0.255E-04    0.16      36.8  T
     SCC iter.                  ...        0 min,  0.155 sec
     gradient                   ...        0 min,  0.037 sec
 * total energy  :  -165.9571018 Eh     change       -0.5099283E-04 Eh
   gradient norm :     0.0118616 Eh/α   predicted    -0.1934753E-03 ( 279.42%)
   displ. norm   :     0.1622393 α      lambda       -0.3586415E-03
   maximum displ.:     0.0885142 α      in ANC's #18, #17, #22, ...

........................................................................
.............................. CYCLE   40 ..............................
........................................................................

 iter      E             dE          RMSdq      gap      omega  full diag
   1   -168.7503370 -0.168750E+03  0.339E-02    0.15       0.0  T
   2   -168.7498953  0.441731E-03  0.108E-01    0.16       1.0  T
   3   -168.7502223 -0.326974E-03  0.556E-02    0.16       1.0  T
   4   -168.7502751 -0.527867E-04  0.378E-02    0.15       1.0  T
   5   -168.7503330 -0.579385E-04  0.140E-02    0.16       1.0  T
   6   -168.7503480 -0.150170E-04  0.678E-03    0.16       1.4  T
   7   -168.7503504 -0.238728E-05  0.112E-03    0.16       8.4  T
   8   -168.7503504  0.157712E-07  0.162E-03    0.16       5.8  T
   9   -168.7503505 -0.138421E-06  0.728E-04    0.16      12.9  T
  10   -168.7503506 -0.155778E-07  0.640E-04    0.16      14.6  T
     SCC iter.                  ...        0 min,  0.163 sec
     gradient                   ...        0 min,  0.033 sec
 * total energy  :  -165.9572488 Eh     change       -0.1469901E-03 Eh
   gradient norm :     0.0073636 Eh/α   predicted    -0.1840532E-03 (  25.21%)
   displ. norm   :     0.1990425 α      lambda       -0.2690323E-03
   maximum displ.:     0.1373731 α      in ANC's #1, #38, #2, ...

........................................................................
.............................. CYCLE   41 ..............................
........................................................................

 iter      E             dE          RMSdq      gap      omega  full diag
   1   -168.7508548 -0.168751E+03  0.313E-02    0.15       0.0  T
   2   -168.7503149  0.539961E-03  0.118E-01    0.15       1.0  T
   3   -168.7508210 -0.506136E-03  0.359E-02    0.15       1.0  T
   4   -168.7508377 -0.167079E-04  0.239E-02    0.15       1.0  T
   5   -168.7508637 -0.260098E-04  0.828E-03    0.15       1.1  T
   6   -168.7508679 -0.420392E-05  0.605E-03    0.15       1.5  T
   7   -168.7508700 -0.205270E-05  0.155E-03    0.15       6.1  T
   8   -168.7508699  0.102757E-06  0.194E-03    0.15       4.8  T
   9   -168.7508700 -0.154729E-06  0.108E-03    0.15       8.7  T
  10   -168.7508701 -0.810694E-07  0.269E-04    0.15      34.8  T
  11   -168.7508701  0.176499E-09  0.317E-04    0.15      29.5  T
     SCC iter.                  ...        0 min,  0.174 sec
     gradient                   ...        0 min,  0.033 sec
 * total energy  :  -165.9572829 Eh     change       -0.3409139E-04 Eh
   gradient norm :     0.0076811 Eh/α   predicted    -0.1398528E-03 ( 310.23%)
   displ. norm   :     0.2633226 α      lambda       -0.2014538E-03
   maximum displ.:     0.1810859 α      in ANC's #1, #37, #2, ...

........................................................................
.............................. CYCLE   42 ..............................
........................................................................

 iter      E             dE          RMSdq      gap      omega  full diag
   1   -168.7488164 -0.168749E+03  0.229E-02    0.15       0.0  T
   2   -168.7487837  0.326486E-04  0.324E-02    0.15       1.0  T
   3   -168.7487274  0.563212E-04  0.477E-02    0.15       1.0  T
   4   -168.7488025 -0.751073E-04  0.176E-02    0.15       1.0  T
   5   -168.7488159 -0.133629E-04  0.538E-03    0.15       1.7  T
   6   -168.7488183 -0.239314E-05  0.429E-03    0.15       2.2  T
   7   -168.7488192 -0.916012E-06  0.446E-04    0.15      21.0  T
   8   -168.7488192  0.517608E-07  0.817E-04    0.15      11.5  T
     SCC iter.                  ...        0 min,  0.127 sec
     gradient                   ...        0 min,  0.036 sec
 * total energy  :  -165.9574112 Eh     change       -0.1283642E-03 Eh
   gradient norm :     0.0032672 Eh/α   predicted    -0.1077193E-03 ( -16.08%)
   displ. norm   :     0.3164337 α      lambda       -0.8056301E-04
   maximum displ.:     0.2302496 α      in ANC's #1, #2, #37, ...
 * RMSD in coord.:     0.5376879 α      energy gain  -0.2569318E-02 Eh

generating ANC from exact Hessian ...
Using Lindh-Hessian (1995)
 Shifting diagonal of input Hessian by    9.9531970790575023E-003
 Lowest  eigenvalues of input Hessian
    0.000000    0.000000    0.000000    0.000000    0.000000    0.000000
    0.010000    0.010074    0.010179    0.010190    0.010204    0.010221
    0.010265    0.010274    0.010483    0.010492    0.010696    0.010724
 Highest eigenvalues
    2.047439    2.049801    2.072794    2.079969    2.080118    2.093016


........................................................................
.............................. CYCLE   43 ..............................
........................................................................

 iter      E             dE          RMSdq      gap      omega  full diag
   1   -168.7470811 -0.168747E+03  0.231E-02    0.15       0.0  T
   2   -168.7470271  0.539937E-04  0.395E-02    0.15       1.0  T
   3   -168.7470251  0.191786E-05  0.386E-02    0.15       1.0  T
   4   -168.7470698 -0.446454E-04  0.143E-02    0.15       1.0  T
   5   -168.7470809 -0.111581E-04  0.421E-03    0.15       2.2  T
   6   -168.7470821 -0.114426E-05  0.443E-03    0.15       2.1  T
   7   -168.7470830 -0.934107E-06  0.103E-03    0.15       9.1  T
   8   -168.7470830 -0.101814E-07  0.869E-04    0.15      10.8  T
   9   -168.7470831 -0.284361E-07  0.632E-04    0.15      14.8  T
     SCC iter.                  ...        0 min,  0.139 sec
     gradient                   ...        0 min,  0.034 sec
 * total energy  :  -165.9574529 Eh     change       -0.4169779E-04 Eh
   gradient norm :     0.0054342 Eh/α   predicted     0.0000000E+00 (-100.00%)
   displ. norm   :     0.0419413 α      lambda       -0.8448264E-04
   maximum displ.:     0.0183326 α      in ANC's #37, #24, #1, ...

........................................................................
.............................. CYCLE   44 ..............................
........................................................................

 iter      E             dE          RMSdq      gap      omega  full diag
   1   -168.7504286 -0.168750E+03  0.104E-02    0.15       0.0  T
   2   -168.7503920  0.366615E-04  0.309E-02    0.15       1.0  T
   3   -168.7504212 -0.292022E-04  0.149E-02    0.15       1.0  T
   4   -168.7504244 -0.329096E-05  0.102E-02    0.15       1.0  T
   5   -168.7504284 -0.390817E-05  0.365E-03    0.15       2.6  T
   6   -168.7504299 -0.150843E-05  0.149E-03    0.15       6.3  T
   7   -168.7504300 -0.888637E-07  0.577E-04    0.15      16.2  T
   8   -168.7504300 -0.178187E-07  0.237E-04    0.15      39.6  T
     SCC iter.                  ...        0 min,  0.126 sec
     gradient                   ...        0 min,  0.033 sec
 * total energy  :  -165.9575120 Eh     change       -0.5908330E-04 Eh
   gradient norm :     0.0015291 Eh/α   predicted    -0.4278094E-04 ( -27.59%)
   displ. norm   :     0.1076585 α      lambda       -0.4733310E-04
   maximum displ.:     0.0529733 α      in ANC's #37, #1, #24, ...

........................................................................
.............................. CYCLE   45 ..............................
........................................................................

 iter      E             dE          RMSdq      gap      omega  full diag
   1   -168.7535732 -0.168754E+03  0.188E-02    0.15       0.0  T
   2   -168.7533421  0.231096E-03  0.760E-02    0.15       1.0  T
   3   -168.7535539 -0.211736E-03  0.243E-02    0.15       1.0  T
   4   -168.7535483  0.553382E-05  0.248E-02    0.15       1.0  T
   5   -168.7535722 -0.238959E-04  0.911E-03    0.15       1.0  T
   6   -168.7535781 -0.587858E-05  0.791E-04    0.15      11.8  T
   7   -168.7535781  0.205281E-08  0.811E-04    0.15      11.5  T
   8   -168.7535781 -0.394042E-07  0.272E-04    0.15      34.4  T
     SCC iter.                  ...        0 min,  0.132 sec
     gradient                   ...        0 min,  0.033 sec
 * total energy  :  -165.9575589 Eh     change       -0.4691624E-04 Eh
   gradient norm :     0.0027798 Eh/α   predicted    -0.2379442E-04 ( -49.28%)
   displ. norm   :     0.1223187 α      lambda       -0.5634112E-04
   maximum displ.:     0.0656353 α      in ANC's #37, #1, #27, ...

........................................................................
.............................. CYCLE   46 ..............................
........................................................................

 iter      E             dE          RMSdq      gap      omega  full diag
   1   -168.7540132 -0.168754E+03  0.177E-02    0.15       0.0  T
   2   -168.7538048  0.208338E-03  0.721E-02    0.15       1.0  T
   3   -168.7539994 -0.194536E-03  0.211E-02    0.15       1.0  T
   4   -168.7539854  0.139844E-04  0.259E-02    0.15       1.0  T
   5   -168.7540150 -0.295555E-04  0.544E-03    0.15       1.7  T
   6   -168.7540171 -0.218654E-05  0.587E-04    0.15      16.0  T
   7   -168.7540172 -0.357801E-07  0.394E-04    0.15      23.8  T
   8   -168.7540172 -0.396773E-08  0.220E-04    0.15      42.6  T
     SCC iter.                  ...        0 min,  0.104 sec
     gradient                   ...        0 min,  0.033 sec
 * total energy  :  -165.9576116 Eh     change       -0.5270421E-04 Eh
   gradient norm :     0.0032867 Eh/α   predicted    -0.2859337E-04 ( -45.75%)
   displ. norm   :     0.6042013 α      lambda       -0.2699121E-03
   maximum displ.:     0.3395111 α      in ANC's #37, #1, #27, ...

........................................................................
.............................. CYCLE   47 ..............................
........................................................................

 iter      E             dE          RMSdq      gap      omega  full diag
   1   -168.7496589 -0.168750E+03  0.808E-02    0.15       0.0  T
   2   -168.7466290  0.302989E-02  0.271E-01    0.15       1.0  T
   3   -168.7493726 -0.274356E-02  0.946E-02    0.15       1.0  T
   4   -168.7491174  0.255153E-03  0.117E-01    0.15       1.0  T
   5   -168.7496760 -0.558613E-03  0.342E-02    0.15       1.0  T
   6   -168.7497332 -0.571535E-04  0.569E-03    0.15       1.6  T
   7   -168.7497372 -0.399519E-05  0.323E-03    0.15       2.9  T
   8   -168.7497375 -0.335243E-06  0.113E-03    0.15       8.3  T
   9   -168.7497375  0.505032E-07  0.175E-03    0.15       5.3  T
  10   -168.7497376 -0.114826E-06  0.119E-03    0.15       7.9  T
  11   -168.7497376 -0.604224E-07  0.237E-04    0.15      39.6  T
  12   -168.7497376 -0.132167E-08  0.186E-04    0.15      50.4  T
     SCC iter.                  ...        0 min,  0.153 sec
     gradient                   ...        0 min,  0.033 sec
 * total energy  :  -165.9577257 Eh     change       -0.1140721E-03 Eh
   gradient norm :     0.0079659 Eh/α   predicted    -0.1842317E-03 (  61.50%)
   displ. norm   :     0.1412126 α      lambda       -0.1330463E-03
   maximum displ.:     0.0814290 α      in ANC's #37, #27, #24, ...

........................................................................
.............................. CYCLE   48 ..............................
........................................................................

 iter      E             dE          RMSdq      gap      omega  full diag
   1   -168.7520763 -0.168752E+03  0.250E-02    0.15       0.0  T
   2   -168.7516684  0.407961E-03  0.102E-01    0.15       1.0  T
   3   -168.7520480 -0.379592E-03  0.305E-02    0.15       1.0  T
   4   -168.7520442  0.374129E-05  0.286E-02    0.15       1.0  T
   5   -168.7520786 -0.344056E-04  0.894E-03    0.15       1.0  T
   6   -168.7520842 -0.557087E-05  0.310E-03    0.15       3.0  T
   7   -168.7520847 -0.482129E-06  0.496E-04    0.15      18.9  T
   8   -168.7520847  0.611726E-08  0.685E-04    0.15      13.7  T
     SCC iter.                  ...        0 min,  0.101 sec
     gradient                   ...        0 min,  0.033 sec
 * total energy  :  -165.9577862 Eh     change       -0.6046884E-04 Eh
   gradient norm :     0.0022053 Eh/α   predicted    -0.6785325E-04 (  12.21%)
   displ. norm   :     0.1499881 α      lambda       -0.5929252E-04
   maximum displ.:     0.0823507 α      in ANC's #37, #1, #49, ...

........................................................................
.............................. CYCLE   49 ..............................
........................................................................

 iter      E             dE          RMSdq      gap      omega  full diag
   1   -168.7513301 -0.168751E+03  0.144E-02    0.15       0.0  T
   2   -168.7513069  0.232123E-04  0.255E-02    0.15       1.0  T
   3   -168.7513139 -0.701472E-05  0.212E-02    0.15       1.0  T
   4   -168.7513275 -0.135679E-04  0.585E-03    0.15       1.6  T
   5   -168.7513302 -0.271832E-05  0.219E-03    0.15       4.3  T
   6   -168.7513308 -0.567154E-06  0.132E-03    0.15       7.1  T
   7   -168.7513309 -0.937829E-07  0.702E-04    0.15      13.3  T
   8   -168.7513309 -0.136487E-07  0.320E-04    0.15      29.2  T
     SCC iter.                  ...        0 min,  0.127 sec
     gradient                   ...        0 min,  0.034 sec
 * total energy  :  -165.9578385 Eh     change       -0.5228904E-04 Eh
   gradient norm :     0.0019634 Eh/α   predicted    -0.3031362E-04 ( -42.03%)
   displ. norm   :     0.6660476 α      lambda       -0.1614895E-03
   maximum displ.:     0.3718824 α      in ANC's #37, #1, #49, ...

........................................................................
.............................. CYCLE   50 ..............................
........................................................................

 iter      E             dE          RMSdq      gap      omega  full diag
   1   -168.7440843 -0.168744E+03  0.635E-02    0.14       0.0  T
   2   -168.7440782  0.607678E-05  0.406E-02    0.14       1.0  T
   3   -168.7423504  0.172781E-02  0.204E-01    0.14       1.0  T
   4   -168.7440454 -0.169500E-02  0.203E-02    0.14       1.0  T
   5   -168.7440713 -0.258265E-04  0.167E-02    0.14       1.0  T
   6   -168.7440907 -0.194220E-04  0.672E-03    0.14       1.4  T
   7   -168.7440947 -0.405257E-05  0.302E-03    0.14       3.1  T
   8   -168.7440949 -0.142070E-06  0.184E-03    0.14       5.1  T
   9   -168.7440951 -0.220985E-06  0.557E-04    0.14      16.8  T
  10   -168.7440951 -0.182214E-08  0.893E-04    0.14      10.5  T
     SCC iter.                  ...        0 min,  0.159 sec
     gradient                   ...        0 min,  0.035 sec
 * total energy  :  -165.9578576 Eh     change       -0.1914148E-04 Eh
   gradient norm :     0.0117090 Eh/α   predicted    -0.9666630E-04 ( 405.01%)
   displ. norm   :     0.1606888 α      lambda       -0.2410484E-03
   maximum displ.:     0.0938969 α      in ANC's #37, #27, #24, ...

........................................................................
.............................. CYCLE   51 ..............................
........................................................................

 iter      E             dE          RMSdq      gap      omega  full diag
   1   -168.7489269 -0.168749E+03  0.255E-02    0.14       0.0  T
   2   -168.7486383  0.288600E-03  0.863E-02    0.14       1.0  T
   3   -168.7488935 -0.255127E-03  0.324E-02    0.14       1.0  T
   4   -168.7488981 -0.459930E-05  0.274E-02    0.14       1.0  T
   5   -168.7489319 -0.338475E-04  0.490E-03    0.14       1.9  T
   6   -168.7489337 -0.180683E-05  0.390E-03    0.14       2.4  T
   7   -168.7489346 -0.839528E-06  0.558E-04    0.14      16.8  T
   8   -168.7489345  0.418945E-07  0.956E-04    0.14       9.8  T
     SCC iter.                  ...        0 min,  0.117 sec
     gradient                   ...        0 min,  0.036 sec
 * total energy  :  -165.9579844 Eh     change       -0.1267813E-03 Eh
   gradient norm :     0.0046192 Eh/α   predicted    -0.1236345E-03 (  -2.48%)
   displ. norm   :     0.0685718 α      lambda       -0.3943904E-04
   maximum displ.:     0.0427061 α      in ANC's #1, #37, #24, ...

........................................................................
.............................. CYCLE   52 ..............................
........................................................................

 iter      E             dE          RMSdq      gap      omega  full diag
   1   -168.7502468 -0.168750E+03  0.822E-03    0.14       0.0  T
   2   -168.7502395  0.723525E-05  0.145E-02    0.14       1.0  T
   3   -168.7502353  0.424275E-05  0.168E-02    0.14       1.0  T
   4   -168.7502389 -0.362596E-05  0.123E-02    0.14       1.0  T
   5   -168.7502450 -0.611737E-05  0.622E-03    0.14       1.5  T
   6   -168.7502470 -0.191732E-05  0.145E-03    0.14       6.4  T
   7   -168.7502471 -0.126145E-06  0.390E-04    0.14      24.0  T
   8   -168.7502471 -0.124597E-07  0.181E-04    0.14      51.6  T
     SCC iter.                  ...        0 min,  0.130 sec
     gradient                   ...        0 min,  0.034 sec
 * total energy  :  -165.9580182 Eh     change       -0.3376683E-04 Eh
   gradient norm :     0.0030030 Eh/α   predicted    -0.1981900E-04 ( -41.31%)
   displ. norm   :     0.2556840 α      lambda       -0.9670163E-04
   maximum displ.:     0.1555086 α      in ANC's #1, #37, #49, ...

........................................................................
.............................. CYCLE   53 ..............................
........................................................................

 iter      E             dE          RMSdq      gap      omega  full diag
   1   -168.7521164 -0.168752E+03  0.250E-02    0.14       0.0  T
   2   -168.7520887  0.276449E-04  0.304E-02    0.14       1.0  T
   3   -168.7519822  0.106509E-03  0.573E-02    0.14       1.0  T
   4   -168.7520433 -0.610523E-04  0.364E-02    0.14       1.0  T
   5   -168.7521017 -0.584654E-04  0.176E-02    0.14       1.0  T
   6   -168.7521165 -0.147698E-04  0.527E-03    0.14       1.8  T
   7   -168.7521180 -0.145875E-05  0.138E-03    0.14       6.8  T
   8   -168.7521181 -0.107192E-06  0.443E-04    0.14      21.2  T
   9   -168.7521181 -0.110154E-08  0.392E-04    0.14      23.9  T
     SCC iter.                  ...        0 min,  0.150 sec
     gradient                   ...        0 min,  0.034 sec
 * total energy  :  -165.9580869 Eh     change       -0.6870462E-04 Eh
   gradient norm :     0.0017423 Eh/α   predicted    -0.5151923E-04 ( -25.01%)
   displ. norm   :     0.4273346 α      lambda       -0.5977062E-04
   maximum displ.:     0.2628196 α      in ANC's #1, #37, #49, ...

........................................................................
.............................. CYCLE   54 ..............................
........................................................................

 iter      E             dE          RMSdq      gap      omega  full diag
   1   -168.7508921 -0.168751E+03  0.385E-02    0.14       0.0  T
   2   -168.7508344  0.576832E-04  0.442E-02    0.14       1.0  T
   3   -168.7505648  0.269618E-03  0.895E-02    0.14       1.0  T
   4   -168.7507415 -0.176661E-03  0.508E-02    0.14       1.0  T
   5   -168.7508673 -0.125826E-03  0.233E-02    0.14       1.0  T
   6   -168.7508922 -0.248968E-04  0.813E-03    0.14       1.2  T
   7   -168.7508954 -0.316022E-05  0.283E-03    0.14       3.3  T
   8   -168.7508958 -0.442715E-06  0.544E-04    0.14      17.2  T
   9   -168.7508958 -0.220393E-08  0.780E-04    0.14      12.0  T
     SCC iter.                  ...        0 min,  0.144 sec
     gradient                   ...        0 min,  0.034 sec
 * total energy  :  -165.9581267 Eh     change       -0.3978853E-04 Eh
   gradient norm :     0.0049013 Eh/α   predicted    -0.3231654E-04 ( -18.78%)
   displ. norm   :     0.0483251 α      lambda       -0.4448271E-04
   maximum displ.:     0.0366377 α      in ANC's #1, #14, #9, ...

........................................................................
.............................. CYCLE   55 ..............................
........................................................................

 iter      E             dE          RMSdq      gap      omega  full diag
   1   -168.7517486 -0.168752E+03  0.649E-03    0.15       0.0  T
   2   -168.7517471  0.142134E-05  0.714E-03    0.15       1.3  T
   3   -168.7517372  0.994940E-05  0.169E-02    0.15       1.0  T
   4   -168.7517479 -0.106761E-04  0.356E-03    0.15       2.6  T
   5   -168.7517485 -0.619895E-06  0.198E-03    0.15       4.7  T
   6   -168.7517489 -0.393327E-06  0.726E-04    0.15      12.9  T
   7   -168.7517489 -0.289988E-07  0.187E-04    0.15      50.2  T
     SCC iter.                  ...        0 min,  0.112 sec
     gradient                   ...        0 min,  0.034 sec
 * total energy  :  -165.9581601 Eh     change       -0.3340100E-04 Eh
   gradient norm :     0.0024254 Eh/α   predicted    -0.2229601E-04 ( -33.25%)
   displ. norm   :     0.1472637 α      lambda       -0.4783704E-04
   maximum displ.:     0.1101911 α      in ANC's #1, #37, #27, ...

........................................................................
.............................. CYCLE   56 ..............................
........................................................................

 iter      E             dE          RMSdq      gap      omega  full diag
   1   -168.7519811 -0.168752E+03  0.123E-02    0.15       0.0  T
   2   -168.7519788  0.232659E-05  0.991E-03    0.15       1.0  T
   3   -168.7519185  0.602585E-04  0.386E-02    0.15       1.0  T
   4   -168.7519765 -0.580321E-04  0.723E-03    0.15       1.3  T
   5   -168.7519802 -0.360813E-05  0.369E-03    0.15       2.5  T
   6   -168.7519812 -0.107962E-05  0.250E-03    0.15       3.7  T
   7   -168.7519815 -0.267899E-06  0.543E-04    0.15      17.2  T
   8   -168.7519815 -0.856707E-08  0.242E-04    0.15      38.8  T
     SCC iter.                  ...        0 min,  0.124 sec
     gradient                   ...        0 min,  0.037 sec
 * total energy  :  -165.9581952 Eh     change       -0.3510531E-04 Eh
   gradient norm :     0.0010281 Eh/α   predicted    -0.2443071E-04 ( -30.41%)
   displ. norm   :     0.3154059 α      lambda       -0.4205204E-04
   maximum displ.:     0.2314838 α      in ANC's #1, #37, #27, ...

........................................................................
.............................. CYCLE   57 ..............................
........................................................................

 iter      E             dE          RMSdq      gap      omega  full diag
   1   -168.7515547 -0.168752E+03  0.241E-02    0.15       0.0  T
   2   -168.7515517  0.291493E-05  0.157E-02    0.15       1.0  T
   3   -168.7513269  0.224873E-03  0.704E-02    0.15       1.0  T
   4   -168.7515393 -0.212451E-03  0.128E-02    0.15       1.0  T
   5   -168.7515490 -0.968572E-05  0.900E-03    0.15       1.0  T
   6   -168.7515544 -0.543345E-05  0.486E-03    0.15       1.9  T
   7   -168.7515554 -0.999518E-06  0.791E-04    0.15      11.8  T
   8   -168.7515555 -0.135310E-07  0.698E-04    0.15      13.4  T
     SCC iter.                  ...        0 min,  0.132 sec
     gradient                   ...        0 min,  0.034 sec
 * total energy  :  -165.9582382 Eh     change       -0.4299827E-04 Eh
   gradient norm :     0.0028462 Eh/α   predicted    -0.2194512E-04 ( -48.96%)
   displ. norm   :     0.2188689 α      lambda       -0.3977786E-04
   maximum displ.:     0.1624154 α      in ANC's #1, #37, #27, ...

........................................................................
.............................. CYCLE   58 ..............................
........................................................................

 iter      E             dE          RMSdq      gap      omega  full diag
   1   -168.7508539 -0.168751E+03  0.165E-02    0.15       0.0  T
   2   -168.7508438  0.101200E-04  0.178E-02    0.15       1.0  T
   3   -168.7507750  0.687762E-04  0.446E-02    0.15       1.0  T
   4   -168.7508463 -0.712712E-04  0.116E-02    0.15       1.0  T
   5   -168.7508522 -0.594962E-05  0.450E-03    0.15       2.1  T
   6   -168.7508541 -0.183549E-05  0.336E-03    0.15       2.8  T
   7   -168.7508545 -0.468672E-06  0.379E-04    0.15      24.7  T
   8   -168.7508545 -0.140372E-07  0.404E-04    0.15      23.2  T
     SCC iter.                  ...        0 min,  0.129 sec
     gradient                   ...        0 min,  0.033 sec
 * total energy  :  -165.9582629 Eh     change       -0.2473798E-04 Eh
   gradient norm :     0.0031576 Eh/α   predicted    -0.2083493E-04 ( -15.78%)
   displ. norm   :     0.1677040 α      lambda       -0.4094659E-04
   maximum displ.:     0.1307009 α      in ANC's #1, #37, #9, ...

........................................................................
.............................. CYCLE   59 ..............................
........................................................................

 iter      E             dE          RMSdq      gap      omega  full diag
   1   -168.7521742 -0.168752E+03  0.129E-02    0.15       0.0  T
   2   -168.7521689  0.533248E-05  0.130E-02    0.15       1.0  T
   3   -168.7521173  0.515702E-04  0.377E-02    0.15       1.0  T
   4   -168.7521676 -0.502469E-04  0.115E-02    0.15       1.0  T
   5   -168.7521731 -0.558332E-05  0.369E-03    0.15       2.5  T
   6   -168.7521744 -0.125053E-05  0.198E-03    0.15       4.7  T
   7   -168.7521746 -0.160795E-06  0.607E-04    0.15      15.4  T
   8   -168.7521746 -0.169298E-07  0.179E-04    0.15      52.2  T
     SCC iter.                  ...        0 min,  0.125 sec
     gradient                   ...        0 min,  0.033 sec
 * total energy  :  -165.9582949 Eh     change       -0.3199336E-04 Eh
   gradient norm :     0.0019677 Eh/α   predicted    -0.2104450E-04 ( -34.22%)
   displ. norm   :     0.3218330 α      lambda       -0.3884537E-04
   maximum displ.:     0.2546452 α      in ANC's #1, #37, #9, ...

........................................................................
.............................. CYCLE   60 ..............................
........................................................................

 iter      E             dE          RMSdq      gap      omega  full diag
   1   -168.7529680 -0.168753E+03  0.248E-02    0.15       0.0  T
   2   -168.7528493  0.118781E-03  0.549E-02    0.15       1.0  T
   3   -168.7529300 -0.807286E-04  0.345E-02    0.15       1.0  T
   4   -168.7529512 -0.212473E-04  0.160E-02    0.15       1.0  T
   5   -168.7529664 -0.151478E-04  0.723E-03    0.15       1.3  T
   6   -168.7529708 -0.439017E-05  0.155E-03    0.15       6.0  T
   7   -168.7529709 -0.899575E-07  0.106E-03    0.15       8.8  T
   8   -168.7529709 -0.384235E-07  0.245E-04    0.15      38.3  T
   9   -168.7529709  0.972935E-08  0.441E-04    0.15      21.2  T
     SCC iter.                  ...        0 min,  0.141 sec
     gradient                   ...        0 min,  0.037 sec
 * total energy  :  -165.9583325 Eh     change       -0.3757838E-04 Eh
   gradient norm :     0.0019970 Eh/α   predicted    -0.2031072E-04 ( -45.95%)
   displ. norm   :     0.1770412 α      lambda       -0.2016383E-04
   maximum displ.:     0.1446295 α      in ANC's #1, #9, #37, ...

........................................................................
.............................. CYCLE   61 ..............................
........................................................................

 iter      E             dE          RMSdq      gap      omega  full diag
   1   -168.7535498 -0.168754E+03  0.149E-02    0.15       0.0  T
   2   -168.7534826  0.671762E-04  0.414E-02    0.15       1.0  T
   3   -168.7535407 -0.580925E-04  0.177E-02    0.15       1.0  T
   4   -168.7535471 -0.638099E-05  0.690E-03    0.14       1.4  T
   5   -168.7535497 -0.260992E-05  0.382E-03    0.15       2.5  T
   6   -168.7535513 -0.157697E-05  0.701E-04    0.15      13.4  T
   7   -168.7535513 -0.436384E-07  0.445E-04    0.15      21.1  T
   8   -168.7535514 -0.255113E-08  0.318E-04    0.15      29.4  T
     SCC iter.                  ...        0 min,  0.123 sec
     gradient                   ...        0 min,  0.034 sec
 * total energy  :  -165.9583530 Eh     change       -0.2058095E-04 Eh
   gradient norm :     0.0018585 Eh/α   predicted    -0.1022583E-04 ( -50.31%)
   displ. norm   :     0.1973755 α      lambda       -0.2025964E-04
   maximum displ.:     0.1570034 α      in ANC's #1, #37, #49, ...

........................................................................
.............................. CYCLE   62 ..............................
........................................................................

 iter      E             dE          RMSdq      gap      omega  full diag
   1   -168.7520039 -0.168752E+03  0.170E-02    0.14       0.0  T
   2   -168.7519171  0.868594E-04  0.480E-02    0.14       1.0  T
   3   -168.7519866 -0.694871E-04  0.226E-02    0.14       1.0  T
   4   -168.7519938 -0.719909E-05  0.148E-02    0.14       1.0  T
   5   -168.7520045 -0.107122E-04  0.351E-03    0.14       2.7  T
   6   -168.7520057 -0.125817E-05  0.130E-03    0.14       7.2  T
   7   -168.7520058 -0.462075E-07  0.125E-03    0.14       7.5  T
   8   -168.7520058 -0.709605E-07  0.375E-04    0.14      25.0  T
   9   -168.7520058  0.178179E-07  0.691E-04    0.14      13.5  T
     SCC iter.                  ...        0 min,  0.142 sec
     gradient                   ...        0 min,  0.033 sec
 * total energy  :  -165.9583725 Eh     change       -0.1943691E-04 Eh
   gradient norm :     0.0015354 Eh/α   predicted    -0.1030655E-04 ( -46.97%)
   displ. norm   :     0.1212798 α      lambda       -0.1430136E-04
   maximum displ.:     0.0997929 α      in ANC's #1, #9, #24, ...

........................................................................
.............................. CYCLE   63 ..............................
........................................................................

 iter      E             dE          RMSdq      gap      omega  full diag
   1   -168.7525713 -0.168753E+03  0.102E-02    0.14       0.0  T
   2   -168.7525669  0.442615E-05  0.121E-02    0.14       1.0  T
   3   -168.7525465  0.203237E-04  0.249E-02    0.14       1.0  T
   4   -168.7525652 -0.186887E-04  0.100E-02    0.14       1.0  T
   5   -168.7525705 -0.526201E-05  0.376E-03    0.14       2.5  T
   6   -168.7525714 -0.956321E-06  0.228E-03    0.14       4.1  T
   7   -168.7525717 -0.247921E-06  0.797E-04    0.14      11.8  T
   8   -168.7525717 -0.256021E-07  0.355E-04    0.14      26.3  T
     SCC iter.                  ...        0 min,  0.128 sec
     gradient                   ...        0 min,  0.034 sec
 * total energy  :  -165.9583866 Eh     change       -0.1410036E-04 Eh
   gradient norm :     0.0013612 Eh/α   predicted    -0.7201370E-05 ( -48.93%)
   displ. norm   :     0.1134815 α      lambda       -0.1053644E-04
   maximum displ.:     0.0939738 α      in ANC's #1, #9, #37, ...

........................................................................
.............................. CYCLE   64 ..............................
........................................................................

 iter      E             dE          RMSdq      gap      omega  full diag
   1   -168.7527716 -0.168753E+03  0.811E-03    0.14       0.0  T
   2   -168.7527702  0.144057E-05  0.605E-03    0.14       1.5  T
   3   -168.7527626  0.756217E-05  0.127E-02    0.14       1.0  T
   4   -168.7527617  0.977486E-06  0.151E-02    0.14       1.0  T
   5   -168.7527717 -0.100745E-04  0.235E-03    0.14       4.0  T
   6   -168.7527720 -0.237468E-06  0.811E-04    0.14      11.5  T
   7   -168.7527720 -0.613711E-07  0.327E-04    0.14      28.6  T
     SCC iter.                  ...        0 min,  0.109 sec
     gradient                   ...        0 min,  0.037 sec
 * total energy  :  -165.9583985 Eh     change       -0.1190306E-04 Eh
   gradient norm :     0.0009766 Eh/α   predicted    -0.5299478E-05 ( -55.48%)
   displ. norm   :     0.0919625 α      lambda       -0.7324535E-05
   maximum displ.:     0.0773293 α      in ANC's #1, #9, #37, ...

........................................................................
.............................. CYCLE   65 ..............................
........................................................................

 iter      E             dE          RMSdq      gap      omega  full diag
   1   -168.7528526 -0.168753E+03  0.554E-03    0.14       0.0  T
   2   -168.7528520  0.536368E-06  0.429E-03    0.14       2.2  T
   3   -168.7528442  0.780797E-05  0.139E-02    0.14       1.0  T
   4   -168.7528494 -0.517552E-05  0.726E-03    0.14       1.3  T
   5   -168.7528526 -0.323378E-05  0.956E-04    0.14       9.8  T
   6   -168.7528526 -0.245842E-07  0.869E-04    0.14      10.8  T
   7   -168.7528527 -0.419154E-07  0.394E-04    0.14      23.7  T
     SCC iter.                  ...        0 min,  0.110 sec
     gradient                   ...        0 min,  0.035 sec
 * total energy  :  -165.9584081 Eh     change       -0.9652316E-05 Eh
   gradient norm :     0.0008059 Eh/α   predicted    -0.3678099E-05 ( -61.89%)
   displ. norm   :     0.0949012 α      lambda       -0.8284355E-05
   maximum displ.:     0.0775115 α      in ANC's #1, #12, #9, ...

........................................................................
.............................. CYCLE   66 ..............................
........................................................................

 iter      E             dE          RMSdq      gap      omega  full diag
   1   -168.7530341 -0.168753E+03  0.541E-03    0.14       0.0  T
   2   -168.7530341  0.310713E-07  0.325E-03    0.14       2.9  T
   3   -168.7530296  0.444530E-05  0.986E-03    0.14       1.0  T
   4   -168.7530333 -0.368020E-05  0.416E-03    0.14       2.3  T
   5   -168.7530340 -0.714239E-06  0.136E-03    0.14       6.9  T
   6   -168.7530341 -0.106894E-06  0.734E-04    0.14      12.8  T
   7   -168.7530342 -0.493256E-07  0.284E-04    0.14      33.0  T
     SCC iter.                  ...        0 min,  0.112 sec
     gradient                   ...        0 min,  0.035 sec
 * total energy  :  -165.9584191 Eh     change       -0.1097813E-04 Eh
   gradient norm :     0.0008445 Eh/α   predicted    -0.4162079E-05 ( -62.09%)
   displ. norm   :     0.1244609 α      lambda       -0.1079118E-04
   maximum displ.:     0.0992888 α      in ANC's #1, #12, #14, ...
 * RMSD in coord.:     0.3540051 α      energy gain  -0.1007880E-02 Eh

generating ANC from exact Hessian ...
Using Lindh-Hessian (1995)
 Shifting diagonal of input Hessian by    9.9543393385680481E-003
 Lowest  eigenvalues of input Hessian
    0.000000    0.000000    0.000000    0.000000    0.000000    0.000000
    0.010000    0.010075    0.010183    0.010191    0.010203    0.010221
    0.010265    0.010271    0.010486    0.010497    0.010702    0.010732
 Highest eigenvalues
    2.049148    2.051264    2.074592    2.081030    2.082635    2.094953


........................................................................
.............................. CYCLE   67 ..............................
........................................................................

 iter      E             dE          RMSdq      gap      omega  full diag
   1   -168.7530888 -0.168753E+03  0.744E-03    0.14       0.0  T
   2   -168.7530869  0.185241E-05  0.788E-03    0.14       1.2  T
   3   -168.7530721  0.148129E-04  0.205E-02    0.14       1.0  T
   4   -168.7530877 -0.155734E-04  0.355E-03    0.14       2.6  T
   5   -168.7530883 -0.627037E-06  0.240E-03    0.14       3.9  T
   6   -168.7530889 -0.581715E-06  0.433E-04    0.14      21.6  T
   7   -168.7530889 -0.180992E-07  0.253E-04    0.14      37.0  T
     SCC iter.                  ...        0 min,  0.118 sec
     gradient                   ...        0 min,  0.034 sec
 * total energy  :  -165.9584331 Eh     change       -0.1396483E-04 Eh
   gradient norm :     0.0008836 Eh/α   predicted     0.0000000E+00 (-100.00%)
   displ. norm   :     0.0237360 α      lambda       -0.4196922E-05
   maximum displ.:     0.0154612 α      in ANC's #1, #27, #14, ...

........................................................................
.............................. CYCLE   68 ..............................
........................................................................

 iter      E             dE          RMSdq      gap      omega  full diag
   1   -168.7528343 -0.168753E+03  0.306E-03    0.14       0.0  T
   2   -168.7528323  0.196003E-05  0.711E-03    0.14       1.3  T
   3   -168.7528335 -0.122847E-05  0.460E-03    0.14       2.0  T
   4   -168.7528337 -0.219362E-06  0.254E-03    0.14       3.7  T
   5   -168.7528343 -0.571629E-06  0.620E-04    0.14      15.1  T
   6   -168.7528343  0.108028E-08  0.566E-04    0.14      16.6  T
     SCC iter.                  ...        0 min,  0.101 sec
     gradient                   ...        0 min,  0.034 sec
 * total energy  :  -165.9584384 Eh     change       -0.5359610E-05 Eh
   gradient norm :     0.0003365 Eh/α   predicted    -0.2115632E-05 ( -60.53%)
   displ. norm   :     0.0783975 α      lambda       -0.1008034E-04
   maximum displ.:     0.0478895 α      in ANC's #1, #27, #5, ...

........................................................................
.............................. CYCLE   69 ..............................
........................................................................

 iter      E             dE          RMSdq      gap      omega  full diag
   1   -168.7525216 -0.168753E+03  0.876E-03    0.14       0.0  T
   2   -168.7525091  0.125348E-04  0.183E-02    0.14       1.0  T
   3   -168.7525144 -0.533949E-05  0.141E-02    0.14       1.0  T
   4   -168.7525175 -0.309277E-05  0.754E-03    0.14       1.2  T
   5   -168.7525219 -0.437908E-05  0.202E-03    0.14       4.6  T
   6   -168.7525219  0.161063E-07  0.206E-03    0.14       4.5  T
   7   -168.7525222 -0.273845E-06  0.247E-04    0.14      37.9  T
   8   -168.7525222 -0.730083E-08  0.115E-04    0.14      81.4  T
     SCC iter.                  ...        0 min,  0.130 sec
     gradient                   ...        0 min,  0.037 sec
 * total energy  :  -165.9584499 Eh     change       -0.1149648E-04 Eh
   gradient norm :     0.0009911 Eh/α   predicted    -0.5054362E-05 ( -56.04%)
   displ. norm   :     0.1020010 α      lambda       -0.9144593E-05
   maximum displ.:     0.0639506 α      in ANC's #1, #5, #37, ...

........................................................................
.............................. CYCLE   70 ..............................
........................................................................

 iter      E             dE          RMSdq      gap      omega  full diag
   1   -168.7522914 -0.168752E+03  0.953E-03    0.14       0.0  T
   2   -168.7522831  0.827116E-05  0.157E-02    0.14       1.0  T
   3   -168.7522800  0.309621E-05  0.172E-02    0.14       1.0  T
   4   -168.7522892 -0.918440E-05  0.618E-03    0.14       1.5  T
   5   -168.7522913 -0.202634E-05  0.229E-03    0.14       4.1  T
   6   -168.7522913 -0.236904E-07  0.285E-03    0.14       3.3  T
   7   -168.7522918 -0.492323E-06  0.524E-04    0.14      17.9  T
   8   -168.7522918 -0.105706E-07  0.208E-04    0.14      45.1  T
     SCC iter.                  ...        0 min,  0.126 sec
     gradient                   ...        0 min,  0.033 sec
 * total energy  :  -165.9584608 Eh     change       -0.1089195E-04 Eh
   gradient norm :     0.0014012 Eh/α   predicted    -0.4603867E-05 ( -57.73%)
   displ. norm   :     0.1196731 α      lambda       -0.9931378E-05
   maximum displ.:     0.0765557 α      in ANC's #1, #5, #37, ...

........................................................................
.............................. CYCLE   71 ..............................
........................................................................

 iter      E             dE          RMSdq      gap      omega  full diag
   1   -168.7522011 -0.168752E+03  0.967E-03    0.14       0.0  T
   2   -168.7521976  0.356794E-05  0.115E-02    0.14       1.0  T
   3   -168.7521815  0.160813E-04  0.222E-02    0.14       1.0  T
   4   -168.7521991 -0.176276E-04  0.610E-03    0.14       1.5  T
   5   -168.7521999 -0.785106E-06  0.460E-03    0.14       2.0  T
   6   -168.7522010 -0.106947E-05  0.231E-03    0.14       4.1  T
   7   -168.7522013 -0.325342E-06  0.564E-04    0.14      16.6  T
   8   -168.7522013 -0.101998E-07  0.151E-04    0.14      62.1  T
     SCC iter.                  ...        0 min,  0.127 sec
     gradient                   ...        0 min,  0.034 sec
 * total energy  :  -165.9584734 Eh     change       -0.1260411E-04 Eh
   gradient norm :     0.0013317 Eh/α   predicted    -0.5014825E-05 ( -60.21%)
   displ. norm   :     0.1536810 α      lambda       -0.1320804E-04
   maximum displ.:     0.1003530 α      in ANC's #1, #5, #37, ...

........................................................................
.............................. CYCLE   72 ..............................
........................................................................

 iter      E             dE          RMSdq      gap      omega  full diag
   1   -168.7522813 -0.168752E+03  0.114E-02    0.14       0.0  T
   2   -168.7522811  0.179003E-06  0.719E-03    0.14       1.3  T
   3   -168.7522564  0.247263E-04  0.245E-02    0.14       1.0  T
   4   -168.7522744 -0.180019E-04  0.113E-02    0.14       1.0  T
   5   -168.7522810 -0.655537E-05  0.215E-03    0.14       4.4  T
   6   -168.7522811 -0.972066E-07  0.287E-03    0.14       3.3  T
   7   -168.7522814 -0.336287E-06  0.655E-04    0.14      14.3  T
   8   -168.7522814 -0.204455E-07  0.156E-04    0.14      60.1  T
     SCC iter.                  ...        0 min,  0.124 sec
     gradient                   ...        0 min,  0.038 sec
 * total energy  :  -165.9584898 Eh     change       -0.1633026E-04 Eh
   gradient norm :     0.0009447 Eh/α   predicted    -0.6673669E-05 ( -59.13%)
   displ. norm   :     0.1663149 α      lambda       -0.1321066E-04
   maximum displ.:     0.1121515 α      in ANC's #1, #5, #37, ...

........................................................................
.............................. CYCLE   73 ..............................
........................................................................

 iter      E             dE          RMSdq      gap      omega  full diag
   1   -168.7524948 -0.168752E+03  0.121E-02    0.14       0.0  T
   2   -168.7524926  0.224772E-05  0.989E-03    0.14       1.0  T
   3   -168.7524306  0.619995E-04  0.395E-02    0.14       1.0  T
   4   -168.7524889 -0.583153E-04  0.774E-03    0.14       1.2  T
   5   -168.7524947 -0.583753E-05  0.177E-03    0.14       5.3  T
   6   -168.7524950 -0.261619E-06  0.128E-03    0.14       7.3  T
   7   -168.7524950 -0.369229E-07  0.858E-04    0.14      10.9  T
   8   -168.7524951 -0.281914E-07  0.237E-04    0.14      39.6  T
     SCC iter.                  ...        0 min,  0.129 sec
     gradient                   ...        0 min,  0.035 sec
 * total energy  :  -165.9585054 Eh     change       -0.1565747E-04 Eh
   gradient norm :     0.0006468 Eh/α   predicted    -0.6688483E-05 ( -57.28%)
   displ. norm   :     0.1397096 α      lambda       -0.9493768E-05
   maximum displ.:     0.0978894 α      in ANC's #1, #5, #10, ...

........................................................................
.............................. CYCLE   74 ..............................
........................................................................

 iter      E             dE          RMSdq      gap      omega  full diag
   1   -168.7528328 -0.168753E+03  0.103E-02    0.14       0.0  T
   2   -168.7528249  0.785538E-05  0.151E-02    0.14       1.0  T
   3   -168.7528171  0.784461E-05  0.203E-02    0.14       1.0  T
   4   -168.7528296 -0.125044E-04  0.591E-03    0.14       1.6  T
   5   -168.7528328 -0.316982E-05  0.177E-03    0.14       5.3  T
   6   -168.7528330 -0.207939E-06  0.116E-03    0.14       8.1  T
   7   -168.7528331 -0.131326E-06  0.148E-04    0.14      63.2  T
   8   -168.7528331  0.226038E-09  0.124E-04    0.14      75.3  T
     SCC iter.                  ...        0 min,  0.129 sec
     gradient                   ...        0 min,  0.035 sec
 * total energy  :  -165.9585168 Eh     change       -0.1139693E-04 Eh
   gradient norm :     0.0005778 Eh/α   predicted    -0.4788765E-05 ( -57.98%)
   displ. norm   :     0.1109957 α      lambda       -0.6639071E-05
   maximum displ.:     0.0797008 α      in ANC's #1, #5, #10, ...

........................................................................
.............................. CYCLE   75 ..............................
........................................................................

 iter      E             dE          RMSdq      gap      omega  full diag
   1   -168.7530143 -0.168753E+03  0.855E-03    0.14       0.0  T
   2   -168.7530046  0.963487E-05  0.164E-02    0.14       1.0  T
   3   -168.7530075 -0.290062E-05  0.135E-02    0.14       1.0  T
   4   -168.7530123 -0.479729E-05  0.541E-03    0.14       1.7  T
   5   -168.7530140 -0.163788E-05  0.222E-03    0.14       4.2  T
   6   -168.7530143 -0.311556E-06  0.206E-03    0.14       4.6  T
   7   -168.7530145 -0.234836E-06  0.456E-04    0.14      20.5  T
   8   -168.7530145 -0.102227E-07  0.119E-04    0.14      78.4  T
     SCC iter.                  ...        0 min,  0.141 sec
     gradient                   ...        0 min,  0.036 sec
 * total energy  :  -165.9585253 Eh     change       -0.8468260E-05 Eh
   gradient norm :     0.0005537 Eh/α   predicted    -0.3342410E-05 ( -60.53%)
   displ. norm   :     0.0931210 α      lambda       -0.5800847E-05
   maximum displ.:     0.0678524 α      in ANC's #1, #5, #10, ...

........................................................................
.............................. CYCLE   76 ..............................
........................................................................

 iter      E             dE          RMSdq      gap      omega  full diag
   1   -168.7531847 -0.168753E+03  0.771E-03    0.14       0.0  T
   2   -168.7531733  0.113758E-04  0.177E-02    0.14       1.0  T
   3   -168.7531808 -0.745975E-05  0.105E-02    0.14       1.0  T
   4   -168.7531834 -0.258532E-05  0.513E-03    0.14       1.8  T
   5   -168.7531840 -0.634738E-06  0.293E-03    0.14       3.2  T
   6   -168.7531847 -0.677168E-06  0.229E-03    0.14       4.1  T
   7   -168.7531849 -0.251316E-06  0.548E-04    0.14      17.1  T
   8   -168.7531849 -0.145067E-07  0.944E-05    0.14      99.2  T
     SCC iter.                  ...        0 min,  0.131 sec
     gradient                   ...        0 min,  0.035 sec
 * total energy  :  -165.9585328 Eh     change       -0.7551932E-05 Eh
   gradient norm :     0.0005122 Eh/α   predicted    -0.2917468E-05 ( -61.37%)
   displ. norm   :     0.0917428 α      lambda       -0.5482345E-05
   maximum displ.:     0.0662703 α      in ANC's #1, #5, #10, ...

........................................................................
.............................. CYCLE   77 ..............................
........................................................................

 iter      E             dE          RMSdq      gap      omega  full diag
   1   -168.7530838 -0.168753E+03  0.814E-03    0.14       0.0  T
   2   -168.7530665  0.172855E-04  0.215E-02    0.14       1.0  T
   3   -168.7530800 -0.134764E-04  0.106E-02    0.14       1.0  T
   4   -168.7530823 -0.233495E-05  0.595E-03    0.14       1.6  T
   5   -168.7530837 -0.136017E-05  0.244E-03    0.14       3.8  T
   6   -168.7530840 -0.335844E-06  0.137E-03    0.14       6.8  T
   7   -168.7530841 -0.101107E-06  0.217E-04    0.14      43.2  T
   8   -168.7530841 -0.100871E-08  0.166E-04    0.14      56.3  T
     SCC iter.                  ...        0 min,  0.126 sec
     gradient                   ...        0 min,  0.035 sec
 * total energy  :  -165.9585400 Eh     change       -0.7202771E-05 Eh
   gradient norm :     0.0002976 Eh/α   predicted    -0.2753750E-05 ( -61.77%)
   displ. norm   :     0.0857540 α      lambda       -0.5115843E-05
   maximum displ.:     0.0618997 α      in ANC's #1, #5, #17, ...

........................................................................
.............................. CYCLE   78 ..............................
........................................................................

 iter      E             dE          RMSdq      gap      omega  full diag
   1   -168.7531722 -0.168753E+03  0.803E-03    0.14       0.0  T
   2   -168.7531557  0.165386E-04  0.209E-02    0.14       1.0  T
   3   -168.7531686 -0.129456E-04  0.104E-02    0.14       1.0  T
   4   -168.7531716 -0.298613E-05  0.424E-03    0.14       2.2  T
   5   -168.7531724 -0.739605E-06  0.125E-03    0.14       7.5  T
   6   -168.7531725 -0.142747E-06  0.802E-04    0.14      11.7  T
   7   -168.7531726 -0.350292E-07  0.183E-04    0.14      51.3  T
     SCC iter.                  ...        0 min,  0.109 sec
     gradient                   ...        0 min,  0.039 sec
 * total energy  :  -165.9585466 Eh     change       -0.6578236E-05 Eh
   gradient norm :     0.0005014 Eh/α   predicted    -0.2570336E-05 ( -60.93%)
   displ. norm   :     0.0810172 α      lambda       -0.4604058E-05
   maximum displ.:     0.0581201 α      in ANC's #1, #5, #17, ...

........................................................................
.............................. CYCLE   79 ..............................
........................................................................

 iter      E             dE          RMSdq      gap      omega  full diag
   1   -168.7529445 -0.168753E+03  0.753E-03    0.14       0.0  T
   2   -168.7529327  0.118329E-04  0.176E-02    0.14       1.0  T
   3   -168.7529406 -0.796145E-05  0.107E-02    0.14       1.0  T
   4   -168.7529445 -0.385664E-05  0.201E-03    0.14       4.7  T
   5   -168.7529446 -0.960456E-07  0.879E-04    0.14      10.7  T
   6   -168.7529447 -0.146743E-06  0.206E-04    0.14      45.4  T
     SCC iter.                  ...        0 min,  0.096 sec
     gradient                   ...        0 min,  0.035 sec
 * total energy  :  -165.9585526 Eh     change       -0.6011224E-05 Eh
   gradient norm :     0.0003534 Eh/α   predicted    -0.2313351E-05 ( -61.52%)
   displ. norm   :     0.0774327 α      lambda       -0.4432473E-05
   maximum displ.:     0.0547705 α      in ANC's #1, #17, #5, ...

........................................................................
.............................. CYCLE   80 ..............................
........................................................................

 iter      E             dE          RMSdq      gap      omega  full diag
   1   -168.7529756 -0.168753E+03  0.715E-03    0.14       0.0  T
   2   -168.7529678  0.776330E-05  0.143E-02    0.14       1.0  T
   3   -168.7529707 -0.286964E-05  0.118E-02    0.14       1.0  T
   4   -168.7529756 -0.494782E-05  0.145E-03    0.14       6.5  T
   5   -168.7529755  0.893093E-07  0.137E-03    0.14       6.8  T
   6   -168.7529757 -0.180779E-06  0.593E-04    0.14      15.8  T
   7   -168.7529757 -0.130263E-07  0.193E-04    0.14      48.5  T
     SCC iter.                  ...        0 min,  0.113 sec
     gradient                   ...        0 min,  0.034 sec
 * total energy  :  -165.9585586 Eh     change       -0.5961469E-05 Eh
   gradient norm :     0.0004140 Eh/α   predicted    -0.2223014E-05 ( -62.71%)
   displ. norm   :     0.0811134 α      lambda       -0.4724866E-05
   maximum displ.:     0.0572437 α      in ANC's #1, #17, #5, ...

........................................................................
.............................. CYCLE   81 ..............................
........................................................................

 iter      E             dE          RMSdq      gap      omega  full diag
   1   -168.7529414 -0.168753E+03  0.720E-03    0.14       0.0  T
   2   -168.7529391  0.228145E-05  0.842E-03    0.14       1.1  T
   3   -168.7529280  0.111936E-04  0.186E-02    0.14       1.0  T
   4   -168.7529409 -0.129793E-04  0.332E-03    0.14       2.8  T
   5   -168.7529412 -0.256413E-06  0.175E-03    0.14       5.4  T
   6   -168.7529415 -0.320059E-06  0.444E-04    0.14      21.1  T
   7   -168.7529415 -0.895352E-08  0.190E-04    0.14      49.2  T
     SCC iter.                  ...        0 min,  0.114 sec
     gradient                   ...        0 min,  0.034 sec
 * total energy  :  -165.9585650 Eh     change       -0.6405048E-05 Eh
   gradient norm :     0.0003500 Eh/α   predicted    -0.2372528E-05 ( -62.96%)
   displ. norm   :     0.0874580 α      lambda       -0.5042514E-05
   maximum displ.:     0.0616046 α      in ANC's #1, #5, #17, ...

........................................................................
.............................. CYCLE   82 ..............................
........................................................................

 iter      E             dE          RMSdq      gap      omega  full diag
   1   -168.7529792 -0.168753E+03  0.735E-03    0.14       0.0  T
   2   -168.7529755  0.375579E-05  0.104E-02    0.14       1.0  T
   3   -168.7529690  0.647165E-05  0.164E-02    0.14       1.0  T
   4   -168.7529789 -0.991774E-05  0.266E-03    0.14       3.5  T
   5   -168.7529790 -0.733364E-07  0.189E-03    0.14       5.0  T
   6   -168.7529794 -0.352251E-06  0.686E-04    0.14      13.7  T
   7   -168.7529794 -0.224301E-07  0.349E-04    0.14      26.8  T
     SCC iter.                  ...        0 min,  0.114 sec
     gradient                   ...        0 min,  0.036 sec
 * total energy  :  -165.9585717 Eh     change       -0.6736741E-05 Eh
   gradient norm :     0.0002740 Eh/α   predicted    -0.2533144E-05 ( -62.40%)
   displ. norm   :     0.0887248 α      lambda       -0.4870865E-05
   maximum displ.:     0.0629814 α      in ANC's #1, #5, #10, ...

........................................................................
.............................. CYCLE   83 ..............................
........................................................................

 iter      E             dE          RMSdq      gap      omega  full diag
   1   -168.7530216 -0.168753E+03  0.699E-03    0.14       0.0  T
   2   -168.7530207  0.864801E-06  0.609E-03    0.14       1.5  T
   3   -168.7530006  0.201011E-04  0.228E-02    0.14       1.0  T
   4   -168.7530210 -0.203848E-04  0.299E-03    0.14       3.1  T
   5   -168.7530212 -0.271655E-06  0.217E-03    0.14       4.3  T
   6   -168.7530216 -0.383689E-06  0.497E-04    0.14      18.8  T
   7   -168.7530217 -0.189928E-07  0.941E-05    0.14      99.5  T
     SCC iter.                  ...        0 min,  0.113 sec
     gradient                   ...        0 min,  0.036 sec
 * total energy  :  -165.9585782 Eh     change       -0.6512496E-05 Eh
   gradient norm :     0.0002355 Eh/α   predicted    -0.2445725E-05 ( -62.45%)
   displ. norm   :     0.0862168 α      lambda       -0.4559221E-05
   maximum displ.:     0.0620347 α      in ANC's #1, #5, #10, ...

........................................................................
.............................. CYCLE   84 ..............................
........................................................................

 iter      E             dE          RMSdq      gap      omega  full diag
   1   -168.7531065 -0.168753E+03  0.624E-03    0.14       0.0  T
   2   -168.7531034  0.309241E-05  0.949E-03    0.14       1.0  T
   3   -168.7531005  0.288913E-05  0.126E-02    0.14       1.0  T
   4   -168.7531058 -0.530199E-05  0.305E-03    0.14       3.1  T
   5   -168.7531064 -0.595857E-06  0.135E-03    0.14       6.9  T
   6   -168.7531066 -0.174471E-06  0.482E-04    0.14      19.4  T
   7   -168.7531066 -0.179711E-07  0.122E-04    0.14      76.5  T
     SCC iter.                  ...        0 min,  0.112 sec
     gradient                   ...        0 min,  0.038 sec
 * total energy  :  -165.9585845 Eh     change       -0.6288434E-05 Eh
   gradient norm :     0.0002786 Eh/α   predicted    -0.2292154E-05 ( -63.55%)
   displ. norm   :     0.0830875 α      lambda       -0.4554217E-05
   maximum displ.:     0.0602618 α      in ANC's #1, #10, #5, ...

........................................................................
.............................. CYCLE   85 ..............................
........................................................................

 iter      E             dE          RMSdq      gap      omega  full diag
   1   -168.7531826 -0.168753E+03  0.574E-03    0.14       0.0  T
   2   -168.7531809  0.164733E-05  0.732E-03    0.14       1.3  T
   3   -168.7531759  0.498803E-05  0.131E-02    0.14       1.0  T
   4   -168.7531815 -0.555936E-05  0.391E-03    0.14       2.4  T
   5   -168.7531826 -0.104698E-05  0.116E-03    0.14       8.1  T
   6   -168.7531826 -0.717367E-07  0.528E-04    0.14      17.7  T
   7   -168.7531826 -0.185654E-07  0.120E-04    0.14      77.8  T
     SCC iter.                  ...        0 min,  0.112 sec
     gradient                   ...        0 min,  0.036 sec
 * total energy  :  -165.9585910 Eh     change       -0.6427784E-05 Eh
   gradient norm :     0.0003136 Eh/α   predicted    -0.2288531E-05 ( -64.40%)
   displ. norm   :     0.0937083 α      lambda       -0.5424826E-05
   maximum displ.:     0.0677405 α      in ANC's #1, #10, #5, ...

........................................................................
.............................. CYCLE   86 ..............................
........................................................................

 iter      E             dE          RMSdq      gap      omega  full diag
   1   -168.7532221 -0.168753E+03  0.649E-03    0.14       0.0  T
   2   -168.7532198  0.228946E-05  0.861E-03    0.14       1.1  T
   3   -168.7532140  0.586007E-05  0.144E-02    0.14       1.0  T
   4   -168.7532204 -0.640065E-05  0.563E-03    0.14       1.7  T
   5   -168.7532220 -0.158463E-05  0.203E-03    0.14       4.6  T
   6   -168.7532221 -0.174932E-06  0.103E-03    0.14       9.1  T
   7   -168.7532222 -0.529256E-07  0.151E-04    0.14      61.9  T
   8   -168.7532222 -0.472085E-10  0.809E-05    0.14     115.7  T
     SCC iter.                  ...        0 min,  0.127 sec
     gradient                   ...        0 min,  0.035 sec
 * total energy  :  -165.9585986 Eh     change       -0.7666760E-05 Eh
   gradient norm :     0.0003274 Eh/α   predicted    -0.2727944E-05 ( -64.42%)
   displ. norm   :     0.1169926 α      lambda       -0.6888269E-05
   maximum displ.:     0.0840906 α      in ANC's #1, #10, #5, ...

........................................................................
.............................. CYCLE   87 ..............................
........................................................................

 iter      E             dE          RMSdq      gap      omega  full diag
   1   -168.7532355 -0.168753E+03  0.839E-03    0.14       0.0  T
   2   -168.7532337  0.189015E-05  0.863E-03    0.14       1.1  T
   3   -168.7532148  0.189029E-04  0.228E-02    0.14       1.0  T
   4   -168.7532330 -0.182100E-04  0.722E-03    0.14       1.3  T
   5   -168.7532353 -0.232834E-05  0.193E-03    0.14       4.8  T
   6   -168.7532356 -0.299868E-06  0.724E-04    0.14      12.9  T
   7   -168.7532356 -0.261358E-07  0.792E-05    0.14     118.2  T
     SCC iter.                  ...        0 min,  0.115 sec
     gradient                   ...        0 min,  0.035 sec
 * total energy  :  -165.9586082 Eh     change       -0.9597638E-05 Eh
   gradient norm :     0.0002991 Eh/α   predicted    -0.3469674E-05 ( -63.85%)
   displ. norm   :     0.1467466 α      lambda       -0.8347512E-05
   maximum displ.:     0.1050001 α      in ANC's #1, #10, #5, ...

........................................................................
.............................. CYCLE   88 ..............................
........................................................................

 iter      E             dE          RMSdq      gap      omega  full diag
   1   -168.7531693 -0.168753E+03  0.106E-02    0.14       0.0  T
   2   -168.7531682  0.110439E-05  0.826E-03    0.14       1.1  T
   3   -168.7531216  0.466516E-04  0.344E-02    0.14       1.0  T
   4   -168.7531671 -0.455491E-04  0.684E-03    0.14       1.4  T
   5   -168.7531692 -0.204081E-05  0.143E-03    0.14       6.5  T
   6   -168.7531694 -0.248527E-06  0.236E-04    0.14      39.8  T
   7   -168.7531694 -0.179566E-08  0.177E-04    0.14      53.0  T
     SCC iter.                  ...        0 min,  0.112 sec
     gradient                   ...        0 min,  0.039 sec
 * total energy  :  -165.9586197 Eh     change       -0.1151979E-04 Eh
   gradient norm :     0.0002928 Eh/α   predicted    -0.4214039E-05 ( -63.42%)
   displ. norm   :     0.1729738 α      lambda       -0.9327414E-05
   maximum displ.:     0.1237637 α      in ANC's #1, #10, #5, ...

........................................................................
.............................. CYCLE   89 ..............................
........................................................................

 iter      E             dE          RMSdq      gap      omega  full diag
   1   -168.7530693 -0.168753E+03  0.127E-02    0.14       0.0  T
   2   -168.7530682  0.103448E-05  0.907E-03    0.14       1.0  T
   3   -168.7529947  0.734910E-04  0.429E-02    0.14       1.0  T
   4   -168.7530670 -0.723036E-04  0.692E-03    0.14       1.4  T
   5   -168.7530691 -0.204536E-05  0.183E-03    0.14       5.1  T
   6   -168.7530693 -0.270447E-06  0.666E-04    0.14      14.1  T
   7   -168.7530694 -0.282365E-07  0.149E-04    0.14      62.6  T
     SCC iter.                  ...        0 min,  0.113 sec
     gradient                   ...        0 min,  0.034 sec
 * total energy  :  -165.9586326 Eh     change       -0.1280848E-04 Eh
   gradient norm :     0.0003550 Eh/α   predicted    -0.4726315E-05 ( -63.10%)
   displ. norm   :     0.1844528 α      lambda       -0.9472643E-05
   maximum displ.:     0.1321661 α      in ANC's #1, #10, #5, ...

........................................................................
.............................. CYCLE   90 ..............................
........................................................................

 iter      E             dE          RMSdq      gap      omega  full diag
   1   -168.7529887 -0.168753E+03  0.134E-02    0.14       0.0  T
   2   -168.7529887  0.158252E-07  0.794E-03    0.14       1.2  T
   3   -168.7529679  0.207789E-04  0.221E-02    0.14       1.0  T
   4   -168.7529874 -0.195217E-04  0.568E-03    0.14       1.6  T
   5   -168.7529887 -0.127962E-05  0.165E-03    0.14       5.7  T
   6   -168.7529888 -0.894846E-07  0.681E-04    0.14      13.7  T
   7   -168.7529888 -0.235732E-07  0.328E-04    0.14      28.5  T
     SCC iter.                  ...        0 min,  0.112 sec
     gradient                   ...        0 min,  0.034 sec
 * total energy  :  -165.9586456 Eh     change       -0.1299594E-04 Eh
   gradient norm :     0.0004225 Eh/α   predicted    -0.4810476E-05 ( -62.98%)
   displ. norm   :     0.1838213 α      lambda       -0.9153856E-05
   maximum displ.:     0.1322913 α      in ANC's #1, #10, #5, ...

........................................................................
.............................. CYCLE   91 ..............................
........................................................................

 iter      E             dE          RMSdq      gap      omega  full diag
   1   -168.7529571 -0.168753E+03  0.135E-02    0.14       0.0  T
   2   -168.7529568  0.248337E-06  0.825E-03    0.14       1.1  T
   3   -168.7528912  0.656346E-04  0.394E-02    0.14       1.0  T
   4   -168.7529563 -0.650897E-04  0.347E-03    0.14       2.7  T
   5   -168.7529569 -0.643760E-06  0.203E-03    0.14       4.6  T
   6   -168.7529570 -0.846159E-07  0.188E-03    0.14       5.0  T
   7   -168.7529572 -0.180962E-06  0.563E-04    0.14      16.6  T
   8   -168.7529572 -0.890103E-08  0.208E-04    0.14      45.0  T
     SCC iter.                  ...        0 min,  0.131 sec
     gradient                   ...        0 min,  0.035 sec
 * total energy  :  -165.9586581 Eh     change       -0.1253074E-04 Eh
   gradient norm :     0.0004184 Eh/α   predicted    -0.4649548E-05 ( -62.89%)
   displ. norm   :     0.1764452 α      lambda       -0.8414261E-05
   maximum displ.:     0.1276818 α      in ANC's #1, #10, #5, ...

........................................................................
.............................. CYCLE   92 ..............................
........................................................................

 iter      E             dE          RMSdq      gap      omega  full diag
   1   -168.7529988 -0.168753E+03  0.128E-02    0.14       0.0  T
   2   -168.7529984  0.339772E-06  0.792E-03    0.14       1.2  T
   3   -168.7529247  0.737844E-04  0.415E-02    0.14       1.0  T
   4   -168.7529973 -0.726304E-04  0.399E-03    0.14       2.3  T
   5   -168.7529987 -0.136180E-05  0.154E-03    0.14       6.1  T
   6   -168.7529985  0.130874E-06  0.276E-03    0.14       3.4  T
   7   -168.7529989 -0.370238E-06  0.714E-04    0.14      13.1  T
   8   -168.7529989 -0.194933E-07  0.165E-04    0.14      56.9  T
     SCC iter.                  ...        0 min,  0.132 sec
     gradient                   ...        0 min,  0.036 sec
 * total energy  :  -165.9586695 Eh     change       -0.1144350E-04 Eh
   gradient norm :     0.0003420 Eh/α   predicted    -0.4269506E-05 ( -62.69%)
   displ. norm   :     0.1582916 α      lambda       -0.7085403E-05
   maximum displ.:     0.1155545 α      in ANC's #1, #10, #5, ...
 * RMSD in coord.:     0.2408561 α      energy gain  -0.2504089E-03 Eh

generating ANC from exact Hessian ...
Using Lindh-Hessian (1995)
 Shifting diagonal of input Hessian by    9.9550931365533796E-003
 Lowest  eigenvalues of input Hessian
    0.000000    0.000000    0.000000    0.000000    0.000000    0.000000
    0.010000    0.010075    0.010185    0.010192    0.010202    0.010222
    0.010264    0.010269    0.010486    0.010497    0.010704    0.010732
 Highest eigenvalues
    2.049506    2.051285    2.074891    2.081529    2.082198    2.094879


........................................................................
.............................. CYCLE   93 ..............................
........................................................................

 iter      E             dE          RMSdq      gap      omega  full diag
   1   -168.7530540 -0.168753E+03  0.117E-02    0.14       0.0  T
   2   -168.7530527  0.137389E-05  0.866E-03    0.14       1.1  T
   3   -168.7529770  0.756963E-04  0.433E-02    0.14       1.0  T
   4   -168.7530526 -0.756343E-04  0.423E-03    0.14       2.2  T
   5   -168.7530537 -0.107873E-05  0.220E-03    0.14       4.3  T
   6   -168.7530537 -0.629867E-07  0.291E-03    0.14       3.2  T
   7   -168.7530541 -0.409228E-06  0.544E-04    0.14      17.2  T
   8   -168.7530542 -0.120358E-07  0.157E-04    0.14      59.6  T
     SCC iter.                  ...        0 min,  0.116 sec
     gradient                   ...        0 min,  0.036 sec
 * total energy  :  -165.9586792 Eh     change       -0.9630916E-05 Eh
   gradient norm :     0.0002715 Eh/α   predicted     0.0000000E+00 (-100.00%)
   displ. norm   :     0.0150227 α      lambda       -0.6195729E-07
   maximum displ.:     0.0122387 α      in ANC's #1, #13, #18, ...

........................................................................
.............................. CYCLE   94 ..............................
........................................................................

 iter      E             dE          RMSdq      gap      omega  full diag
   1   -168.7531747 -0.168753E+03  0.154E-03    0.14       0.0  T
   2   -168.7531741  0.569759E-06  0.380E-03    0.14       2.5  T
   3   -168.7531745 -0.327404E-06  0.265E-03    0.14       3.5  T
   4   -168.7531747 -0.210858E-06  0.751E-04    0.14      12.5  T
   5   -168.7531747 -0.773468E-08  0.619E-04    0.14      15.1  T
     SCC iter.                  ...        0 min,  0.083 sec
     gradient                   ...        0 min,  0.036 sec
 * total energy  :  -165.9586809 Eh     change       -0.1695658E-05 Eh
   gradient norm :     0.0002111 Eh/α   predicted    -0.6231342E-06 ( -63.25%)
   displ. norm   :     0.0415553 α      lambda       -0.3095477E-05
   maximum displ.:     0.0291265 α      in ANC's #1, #13, #18, ...

........................................................................
.............................. CYCLE   95 ..............................
........................................................................

 iter      E             dE          RMSdq      gap      omega  full diag
   1   -168.7533157 -0.168753E+03  0.422E-03    0.14       0.0  T
   2   -168.7533147  0.108720E-05  0.558E-03    0.14       1.7  T
   3   -168.7533105  0.416956E-05  0.116E-02    0.14       1.0  T
   4   -168.7533158 -0.528563E-05  0.129E-03    0.14       7.2  T
   5   -168.7533157  0.768944E-07  0.150E-03    0.14       6.3  T
   6   -168.7533158 -0.928043E-07  0.407E-04    0.14      23.0  T
   7   -168.7533158 -0.144691E-07  0.128E-04    0.14      73.0  T
     SCC iter.                  ...        0 min,  0.115 sec
     gradient                   ...        0 min,  0.034 sec
 * total energy  :  -165.9586851 Eh     change       -0.4198691E-05 Eh
   gradient norm :     0.0001938 Eh/α   predicted    -0.1549302E-05 ( -63.10%)
   displ. norm   :     0.0776353 α      lambda       -0.4782108E-05
   maximum displ.:     0.0538838 α      in ANC's #1, #13, #17, ...

........................................................................
.............................. CYCLE   96 ..............................
........................................................................

 iter      E             dE          RMSdq      gap      omega  full diag
   1   -168.7532749 -0.168753E+03  0.813E-03    0.14       0.0  T
   2   -168.7532587  0.162221E-04  0.204E-02    0.14       1.0  T
   3   -168.7532677 -0.898143E-05  0.143E-02    0.14       1.0  T
   4   -168.7532741 -0.646188E-05  0.390E-03    0.14       2.4  T
   5   -168.7532742 -0.503500E-07  0.343E-03    0.14       2.7  T
   6   -168.7532752 -0.106247E-05  0.146E-03    0.14       6.4  T
   7   -168.7532753 -0.896895E-07  0.307E-04    0.14      30.6  T
   8   -168.7532753 -0.359330E-08  0.145E-04    0.14      64.8  T
     SCC iter.                  ...        0 min,  0.131 sec
     gradient                   ...        0 min,  0.035 sec
 * total energy  :  -165.9586909 Eh     change       -0.5897697E-05 Eh
   gradient norm :     0.0002261 Eh/α   predicted    -0.2397747E-05 ( -59.34%)
   displ. norm   :     0.0758191 α      lambda       -0.3529911E-05
   maximum displ.:     0.0543624 α      in ANC's #1, #13, #17, ...

........................................................................
.............................. CYCLE   97 ..............................
........................................................................

 iter      E             dE          RMSdq      gap      omega  full diag
   1   -168.7533555 -0.168753E+03  0.767E-03    0.15       0.0  T
   2   -168.7533285  0.270482E-04  0.262E-02    0.14       1.0  T
   3   -168.7533522 -0.236766E-04  0.104E-02    0.14       1.0  T
   4   -168.7533553 -0.311591E-05  0.330E-03    0.14       2.8  T
   5   -168.7533550  0.267519E-06  0.328E-03    0.14       2.9  T
   6   -168.7533560 -0.100511E-05  0.972E-04    0.14       9.6  T
   7   -168.7533561 -0.376307E-07  0.285E-04    0.14      32.8  T
   8   -168.7533561 -0.316768E-08  0.947E-05    0.14      98.9  T
     SCC iter.                  ...        0 min,  0.131 sec
     gradient                   ...        0 min,  0.035 sec
 * total energy  :  -165.9586954 Eh     change       -0.4468519E-05 Eh
   gradient norm :     0.0003010 Eh/α   predicted    -0.1772339E-05 ( -60.34%)
   displ. norm   :     0.0555129 α      lambda       -0.2479102E-05
   maximum displ.:     0.0415166 α      in ANC's #1, #13, #12, ...

........................................................................
.............................. CYCLE   98 ..............................
........................................................................

 iter      E             dE          RMSdq      gap      omega  full diag
   1   -168.7533477 -0.168753E+03  0.551E-03    0.15       0.0  T
   2   -168.7533285  0.192198E-04  0.222E-02    0.15       1.0  T
   3   -168.7533467 -0.181741E-04  0.622E-03    0.15       1.5  T
   4   -168.7533473 -0.665888E-06  0.321E-03    0.15       2.9  T
   5   -168.7533476 -0.296930E-06  0.224E-03    0.15       4.2  T
   6   -168.7533480 -0.407250E-06  0.281E-04    0.15      33.4  T
   7   -168.7533480 -0.258922E-08  0.167E-04    0.15      55.9  T
     SCC iter.                  ...        0 min,  0.112 sec
     gradient                   ...        0 min,  0.035 sec
 * total energy  :  -165.9586989 Eh     change       -0.3437847E-05 Eh
   gradient norm :     0.0002952 Eh/α   predicted    -0.1247618E-05 ( -63.71%)
   displ. norm   :     0.0478363 α      lambda       -0.2572790E-05
   maximum displ.:     0.0366916 α      in ANC's #1, #13, #12, ...

........................................................................
.............................. CYCLE   99 ..............................
........................................................................

 iter      E             dE          RMSdq      gap      omega  full diag
   1   -168.7533448 -0.168753E+03  0.467E-03    0.14       0.0  T
   2   -168.7533290  0.157975E-04  0.202E-02    0.14       1.0  T
   3   -168.7533443 -0.153111E-04  0.458E-03    0.14       2.0  T
   4   -168.7533442  0.345852E-07  0.342E-03    0.14       2.7  T
   5   -168.7533448 -0.567482E-06  0.174E-03    0.14       5.4  T
   6   -168.7533450 -0.189619E-06  0.786E-04    0.14      11.9  T
   7   -168.7533450 -0.290704E-07  0.119E-04    0.14      78.5  T
     SCC iter.                  ...        0 min,  0.117 sec
     gradient                   ...        0 min,  0.036 sec
 * total energy  :  -165.9587025 Eh     change       -0.3603965E-05 Eh
   gradient norm :     0.0002358 Eh/α   predicted    -0.1288965E-05 ( -64.23%)
   displ. norm   :     0.0557888 α      lambda       -0.3159741E-05
   maximum displ.:     0.0432585 α      in ANC's #1, #12, #4, ...

........................................................................
.............................. CYCLE  100 ..............................
........................................................................

 iter      E             dE          RMSdq      gap      omega  full diag
   1   -168.7532893 -0.168753E+03  0.547E-03    0.14       0.0  T
   2   -168.7532721  0.172031E-04  0.212E-02    0.14       1.0  T
   3   -168.7532885 -0.163447E-04  0.565E-03    0.14       1.7  T
   4   -168.7532889 -0.435124E-06  0.350E-03    0.14       2.7  T
   5   -168.7532893 -0.386518E-06  0.184E-03    0.14       5.1  T
   6   -168.7532895 -0.202834E-06  0.169E-03    0.14       5.5  T
   7   -168.7532896 -0.137195E-06  0.177E-04    0.14      53.0  T
   8   -168.7532896 -0.120698E-08  0.988E-05    0.14      94.8  T
     SCC iter.                  ...        0 min,  0.128 sec
     gradient                   ...        0 min,  0.035 sec
 * total energy  :  -165.9587067 Eh     change       -0.4268181E-05 Eh
   gradient norm :     0.0001519 Eh/α   predicted    -0.1582863E-05 ( -62.91%)
   displ. norm   :     0.0591843 α      lambda       -0.2964369E-05
   maximum displ.:     0.0467180 α      in ANC's #1, #4, #12, ...

........................................................................
.............................. CYCLE  101 ..............................
........................................................................

 iter      E             dE          RMSdq      gap      omega  full diag
   1   -168.7532287 -0.168753E+03  0.517E-03    0.14       0.0  T
   2   -168.7532199  0.883927E-05  0.153E-02    0.14       1.0  T
   3   -168.7532275 -0.760255E-05  0.621E-03    0.14       1.5  T
   4   -168.7532284 -0.917646E-06  0.271E-03    0.14       3.5  T
   5   -168.7532285 -0.119957E-06  0.189E-03    0.14       5.0  T
   6   -168.7532288 -0.275494E-06  0.150E-03    0.14       6.2  T
   7   -168.7532289 -0.105224E-06  0.367E-04    0.14      25.5  T
   8   -168.7532289 -0.832722E-08  0.632E-05    0.14     148.3  T
     SCC iter.                  ...        0 min,  0.124 sec
     gradient                   ...        0 min,  0.036 sec
 * total energy  :  -165.9587106 Eh     change       -0.3902692E-05 Eh
   gradient norm :     0.0001286 Eh/α   predicted    -0.1486304E-05 ( -61.92%)
   displ. norm   :     0.0471237 α      lambda       -0.2050203E-05
   maximum displ.:     0.0382807 α      in ANC's #1, #4, #12, ...

........................................................................
.............................. CYCLE  102 ..............................
........................................................................

 iter      E             dE          RMSdq      gap      omega  full diag
   1   -168.7532282 -0.168753E+03  0.370E-03    0.14       0.0  T
   2   -168.7532269  0.135042E-05  0.621E-03    0.14       1.5  T
   3   -168.7532261  0.759529E-06  0.745E-03    0.14       1.3  T
   4   -168.7532281 -0.199631E-05  0.153E-03    0.14       6.1  T
   5   -168.7532280  0.104460E-06  0.157E-03    0.14       6.0  T
   6   -168.7532283 -0.245257E-06  0.632E-04    0.14      14.8  T
   7   -168.7532283 -0.189634E-07  0.130E-04    0.14      71.9  T
     SCC iter.                  ...        0 min,  0.118 sec
     gradient                   ...        0 min,  0.036 sec
 * total energy  :  -165.9587134 Eh     change       -0.2787030E-05 Eh
   gradient norm :     0.0001564 Eh/α   predicted    -0.1028820E-05 ( -63.09%)
   displ. norm   :     0.0335206 α      lambda       -0.1484920E-05
   maximum displ.:     0.0278896 α      in ANC's #1, #4, #42, ...

........................................................................
.............................. CYCLE  103 ..............................
........................................................................

 iter      E             dE          RMSdq      gap      omega  full diag
   1   -168.7532276 -0.168753E+03  0.229E-03    0.14       0.0  T
   2   -168.7532274  0.168945E-06  0.247E-03    0.14       3.8  T
   3   -168.7532259  0.152330E-05  0.654E-03    0.14       1.4  T
   4   -168.7532275 -0.158006E-05  0.159E-03    0.14       5.9  T
   5   -168.7532275 -0.346663E-07  0.713E-04    0.14      13.1  T
   6   -168.7532276 -0.843901E-07  0.208E-04    0.14      44.9  T
     SCC iter.                  ...        0 min,  0.100 sec
     gradient                   ...        0 min,  0.035 sec
 * total energy  :  -165.9587155 Eh     change       -0.2125815E-05 Eh
   gradient norm :     0.0001702 Eh/α   predicted    -0.7433669E-06 ( -65.03%)
   displ. norm   :     0.0284891 α      lambda       -0.1422558E-05
   maximum displ.:     0.0234532 α      in ANC's #1, #13, #4, ...

........................................................................
.............................. CYCLE  104 ..............................
........................................................................

 iter      E             dE          RMSdq      gap      omega  full diag
   1   -168.7532521 -0.168753E+03  0.218E-03    0.14       0.0  T
   2   -168.7532498  0.222186E-05  0.766E-03    0.14       1.2  T
   3   -168.7532518 -0.195035E-05  0.284E-03    0.14       3.3  T
   4   -168.7532517  0.642888E-07  0.272E-03    0.14       3.4  T
   5   -168.7532520 -0.318754E-06  0.664E-04    0.14      14.1  T
   6   -168.7532521 -0.538888E-07  0.125E-04    0.14      74.7  T
     SCC iter.                  ...        0 min,  0.097 sec
     gradient                   ...        0 min,  0.036 sec
 * total energy  :  -165.9587176 Eh     change       -0.2075764E-05 Eh
   gradient norm :     0.0001640 Eh/α   predicted    -0.7138992E-06 ( -65.61%)
   displ. norm   :     0.0334029 α      lambda       -0.1771683E-05
   maximum displ.:     0.0265726 α      in ANC's #1, #13, #4, ...

........................................................................
.............................. CYCLE  105 ..............................
........................................................................

 iter      E             dE          RMSdq      gap      omega  full diag
   1   -168.7532730 -0.168753E+03  0.288E-03    0.14       0.0  T
   2   -168.7532671  0.593957E-05  0.125E-02    0.14       1.0  T
   3   -168.7532728 -0.572119E-05  0.291E-03    0.14       3.2  T
   4   -168.7532726  0.206308E-06  0.320E-03    0.14       2.9  T
   5   -168.7532730 -0.425619E-06  0.112E-03    0.14       8.4  T
   6   -168.7532731 -0.830581E-07  0.558E-04    0.14      16.8  T
   7   -168.7532731 -0.141800E-07  0.752E-05    0.14     124.5  T
     SCC iter.                  ...        0 min,  0.112 sec
     gradient                   ...        0 min,  0.035 sec
 * total energy  :  -165.9587202 Eh     change       -0.2548149E-05 Eh
   gradient norm :     0.0001397 Eh/α   predicted    -0.8879077E-06 ( -65.15%)
   displ. norm   :     0.0431268 α      lambda       -0.2212665E-05
   maximum displ.:     0.0334260 α      in ANC's #1, #13, #4, ...

........................................................................
.............................. CYCLE  106 ..............................
........................................................................

 iter      E             dE          RMSdq      gap      omega  full diag
   1   -168.7532948 -0.168753E+03  0.374E-03    0.14       0.0  T
   2   -168.7532854  0.942866E-05  0.157E-02    0.14       1.0  T
   3   -168.7532945 -0.914046E-05  0.352E-03    0.14       2.7  T
   4   -168.7532944  0.123999E-06  0.339E-03    0.14       2.8  T
   5   -168.7532948 -0.441313E-06  0.111E-03    0.14       8.4  T
   6   -168.7532949 -0.665232E-07  0.117E-03    0.14       8.0  T
   7   -168.7532949 -0.645305E-07  0.471E-05    0.14     199.0  T
   8   -168.7532949 -0.235048E-10  0.386E-05    0.14     242.6  T
     SCC iter.                  ...        0 min,  0.126 sec
     gradient                   ...        0 min,  0.036 sec
 * total energy  :  -165.9587233 Eh     change       -0.3108702E-05 Eh
   gradient norm :     0.0001160 Eh/α   predicted    -0.1108801E-05 ( -64.33%)
   displ. norm   :     0.0498462 α      lambda       -0.2331677E-05
   maximum displ.:     0.0383970 α      in ANC's #1, #13, #4, ...

........................................................................
.............................. CYCLE  107 ..............................
........................................................................

 iter      E             dE          RMSdq      gap      omega  full diag
   1   -168.7533132 -0.168753E+03  0.400E-03    0.14       0.0  T
   2   -168.7533036  0.956575E-05  0.158E-02    0.14       1.0  T
   3   -168.7533130 -0.937266E-05  0.335E-03    0.14       2.8  T
   4   -168.7533131 -0.113566E-06  0.225E-03    0.14       4.2  T
   5   -168.7533131 -0.400018E-07  0.162E-03    0.14       5.8  T
   6   -168.7533133 -0.146527E-06  0.113E-03    0.14       8.3  T
   7   -168.7533133 -0.612309E-07  0.625E-05    0.14     149.9  T
   8   -168.7533133  0.154984E-09  0.521E-05    0.14     179.9  T
     SCC iter.                  ...        0 min,  0.128 sec
     gradient                   ...        0 min,  0.035 sec
 * total energy  :  -165.9587265 Eh     change       -0.3227879E-05 Eh
   gradient norm :     0.0001110 Eh/α   predicted    -0.1168425E-05 ( -63.80%)
   displ. norm   :     0.0478129 α      lambda       -0.2032897E-05
   maximum displ.:     0.0371522 α      in ANC's #1, #13, #4, ...

........................................................................
.............................. CYCLE  108 ..............................
........................................................................

 iter      E             dE          RMSdq      gap      omega  full diag
   1   -168.7533137 -0.168753E+03  0.346E-03    0.14       0.0  T
   2   -168.7533089  0.480282E-05  0.112E-02    0.14       1.0  T
   3   -168.7533135 -0.462494E-05  0.299E-03    0.14       3.1  T
   4   -168.7533137 -0.189107E-06  0.112E-03    0.14       8.4  T
   5   -168.7533136  0.115800E-06  0.144E-03    0.14       6.5  T
   6   -168.7533137 -0.164350E-06  0.800E-04    0.14      11.7  T
   7   -168.7533138 -0.299424E-07  0.950E-05    0.14      98.6  T
     SCC iter.                  ...        0 min,  0.110 sec
     gradient                   ...        0 min,  0.035 sec
 * total energy  :  -165.9587293 Eh     change       -0.2836790E-05 Eh
   gradient norm :     0.0001209 Eh/α   predicted    -0.1018292E-05 ( -64.10%)
   displ. norm   :     0.0401149 α      lambda       -0.1653231E-05
   maximum displ.:     0.0316953 α      in ANC's #1, #13, #4, ...

........................................................................
.............................. CYCLE  109 ..............................
........................................................................

 iter      E             dE          RMSdq      gap      omega  full diag
   1   -168.7533225 -0.168753E+03  0.262E-03    0.14       0.0  T
   2   -168.7533214  0.111818E-05  0.549E-03    0.14       1.7  T
   3   -168.7533222 -0.788616E-06  0.324E-03    0.14       2.9  T
   4   -168.7533225 -0.308993E-06  0.102E-03    0.14       9.2  T
   5   -168.7533225  0.403460E-07  0.995E-04    0.14       9.4  T
   6   -168.7533225 -0.836814E-07  0.252E-04    0.14      37.2  T
     SCC iter.                  ...        0 min,  0.096 sec
     gradient                   ...        0 min,  0.035 sec
 * total energy  :  -165.9587317 Eh     change       -0.2354875E-05 Eh
   gradient norm :     0.0001288 Eh/α   predicted    -0.8277028E-06 ( -64.85%)
   displ. norm   :     0.0341112 α      lambda       -0.1458366E-05
   maximum displ.:     0.0274813 α      in ANC's #1, #4, #13, ...

........................................................................
.............................. CYCLE  110 ..............................
........................................................................

 iter      E             dE          RMSdq      gap      omega  full diag
   1   -168.7533183 -0.168753E+03  0.212E-03    0.14       0.0  T
   2   -168.7533183  0.327026E-08  0.125E-03    0.14       7.5  T
   3   -168.7533181  0.203755E-06  0.185E-03    0.14       5.1  T
   4   -168.7533179  0.229496E-06  0.322E-03    0.14       2.9  T
   5   -168.7533183 -0.377283E-06  0.951E-04    0.14       9.9  T
   6   -168.7533183 -0.618118E-07  0.202E-04    0.14      46.4  T
     SCC iter.                  ...        0 min,  0.097 sec
     gradient                   ...        0 min,  0.036 sec
 * total energy  :  -165.9587338 Eh     change       -0.2139429E-05 Eh
   gradient norm :     0.0001266 Eh/α   predicted    -0.7338882E-06 ( -65.70%)
   displ. norm   :     0.0318189 α      lambda       -0.1476139E-05
   maximum displ.:     0.0257355 α      in ANC's #1, #4, #6, ...

........................................................................
.............................. CYCLE  111 ..............................
........................................................................

 iter      E             dE          RMSdq      gap      omega  full diag
   1   -168.7533115 -0.168753E+03  0.228E-03    0.14       0.0  T
   2   -168.7533103  0.126416E-05  0.586E-03    0.14       1.6  T
   3   -168.7533109 -0.660747E-06  0.399E-03    0.14       2.3  T
   4   -168.7533108  0.118924E-06  0.379E-03    0.14       2.5  T
   5   -168.7533113 -0.524804E-06  0.218E-03    0.14       4.3  T
   6   -168.7533115 -0.220209E-06  0.819E-05    0.14     114.4  T
   7   -168.7533115 -0.553513E-09  0.714E-05    0.14     131.2  T
     SCC iter.                  ...        0 min,  0.112 sec
     gradient                   ...        0 min,  0.034 sec
 * total energy  :  -165.9587360 Eh     change       -0.2169344E-05 Eh
   gradient norm :     0.0001180 Eh/α   predicted    -0.7421754E-06 ( -65.79%)
   displ. norm   :     0.0367870 α      lambda       -0.1789302E-05
   maximum displ.:     0.0293444 α      in ANC's #1, #4, #6, ...

........................................................................
.............................. CYCLE  112 ..............................
........................................................................

 iter      E             dE          RMSdq      gap      omega  full diag
   1   -168.7533013 -0.168753E+03  0.283E-03    0.14       0.0  T
   2   -168.7532982  0.310821E-05  0.909E-03    0.14       1.0  T
   3   -168.7533008 -0.254283E-05  0.400E-03    0.14       2.3  T
   4   -168.7533004  0.348585E-06  0.426E-03    0.14       2.2  T
   5   -168.7533011 -0.692335E-06  0.240E-03    0.14       3.9  T
   6   -168.7533014 -0.274065E-06  0.138E-04    0.14      68.0  T
   7   -168.7533014 -0.977906E-09  0.425E-05    0.14     220.1  T
     SCC iter.                  ...        0 min,  0.113 sec
     gradient                   ...        0 min,  0.037 sec
 * total energy  :  -165.9587386 Eh     change       -0.2614222E-05 Eh
   gradient norm :     0.0001059 Eh/α   predicted    -0.8955651E-06 ( -65.74%)
   displ. norm   :     0.0475624 α      lambda       -0.2320147E-05
   maximum displ.:     0.0372717 α      in ANC's #1, #4, #6, ...

........................................................................
.............................. CYCLE  113 ..............................
........................................................................

 iter      E             dE          RMSdq      gap      omega  full diag
   1   -168.7532730 -0.168753E+03  0.406E-03    0.14       0.0  T
   2   -168.7532640  0.894729E-05  0.153E-02    0.14       1.0  T
   3   -168.7532720 -0.800311E-05  0.533E-03    0.14       1.8  T
   4   -168.7532715  0.468115E-06  0.529E-03    0.14       1.8  T
   5   -168.7532726 -0.107861E-05  0.316E-03    0.14       3.0  T
   6   -168.7532731 -0.478942E-06  0.281E-04    0.14      33.3  T
   7   -168.7532731 -0.410969E-08  0.841E-05    0.14     111.3  T
     SCC iter.                  ...        0 min,  0.113 sec
     gradient                   ...        0 min,  0.035 sec
 * total energy  :  -165.9587420 Eh     change       -0.3363158E-05 Eh
   gradient norm :     0.0000975 Eh/α   predicted    -0.1162138E-05 ( -65.45%)
   displ. norm   :     0.0616525 α      lambda       -0.2916109E-05
   maximum displ.:     0.0476511 α      in ANC's #1, #4, #6, ...

........................................................................
.............................. CYCLE  114 ..............................
........................................................................

 iter      E             dE          RMSdq      gap      omega  full diag
   1   -168.7532613 -0.168753E+03  0.517E-03    0.14       0.0  T
   2   -168.7532467  0.146461E-04  0.195E-02    0.14       1.0  T
   3   -168.7532603 -0.136000E-04  0.596E-03    0.14       1.6  T
   4   -168.7532600  0.291794E-06  0.490E-03    0.14       1.9  T
   5   -168.7532612 -0.120747E-05  0.267E-03    0.14       3.5  T
   6   -168.7532616 -0.372082E-06  0.307E-04    0.14      30.5  T
   7   -168.7532616 -0.446275E-08  0.949E-05    0.14      98.7  T
     SCC iter.                  ...        0 min,  0.113 sec
     gradient                   ...        0 min,  0.036 sec
 * total energy  :  -165.9587462 Eh     change       -0.4200362E-05 Eh
   gradient norm :     0.0001030 Eh/α   predicted    -0.1461921E-05 ( -65.20%)
   displ. norm   :     0.0751563 α      lambda       -0.3395618E-05
   maximum displ.:     0.0577019 α      in ANC's #1, #4, #13, ...

........................................................................
.............................. CYCLE  115 ..............................
........................................................................

 iter      E             dE          RMSdq      gap      omega  full diag
   1   -168.7532332 -0.168753E+03  0.642E-03    0.14       0.0  T
   2   -168.7532101  0.230270E-04  0.244E-02    0.14       1.0  T
   3   -168.7532315 -0.213516E-04  0.755E-03    0.14       1.2  T
   4   -168.7532315 -0.417783E-07  0.548E-03    0.14       1.7  T
   5   -168.7532330 -0.149444E-05  0.306E-03    0.14       3.1  T
   6   -168.7532335 -0.520002E-06  0.158E-04    0.14      59.4  T
   7   -168.7532335 -0.333984E-09  0.174E-04    0.14      53.8  T
     SCC iter.                  ...        0 min,  0.112 sec
     gradient                   ...        0 min,  0.035 sec
 * total energy  :  -165.9587511 Eh     change       -0.4870285E-05 Eh
   gradient norm :     0.0001264 Eh/α   predicted    -0.1703420E-05 ( -65.02%)
   displ. norm   :     0.0843106 α      lambda       -0.3629429E-05
   maximum displ.:     0.0645953 α      in ANC's #1, #4, #13, ...

........................................................................
.............................. CYCLE  116 ..............................
........................................................................

 iter      E             dE          RMSdq      gap      omega  full diag
   1   -168.7532208 -0.168753E+03  0.682E-03    0.14       0.0  T
   2   -168.7531998  0.209737E-04  0.233E-02    0.14       1.0  T
   3   -168.7532193 -0.194081E-04  0.757E-03    0.14       1.2  T
   4   -168.7532196 -0.294347E-06  0.436E-03    0.14       2.1  T
   5   -168.7532209 -0.130576E-05  0.203E-03    0.14       4.6  T
   6   -168.7532212 -0.323726E-06  0.173E-04    0.14      54.2  T
   7   -168.7532212 -0.947040E-09  0.960E-05    0.14      97.5  T
     SCC iter.                  ...        0 min,  0.111 sec
     gradient                   ...        0 min,  0.037 sec
 * total energy  :  -165.9587563 Eh     change       -0.5198519E-05 Eh
   gradient norm :     0.0001453 Eh/α   predicted    -0.1821302E-05 ( -64.96%)
   displ. norm   :     0.0864509 α      lambda       -0.3566345E-05
   maximum displ.:     0.0664253 α      in ANC's #1, #4, #13, ...

........................................................................
.............................. CYCLE  117 ..............................
........................................................................

 iter      E             dE          RMSdq      gap      omega  full diag
   1   -168.7532203 -0.168753E+03  0.700E-03    0.14       0.0  T
   2   -168.7531994  0.209328E-04  0.232E-02    0.14       1.0  T
   3   -168.7532182 -0.188391E-04  0.846E-03    0.14       1.1  T
   4   -168.7532191 -0.889224E-06  0.428E-03    0.14       2.2  T
   5   -168.7532203 -0.117099E-05  0.228E-03    0.14       4.1  T
   6   -168.7532207 -0.381754E-06  0.498E-04    0.14      18.8  T
   7   -168.7532207 -0.848092E-08  0.200E-04    0.14      46.7  T
     SCC iter.                  ...        0 min,  0.112 sec
     gradient                   ...        0 min,  0.035 sec
 * total energy  :  -165.9587614 Eh     change       -0.5111382E-05 Eh
   gradient norm :     0.0001594 Eh/α   predicted    -0.1789495E-05 ( -64.99%)
   displ. norm   :     0.0817564 α      lambda       -0.3283408E-05
   maximum displ.:     0.0632290 α      in ANC's #1, #4, #13, ...

........................................................................
.............................. CYCLE  118 ..............................
........................................................................

 iter      E             dE          RMSdq      gap      omega  full diag
   1   -168.7532284 -0.168753E+03  0.620E-03    0.14       0.0  T
   2   -168.7532187  0.972833E-05  0.159E-02    0.14       1.0  T
   3   -168.7532267 -0.793936E-05  0.773E-03    0.14       1.2  T
   4   -168.7532275 -0.870524E-06  0.342E-03    0.14       2.7  T
   5   -168.7532283 -0.797935E-06  0.176E-03    0.14       5.3  T
   6   -168.7532286 -0.296257E-06  0.399E-04    0.14      23.5  T
   7   -168.7532286 -0.719967E-08  0.826E-05    0.14     113.4  T
     SCC iter.                  ...        0 min,  0.110 sec
     gradient                   ...        0 min,  0.039 sec
 * total energy  :  -165.9587661 Eh     change       -0.4714107E-05 Eh
   gradient norm :     0.0001524 Eh/α   predicted    -0.1651126E-05 ( -64.97%)
   displ. norm   :     0.0748738 α      lambda       -0.2974309E-05
   maximum displ.:     0.0584555 α      in ANC's #1, #4, #6, ...

........................................................................
.............................. CYCLE  119 ..............................
........................................................................

 iter      E             dE          RMSdq      gap      omega  full diag
   1   -168.7532561 -0.168753E+03  0.568E-03    0.14       0.0  T
   2   -168.7532475  0.858242E-05  0.149E-02    0.14       1.0  T
   3   -168.7532541 -0.659078E-05  0.791E-03    0.14       1.2  T
   4   -168.7532554 -0.128701E-05  0.294E-03    0.14       3.2  T
   5   -168.7532561 -0.634967E-06  0.156E-03    0.14       6.0  T
   6   -168.7532563 -0.202162E-06  0.774E-04    0.14      12.1  T
   7   -168.7532563 -0.227563E-07  0.262E-04    0.14      35.8  T
     SCC iter.                  ...        0 min,  0.110 sec
     gradient                   ...        0 min,  0.035 sec
 * total energy  :  -165.9587704 Eh     change       -0.4282098E-05 Eh
   gradient norm :     0.0001391 Eh/α   predicted    -0.1494488E-05 ( -65.10%)
   displ. norm   :     0.0668354 α      lambda       -0.2659860E-05
   maximum displ.:     0.0527985 α      in ANC's #1, #4, #6, ...

........................................................................
.............................. CYCLE  120 ..............................
........................................................................

 iter      E             dE          RMSdq      gap      omega  full diag
   1   -168.7532769 -0.168753E+03  0.475E-03    0.14       0.0  T
   2   -168.7532750  0.195169E-05  0.734E-03    0.14       1.3  T
   3   -168.7532738  0.113853E-05  0.925E-03    0.14       1.0  T
   4   -168.7532761 -0.229244E-05  0.334E-03    0.14       2.8  T
   5   -168.7532768 -0.633222E-06  0.165E-03    0.14       5.7  T
   6   -168.7532770 -0.205431E-06  0.432E-04    0.14      21.7  T
   7   -168.7532770 -0.842411E-08  0.107E-04    0.14      87.5  T
     SCC iter.                  ...        0 min,  0.113 sec
     gradient                   ...        0 min,  0.037 sec
 * total energy  :  -165.9587742 Eh     change       -0.3878177E-05 Eh
   gradient norm :     0.0001214 Eh/α   predicted    -0.1337053E-05 ( -65.52%)
   displ. norm   :     0.0596308 α      lambda       -0.2429347E-05
   maximum displ.:     0.0474196 α      in ANC's #1, #4, #6, ...
 * RMSD in coord.:     0.1225405 α      energy gain  -0.1047103E-03 Eh

generating ANC from exact Hessian ...
Using Lindh-Hessian (1995)
 Shifting diagonal of input Hessian by    9.9556241226778502E-003
 Lowest  eigenvalues of input Hessian
    0.000000    0.000000    0.000000    0.000000    0.000000    0.000000
    0.010000    0.010076    0.010186    0.010193    0.010202    0.010223
    0.010264    0.010269    0.010486    0.010498    0.010705    0.010733
 Highest eigenvalues
    2.049629    2.051432    2.075384    2.082123    2.082563    2.095272


........................................................................
.............................. CYCLE  121 ..............................
........................................................................

 iter      E             dE          RMSdq      gap      omega  full diag
   1   -168.7533081 -0.168753E+03  0.415E-03    0.15       0.0  T
   2   -168.7533064  0.162791E-05  0.668E-03    0.14       1.4  T
   3   -168.7533056  0.826708E-06  0.823E-03    0.14       1.1  T
   4   -168.7533076 -0.196482E-05  0.231E-03    0.15       4.0  T
   5   -168.7533080 -0.450790E-06  0.874E-04    0.14      10.7  T
   6   -168.7533081 -0.589851E-07  0.651E-04    0.14      14.4  T
     SCC iter.                  ...        0 min,  0.098 sec
     gradient                   ...        0 min,  0.036 sec
 * total energy  :  -165.9587778 Eh     change       -0.3539601E-05 Eh
   gradient norm :     0.0001050 Eh/α   predicted     0.0000000E+00 (-100.00%)
   displ. norm   :     0.0121944 α      lambda       -0.1917121E-07
   maximum displ.:     0.0110673 α      in ANC's #1, #13, #12, ...

........................................................................
.............................. CYCLE  122 ..............................
........................................................................

 iter      E             dE          RMSdq      gap      omega  full diag
   1   -168.7533530 -0.168753E+03  0.868E-04    0.14       0.0  T
   2   -168.7533520  0.996528E-06  0.504E-03    0.14       1.9  T
   3   -168.7533530 -0.100267E-05  0.554E-04    0.14      16.9  T
   4   -168.7533530  0.405831E-08  0.390E-04    0.14      24.0  T
   5   -168.7533530 -0.398174E-08  0.219E-04    0.14      42.7  T
     SCC iter.                  ...        0 min,  0.083 sec
     gradient                   ...        0 min,  0.037 sec
 * total energy  :  -165.9587788 Eh     change       -0.1047807E-05 Eh
   gradient norm :     0.0000930 Eh/α   predicted    -0.3516782E-06 ( -66.44%)
   displ. norm   :     0.0219806 α      lambda       -0.1209132E-05
   maximum displ.:     0.0173439 α      in ANC's #1, #13, #12, ...

........................................................................
.............................. CYCLE  123 ..............................
........................................................................

 iter      E             dE          RMSdq      gap      omega  full diag
   1   -168.7533582 -0.168753E+03  0.142E-03    0.15       0.0  T
   2   -168.7533574  0.842034E-06  0.468E-03    0.15       2.0  T
   3   -168.7533582 -0.839705E-06  0.956E-04    0.15       9.8  T
   4   -168.7533583 -0.108079E-07  0.413E-04    0.15      22.7  T
     SCC iter.                  ...        0 min,  0.065 sec
     gradient                   ...        0 min,  0.035 sec
 * total energy  :  -165.9587806 Eh     change       -0.1795004E-05 Eh
   gradient norm :     0.0000955 Eh/α   predicted    -0.6133511E-06 ( -65.83%)
   displ. norm   :     0.0405130 α      lambda       -0.2111293E-05
   maximum displ.:     0.0301517 α      in ANC's #1, #13, #12, ...

........................................................................
.............................. CYCLE  124 ..............................
........................................................................

 iter      E             dE          RMSdq      gap      omega  full diag
   1   -168.7533121 -0.168753E+03  0.328E-03    0.15       0.0  T
   2   -168.7533034  0.876860E-05  0.150E-02    0.15       1.0  T
   3   -168.7533120 -0.865830E-05  0.282E-03    0.15       3.3  T
   4   -168.7533120  0.962467E-08  0.176E-03    0.15       5.3  T
   5   -168.7533122 -0.155056E-06  0.110E-03    0.15       8.5  T
   6   -168.7533123 -0.110209E-06  0.178E-04    0.15      52.6  T
   7   -168.7533123 -0.132297E-08  0.102E-04    0.15      91.8  T
     SCC iter.                  ...        0 min,  0.115 sec
     gradient                   ...        0 min,  0.038 sec
 * total energy  :  -165.9587836 Eh     change       -0.2980386E-05 Eh
   gradient norm :     0.0000893 Eh/α   predicted    -0.1056589E-05 ( -64.55%)
   displ. norm   :     0.0600345 α      lambda       -0.2778396E-05
   maximum displ.:     0.0443823 α      in ANC's #1, #13, #12, ...

........................................................................
.............................. CYCLE  125 ..............................
........................................................................

 iter      E             dE          RMSdq      gap      omega  full diag
   1   -168.7533195 -0.168753E+03  0.402E-03    0.15       0.0  T
   2   -168.7533150  0.449953E-05  0.109E-02    0.15       1.0  T
   3   -168.7533192 -0.426383E-05  0.350E-03    0.15       2.7  T
   4   -168.7533194 -0.204928E-06  0.155E-03    0.15       6.0  T
   5   -168.7533193  0.116829E-06  0.161E-03    0.15       5.8  T
   6   -168.7533195 -0.222084E-06  0.592E-04    0.15      15.8  T
   7   -168.7533196 -0.117375E-07  0.232E-04    0.15      40.4  T
     SCC iter.                  ...        0 min,  0.114 sec
     gradient                   ...        0 min,  0.036 sec
 * total energy  :  -165.9587874 Eh     change       -0.3752663E-05 Eh
   gradient norm :     0.0000936 Eh/α   predicted    -0.1392562E-05 ( -62.89%)
   displ. norm   :     0.0610226 α      lambda       -0.2398835E-05
   maximum displ.:     0.0460859 α      in ANC's #1, #13, #12, ...

........................................................................
.............................. CYCLE  126 ..............................
........................................................................

 iter      E             dE          RMSdq      gap      omega  full diag
   1   -168.7532982 -0.168753E+03  0.452E-03    0.15       0.0  T
   2   -168.7532862  0.120167E-04  0.176E-02    0.15       1.0  T
   3   -168.7532975 -0.113267E-04  0.504E-03    0.15       1.9  T
   4   -168.7532980 -0.552710E-06  0.264E-03    0.15       3.5  T
   5   -168.7532982 -0.119384E-06  0.145E-03    0.15       6.4  T
   6   -168.7532984 -0.221236E-06  0.156E-04    0.15      60.1  T
   7   -168.7532984 -0.709804E-09  0.132E-04    0.15      70.7  T
     SCC iter.                  ...        0 min,  0.116 sec
     gradient                   ...        0 min,  0.039 sec
 * total energy  :  -165.9587905 Eh     change       -0.3174887E-05 Eh
   gradient norm :     0.0001008 Eh/α   predicted    -0.1204808E-05 ( -62.05%)
   displ. norm   :     0.0449193 α      lambda       -0.1538192E-05
   maximum displ.:     0.0354417 α      in ANC's #1, #13, #12, ...

........................................................................
.............................. CYCLE  127 ..............................
........................................................................

 iter      E             dE          RMSdq      gap      omega  full diag
   1   -168.7533355 -0.168753E+03  0.267E-03    0.15       0.0  T
   2   -168.7533345  0.947400E-06  0.509E-03    0.15       1.8  T
   3   -168.7533351 -0.562361E-06  0.348E-03    0.15       2.7  T
   4   -168.7533354 -0.255700E-06  0.145E-03    0.15       6.5  T
   5   -168.7533354 -0.154294E-07  0.125E-03    0.15       7.5  T
   6   -168.7533355 -0.132154E-06  0.375E-04    0.15      25.0  T
   7   -168.7533355 -0.405038E-08  0.190E-04    0.15      49.3  T
     SCC iter.                  ...        0 min,  0.112 sec
     gradient                   ...        0 min,  0.036 sec
 * total energy  :  -165.9587927 Eh     change       -0.2128052E-05 Eh
   gradient norm :     0.0000911 Eh/α   predicted    -0.7707512E-06 ( -63.78%)
   displ. norm   :     0.0277430 α      lambda       -0.9856285E-06
   maximum displ.:     0.0232982 α      in ANC's #1, #12, #13, ...

........................................................................
.............................. CYCLE  128 ..............................
........................................................................

 iter      E             dE          RMSdq      gap      omega  full diag
   1   -168.7533556 -0.168753E+03  0.160E-03    0.15       0.0  T
   2   -168.7533549  0.630090E-06  0.410E-03    0.15       2.3  T
   3   -168.7533554 -0.450280E-06  0.230E-03    0.15       4.1  T
   4   -168.7533555 -0.142750E-06  0.102E-03    0.14       9.1  T
   5   -168.7533556 -0.416820E-07  0.264E-04    0.15      35.5  T
   6   -168.7533556 -0.683866E-08  0.679E-05    0.15     137.9  T
     SCC iter.                  ...        0 min,  0.102 sec
     gradient                   ...        0 min,  0.038 sec
 * total energy  :  -165.9587941 Eh     change       -0.1440424E-05 Eh
   gradient norm :     0.0000925 Eh/α   predicted    -0.4951233E-06 ( -65.63%)
   displ. norm   :     0.0198096 α      lambda       -0.8429802E-06
   maximum displ.:     0.0173232 α      in ANC's #1, #12, #40, ...

........................................................................
.............................. CYCLE  129 ..............................
........................................................................

 iter      E             dE          RMSdq      gap      omega  full diag
   1   -168.7533681 -0.168753E+03  0.109E-03    0.14       0.0  T
   2   -168.7533679  0.137550E-06  0.195E-03    0.14       4.8  T
   3   -168.7533679 -0.327267E-08  0.193E-03    0.14       4.8  T
   4   -168.7533681 -0.120479E-06  0.402E-04    0.14      23.3  T
   5   -168.7533681 -0.631573E-08  0.303E-04    0.14      30.9  T
     SCC iter.                  ...        0 min,  0.082 sec
     gradient                   ...        0 min,  0.035 sec
 * total energy  :  -165.9587953 Eh     change       -0.1237374E-05 Eh
   gradient norm :     0.0000983 Eh/α   predicted    -0.4225640E-06 ( -65.85%)
   displ. norm   :     0.0211027 α      lambda       -0.9888751E-06
   maximum displ.:     0.0177654 α      in ANC's #1, #13, #12, ...

........................................................................
.............................. CYCLE  130 ..............................
........................................................................

 iter      E             dE          RMSdq      gap      omega  full diag
   1   -168.7533742 -0.168753E+03  0.157E-03    0.14       0.0  T
   2   -168.7533730  0.113330E-05  0.540E-03    0.14       1.7  T
   3   -168.7533741 -0.106173E-05  0.168E-03    0.14       5.6  T
   4   -168.7533742 -0.810753E-07  0.469E-04    0.14      20.0  T
   5   -168.7533742  0.124303E-07  0.460E-04    0.14      20.3  T
     SCC iter.                  ...        0 min,  0.081 sec
     gradient                   ...        0 min,  0.038 sec
 * total energy  :  -165.9587968 Eh     change       -0.1459986E-05 Eh
   gradient norm :     0.0001044 Eh/α   predicted    -0.4983619E-06 ( -65.87%)
   displ. norm   :     0.0290133 α      lambda       -0.1381629E-05
   maximum displ.:     0.0232652 α      in ANC's #1, #13, #14, ...

........................................................................
.............................. CYCLE  131 ..............................
........................................................................

 iter      E             dE          RMSdq      gap      omega  full diag
   1   -168.7533651 -0.168753E+03  0.263E-03    0.14       0.0  T
   2   -168.7533601  0.498458E-05  0.112E-02    0.14       1.0  T
   3   -168.7533650 -0.485717E-05  0.252E-03    0.14       3.7  T
   4   -168.7533649  0.818053E-07  0.180E-03    0.14       5.2  T
   5   -168.7533652 -0.268656E-06  0.653E-04    0.14      14.4  T
   6   -168.7533652 -0.343920E-07  0.749E-05    0.14     125.1  T
     SCC iter.                  ...        0 min,  0.094 sec
     gradient                   ...        0 min,  0.036 sec
 * total energy  :  -165.9587988 Eh     change       -0.2021280E-05 Eh
   gradient norm :     0.0000900 Eh/α   predicted    -0.6913069E-06 ( -65.80%)
   displ. norm   :     0.0400733 α      lambda       -0.1810494E-05
   maximum displ.:     0.0312817 α      in ANC's #1, #13, #39, ...

........................................................................
.............................. CYCLE  132 ..............................
........................................................................

 iter      E             dE          RMSdq      gap      omega  full diag
   1   -168.7533667 -0.168753E+03  0.388E-03    0.14       0.0  T
   2   -168.7533551  0.115835E-04  0.172E-02    0.14       1.0  T
   3   -168.7533664 -0.113179E-04  0.373E-03    0.14       2.5  T
   4   -168.7533667 -0.307511E-06  0.145E-03    0.14       6.5  T
   5   -168.7533667  0.788828E-07  0.143E-03    0.14       6.5  T
   6   -168.7533669 -0.223361E-06  0.189E-04    0.14      49.5  T
   7   -168.7533669 -0.503093E-09  0.140E-04    0.14      66.7  T
     SCC iter.                  ...        0 min,  0.113 sec
     gradient                   ...        0 min,  0.035 sec
 * total energy  :  -165.9588014 Eh     change       -0.2577233E-05 Eh
   gradient norm :     0.0000898 Eh/α   predicted    -0.9063404E-06 ( -64.83%)
   displ. norm   :     0.0485325 α      lambda       -0.2010911E-05
   maximum displ.:     0.0377028 α      in ANC's #1, #13, #39, ...

........................................................................
.............................. CYCLE  133 ..............................
........................................................................

 iter      E             dE          RMSdq      gap      omega  full diag
   1   -168.7533617 -0.168753E+03  0.463E-03    0.14       0.0  T
   2   -168.7533466  0.151184E-04  0.197E-02    0.14       1.0  T
   3   -168.7533613 -0.147441E-04  0.441E-03    0.14       2.1  T
   4   -168.7533617 -0.416232E-06  0.174E-03    0.14       5.4  T
   5   -168.7533616  0.127847E-06  0.179E-03    0.14       5.2  T
   6   -168.7533619 -0.333868E-06  0.169E-04    0.14      55.6  T
   7   -168.7533619 -0.798337E-09  0.979E-05    0.14      95.7  T
     SCC iter.                  ...        0 min,  0.113 sec
     gradient                   ...        0 min,  0.035 sec
 * total energy  :  -165.9588042 Eh     change       -0.2829332E-05 Eh
   gradient norm :     0.0000876 Eh/α   predicted    -0.1006793E-05 ( -64.42%)
   displ. norm   :     0.0473361 α      lambda       -0.1802025E-05
   maximum displ.:     0.0373018 α      in ANC's #1, #13, #52, ...

........................................................................
.............................. CYCLE  134 ..............................
........................................................................

 iter      E             dE          RMSdq      gap      omega  full diag
   1   -168.7533592 -0.168753E+03  0.454E-03    0.14       0.0  T
   2   -168.7533435  0.156517E-04  0.200E-02    0.14       1.0  T
   3   -168.7533587 -0.152210E-04  0.454E-03    0.14       2.1  T
   4   -168.7533592 -0.503205E-06  0.168E-03    0.14       5.6  T
   5   -168.7533591  0.143627E-06  0.178E-03    0.14       5.3  T
   6   -168.7533594 -0.322485E-06  0.244E-04    0.14      38.4  T
   7   -168.7533594 -0.150106E-08  0.133E-04    0.14      70.4  T
     SCC iter.                  ...        0 min,  0.113 sec
     gradient                   ...        0 min,  0.036 sec
 * total energy  :  -165.9588068 Eh     change       -0.2532323E-05 Eh
   gradient norm :     0.0000926 Eh/α   predicted    -0.9044576E-06 ( -64.28%)
   displ. norm   :     0.0392356 α      lambda       -0.1427708E-05
   maximum displ.:     0.0317727 α      in ANC's #1, #13, #52, ...

........................................................................
.............................. CYCLE  135 ..............................
........................................................................

 iter      E             dE          RMSdq      gap      omega  full diag
   1   -168.7533629 -0.168753E+03  0.351E-03    0.14       0.0  T
   2   -168.7533550  0.795008E-05  0.143E-02    0.14       1.0  T
   3   -168.7533626 -0.767366E-05  0.354E-03    0.14       2.6  T
   4   -168.7533629 -0.291978E-06  0.132E-03    0.14       7.1  T
   5   -168.7533628  0.845876E-07  0.139E-03    0.14       6.7  T
   6   -168.7533630 -0.198537E-06  0.207E-04    0.14      45.3  T
   7   -168.7533630 -0.148341E-08  0.763E-05    0.14     122.7  T
     SCC iter.                  ...        0 min,  0.116 sec
     gradient                   ...        0 min,  0.035 sec
 * total energy  :  -165.9588088 Eh     change       -0.2052812E-05 Eh
   gradient norm :     0.0000967 Eh/α   predicted    -0.7156370E-06 ( -65.14%)
   displ. norm   :     0.0298856 α      lambda       -0.1129055E-05
   maximum displ.:     0.0249518 α      in ANC's #1, #13, #52, ...

........................................................................
.............................. CYCLE  136 ..............................
........................................................................

 iter      E             dE          RMSdq      gap      omega  full diag
   1   -168.7533695 -0.168753E+03  0.250E-03    0.14       0.0  T
   2   -168.7533654  0.402128E-05  0.101E-02    0.14       1.0  T
   3   -168.7533692 -0.380179E-05  0.288E-03    0.14       3.3  T
   4   -168.7533694 -0.208333E-06  0.105E-03    0.14       8.9  T
   5   -168.7533694  0.274154E-07  0.103E-03    0.14       9.1  T
   6   -168.7533695 -0.102835E-06  0.238E-04    0.14      39.4  T
   7   -168.7533695 -0.179887E-08  0.117E-04    0.14      79.8  T
     SCC iter.                  ...        0 min,  0.112 sec
     gradient                   ...        0 min,  0.036 sec
 * total energy  :  -165.9588105 Eh     change       -0.1653028E-05 Eh
   gradient norm :     0.0000986 Eh/α   predicted    -0.5651040E-06 ( -65.81%)
   displ. norm   :     0.0253645 α      lambda       -0.1039738E-05
   maximum displ.:     0.0216653 α      in ANC's #1, #13, #52, ...

........................................................................
.............................. CYCLE  137 ..............................
........................................................................

 iter      E             dE          RMSdq      gap      omega  full diag
   1   -168.7533815 -0.168753E+03  0.178E-03    0.14       0.0  T
   2   -168.7533806  0.983330E-06  0.506E-03    0.14       1.9  T
   3   -168.7533814 -0.807184E-06  0.237E-03    0.14       3.9  T
   4   -168.7533815 -0.144585E-06  0.794E-04    0.14      11.8  T
   5   -168.7533815 -0.486233E-08  0.675E-04    0.14      13.9  T
     SCC iter.                  ...        0 min,  0.085 sec
     gradient                   ...        0 min,  0.037 sec
 * total energy  :  -165.9588120 Eh     change       -0.1502725E-05 Eh
   gradient norm :     0.0000958 Eh/α   predicted    -0.5229259E-06 ( -65.20%)
   displ. norm   :     0.0251604 α      lambda       -0.1115935E-05
   maximum displ.:     0.0214067 α      in ANC's #1, #52, #29, ...

........................................................................
.............................. CYCLE  138 ..............................
........................................................................

 iter      E             dE          RMSdq      gap      omega  full diag
   1   -168.7533889 -0.168753E+03  0.151E-03    0.15       0.0  T
   2   -168.7533888  0.628562E-07  0.150E-03    0.15       6.3  T
   3   -168.7533881  0.727032E-06  0.448E-03    0.15       2.1  T
   4   -168.7533888 -0.701929E-06  0.110E-03    0.15       8.5  T
   5   -168.7533889 -0.727836E-07  0.485E-04    0.15      19.3  T
   6   -168.7533889 -0.177381E-07  0.168E-04    0.15      55.7  T
     SCC iter.                  ...        0 min,  0.101 sec
     gradient                   ...        0 min,  0.039 sec
 * total energy  :  -165.9588137 Eh     change       -0.1702857E-05 Eh
   gradient norm :     0.0000994 Eh/α   predicted    -0.5600230E-06 ( -67.11%)
   displ. norm   :     0.0302498 α      lambda       -0.1399358E-05
   maximum displ.:     0.0251239 α      in ANC's #1, #52, #29, ...

........................................................................
.............................. CYCLE  139 ..............................
........................................................................

 iter      E             dE          RMSdq      gap      omega  full diag
   1   -168.7533894 -0.168753E+03  0.178E-03    0.15       0.0  T
   2   -168.7533893  0.693082E-07  0.163E-03    0.15       5.7  T
   3   -168.7533882  0.112958E-05  0.551E-03    0.15       1.7  T
   4   -168.7533892 -0.101118E-05  0.151E-03    0.15       6.2  T
   5   -168.7533894 -0.175127E-06  0.570E-04    0.15      16.4  T
   6   -168.7533894 -0.140129E-07  0.239E-04    0.15      39.1  T
     SCC iter.                  ...        0 min,  0.102 sec
     gradient                   ...        0 min,  0.036 sec
 * total energy  :  -165.9588157 Eh     change       -0.2054107E-05 Eh
   gradient norm :     0.0000948 Eh/α   predicted    -0.7036687E-06 ( -65.74%)
   displ. norm   :     0.0407326 α      lambda       -0.1862658E-05
   maximum displ.:     0.0330543 α      in ANC's #1, #52, #29, ...

........................................................................
.............................. CYCLE  140 ..............................
........................................................................

 iter      E             dE          RMSdq      gap      omega  full diag
   1   -168.7533845 -0.168753E+03  0.244E-03    0.15       0.0  T
   2   -168.7533842  0.333188E-06  0.326E-03    0.15       2.9  T
   3   -168.7533834  0.757219E-06  0.535E-03    0.15       1.7  T
   4   -168.7533844 -0.976103E-06  0.102E-03    0.15       9.2  T
   5   -168.7533845 -0.931308E-07  0.443E-04    0.15      21.2  T
   6   -168.7533845 -0.257220E-07  0.297E-04    0.15      31.6  T
     SCC iter.                  ...        0 min,  0.101 sec
     gradient                   ...        0 min,  0.036 sec
 * total energy  :  -165.9588184 Eh     change       -0.2718746E-05 Eh
   gradient norm :     0.0000944 Eh/α   predicted    -0.9325860E-06 ( -65.70%)
   displ. norm   :     0.0533522 α      lambda       -0.2350996E-05
   maximum displ.:     0.0427260 α      in ANC's #1, #52, #29, ...

........................................................................
.............................. CYCLE  141 ..............................
........................................................................

 iter      E             dE          RMSdq      gap      omega  full diag
   1   -168.7533738 -0.168753E+03  0.321E-03    0.15       0.0  T
   2   -168.7533733  0.466136E-06  0.394E-03    0.15       2.4  T
   3   -168.7533716  0.169346E-05  0.751E-03    0.15       1.2  T
   4   -168.7533737 -0.208102E-05  0.937E-04    0.15      10.0  T
   5   -168.7533737  0.827262E-08  0.871E-04    0.15      10.8  T
   6   -168.7533738 -0.958572E-07  0.349E-04    0.15      26.8  T
     SCC iter.                  ...        0 min,  0.099 sec
     gradient                   ...        0 min,  0.038 sec
 * total energy  :  -165.9588218 Eh     change       -0.3401252E-05 Eh
   gradient norm :     0.0001051 Eh/α   predicted    -0.1177673E-05 ( -65.38%)
   displ. norm   :     0.0643117 α      lambda       -0.2686222E-05
   maximum displ.:     0.0513094 α      in ANC's #1, #52, #29, ...

........................................................................
.............................. CYCLE  142 ..............................
........................................................................

 iter      E             dE          RMSdq      gap      omega  full diag
   1   -168.7533635 -0.168753E+03  0.398E-03    0.15       0.0  T
   2   -168.7533617  0.181367E-05  0.721E-03    0.15       1.3  T
   3   -168.7533619 -0.194396E-06  0.670E-03    0.15       1.4  T
   4   -168.7533633 -0.146388E-05  0.162E-03    0.15       5.8  T
   5   -168.7533634 -0.937283E-07  0.773E-04    0.15      12.1  T
   6   -168.7533635 -0.944175E-07  0.335E-04    0.15      27.9  T
     SCC iter.                  ...        0 min,  0.097 sec
     gradient                   ...        0 min,  0.036 sec
 * total energy  :  -165.9588257 Eh     change       -0.3856555E-05 Eh
   gradient norm :     0.0001202 Eh/α   predicted    -0.1346099E-05 ( -65.10%)
   displ. norm   :     0.0688562 α      lambda       -0.2731483E-05
   maximum displ.:     0.0550570 α      in ANC's #1, #52, #29, ...

........................................................................
.............................. CYCLE  143 ..............................
........................................................................

 iter      E             dE          RMSdq      gap      omega  full diag
   1   -168.7533470 -0.168753E+03  0.419E-03    0.15       0.0  T
   2   -168.7533462  0.815863E-06  0.518E-03    0.15       1.8  T
   3   -168.7533434  0.286220E-05  0.980E-03    0.15       1.0  T
   4   -168.7533468 -0.348574E-05  0.153E-03    0.15       6.1  T
   5   -168.7533469 -0.635032E-07  0.130E-03    0.15       7.2  T
   6   -168.7533471 -0.146099E-06  0.447E-04    0.15      20.9  T
   7   -168.7533471 -0.662533E-08  0.179E-04    0.15      52.3  T
     SCC iter.                  ...        0 min,  0.118 sec
     gradient                   ...        0 min,  0.037 sec
 * total energy  :  -165.9588296 Eh     change       -0.3890539E-05 Eh
   gradient norm :     0.0001377 Eh/α   predicted    -0.1371923E-05 ( -64.74%)
   displ. norm   :     0.0687966 α      lambda       -0.2603187E-05
   maximum displ.:     0.0554593 α      in ANC's #1, #52, #29, ...

........................................................................
.............................. CYCLE  144 ..............................
........................................................................

 iter      E             dE          RMSdq      gap      omega  full diag
   1   -168.7533503 -0.168753E+03  0.420E-03    0.15       0.0  T
   2   -168.7533490  0.128312E-05  0.626E-03    0.15       1.5  T
   3   -168.7533476  0.139895E-05  0.845E-03    0.15       1.1  T
   4   -168.7533501 -0.250000E-05  0.177E-03    0.15       5.3  T
   5   -168.7533503 -0.129238E-06  0.865E-04    0.15      10.8  T
   6   -168.7533503 -0.807136E-07  0.271E-04    0.15      34.6  T
     SCC iter.                  ...        0 min,  0.103 sec
     gradient                   ...        0 min,  0.037 sec
 * total energy  :  -165.9588333 Eh     change       -0.3719645E-05 Eh
   gradient norm :     0.0001355 Eh/α   predicted    -0.1306541E-05 ( -64.87%)
   displ. norm   :     0.0642453 α      lambda       -0.2356921E-05
   maximum displ.:     0.0523461 α      in ANC's #1, #52, #29, ...

........................................................................
.............................. CYCLE  145 ..............................
........................................................................

 iter      E             dE          RMSdq      gap      omega  full diag
   1   -168.7533487 -0.168753E+03  0.386E-03    0.15       0.0  T
   2   -168.7533484  0.356263E-06  0.378E-03    0.15       2.5  T
   3   -168.7533435  0.484962E-05  0.115E-02    0.15       1.0  T
   4   -168.7533485 -0.501771E-05  0.146E-03    0.15       6.4  T
   5   -168.7533487 -0.128795E-06  0.930E-04    0.15      10.1  T
   6   -168.7533487 -0.705066E-07  0.327E-04    0.15      28.7  T
     SCC iter.                  ...        0 min,  0.102 sec
     gradient                   ...        0 min,  0.038 sec
 * total energy  :  -165.9588367 Eh     change       -0.3410512E-05 Eh
   gradient norm :     0.0001391 Eh/α   predicted    -0.1182337E-05 ( -65.33%)
   displ. norm   :     0.0573414 α      lambda       -0.2112954E-05
   maximum displ.:     0.0473932 α      in ANC's #1, #52, #29, ...

........................................................................
.............................. CYCLE  146 ..............................
........................................................................

 iter      E             dE          RMSdq      gap      omega  full diag
   1   -168.7533696 -0.168753E+03  0.339E-03    0.15       0.0  T
   2   -168.7533694  0.215009E-06  0.310E-03    0.15       3.0  T
   3   -168.7533650  0.437445E-05  0.108E-02    0.15       1.0  T
   4   -168.7533695 -0.450167E-05  0.838E-04    0.15      11.2  T
   5   -168.7533696 -0.701854E-07  0.375E-04    0.15      25.0  T
   6   -168.7533696 -0.256700E-07  0.182E-04    0.15      51.4  T
     SCC iter.                  ...        0 min,  0.100 sec
     gradient                   ...        0 min,  0.037 sec
 * total energy  :  -165.9588398 Eh     change       -0.3095295E-05 Eh
   gradient norm :     0.0001155 Eh/α   predicted    -0.1059457E-05 ( -65.77%)
   displ. norm   :     0.0519531 α      lambda       -0.1961913E-05
   maximum displ.:     0.0433229 α      in ANC's #1, #52, #39, ...

........................................................................
.............................. CYCLE  147 ..............................
........................................................................

 iter      E             dE          RMSdq      gap      omega  full diag
   1   -168.7533822 -0.168753E+03  0.307E-03    0.15       0.0  T
   2   -168.7533822  0.472176E-07  0.213E-03    0.15       4.4  T
   3   -168.7533768  0.538783E-05  0.116E-02    0.15       1.0  T
   4   -168.7533822 -0.539064E-05  0.832E-04    0.15      11.3  T
   5   -168.7533822 -0.364985E-07  0.459E-04    0.15      20.4  T
   6   -168.7533823 -0.100664E-07  0.254E-04    0.15      36.9  T
     SCC iter.                  ...        0 min,  0.104 sec
     gradient                   ...        0 min,  0.038 sec
 * total energy  :  -165.9588427 Eh     change       -0.2888224E-05 Eh
   gradient norm :     0.0001088 Eh/α   predicted    -0.9838846E-06 ( -65.93%)
   displ. norm   :     0.0509875 α      lambda       -0.1991747E-05
   maximum displ.:     0.0427148 α      in ANC's #1, #39, #52, ...

........................................................................
.............................. CYCLE  148 ..............................
........................................................................

 iter      E             dE          RMSdq      gap      omega  full diag
   1   -168.7533934 -0.168753E+03  0.309E-03    0.15       0.0  T
   2   -168.7533929  0.543767E-06  0.411E-03    0.15       2.3  T
   3   -168.7533915  0.137975E-05  0.711E-03    0.15       1.3  T
   4   -168.7533933 -0.179610E-05  0.135E-03    0.15       7.0  T
   5   -168.7533934 -0.119695E-06  0.623E-04    0.15      15.0  T
   6   -168.7533934 -0.176817E-07  0.226E-04    0.15      41.5  T
     SCC iter.                  ...        0 min,  0.102 sec
     gradient                   ...        0 min,  0.037 sec
 * total energy  :  -165.9588456 Eh     change       -0.2944512E-05 Eh
   gradient norm :     0.0000983 Eh/α   predicted    -0.9978891E-06 ( -66.11%)
   displ. norm   :     0.0551328 α      lambda       -0.2212783E-05
   maximum displ.:     0.0459991 α      in ANC's #1, #39, #52, ...

........................................................................
.............................. CYCLE  149 ..............................
........................................................................

 iter      E             dE          RMSdq      gap      omega  full diag
   1   -168.7533986 -0.168753E+03  0.347E-03    0.15       0.0  T
   2   -168.7533971  0.146128E-05  0.637E-03    0.15       1.5  T
   3   -168.7533973 -0.161890E-06  0.603E-03    0.15       1.6  T
   4   -168.7533984 -0.113824E-05  0.145E-03    0.14       6.5  T
   5   -168.7533986 -0.148102E-06  0.714E-04    0.15      13.1  T
   6   -168.7533986 -0.384033E-07  0.222E-04    0.15      42.3  T
     SCC iter.                  ...        0 min,  0.104 sec
     gradient                   ...        0 min,  0.038 sec
 * total energy  :  -165.9588489 Eh     change       -0.3256673E-05 Eh
   gradient norm :     0.0001034 Eh/α   predicted    -0.1109184E-05 ( -65.94%)
   displ. norm   :     0.0649017 α      lambda       -0.2648202E-05
   maximum displ.:     0.0539178 α      in ANC's #1, #39, #52, ...

........................................................................
.............................. CYCLE  150 ..............................
........................................................................

 iter      E             dE          RMSdq      gap      omega  full diag
   1   -168.7533971 -0.168753E+03  0.434E-03    0.14       0.0  T
   2   -168.7533928  0.437038E-05  0.108E-02    0.14       1.0  T
   3   -168.7533958 -0.299988E-05  0.639E-03    0.14       1.5  T
   4   -168.7533968 -0.104426E-05  0.241E-03    0.14       3.9  T
   5   -168.7533971 -0.262809E-06  0.137E-03    0.14       6.9  T
   6   -168.7533972 -0.134135E-06  0.312E-04    0.14      30.0  T
   7   -168.7533972 -0.274244E-08  0.121E-04    0.14      77.4  T
     SCC iter.                  ...        0 min,  0.118 sec
     gradient                   ...        0 min,  0.035 sec
 * total energy  :  -165.9588528 Eh     change       -0.3871969E-05 Eh
   gradient norm :     0.0001102 Eh/α   predicted    -0.1331002E-05 ( -65.62%)
   displ. norm   :     0.0810899 α      lambda       -0.3272732E-05
   maximum displ.:     0.0670754 α      in ANC's #1, #39, #52, ...
 * RMSD in coord.:     0.1132454 α      energy gain  -0.7853580E-04 Eh

generating ANC from exact Hessian ...
Using Lindh-Hessian (1995)
 Shifting diagonal of input Hessian by    9.9559701639751110E-003
 Lowest  eigenvalues of input Hessian
    0.000000    0.000000    0.000000    0.000000    0.000000    0.000000
    0.010000    0.010076    0.010187    0.010193    0.010201    0.010224
    0.010264    0.010269    0.010486    0.010499    0.010706    0.010734
 Highest eigenvalues
    2.049716    2.051461    2.075572    2.082303    2.082676    2.095392


........................................................................
.............................. CYCLE  151 ..............................
........................................................................

 iter      E             dE          RMSdq      gap      omega  full diag
   1   -168.7533833 -0.168753E+03  0.553E-03    0.14       0.0  T
   2   -168.7533745  0.882528E-05  0.152E-02    0.14       1.0  T
   3   -168.7533817 -0.716903E-05  0.727E-03    0.14       1.3  T
   4   -168.7533829 -0.124099E-05  0.264E-03    0.14       3.5  T
   5   -168.7533832 -0.314946E-06  0.167E-03    0.14       5.6  T
   6   -168.7533835 -0.244585E-06  0.345E-04    0.14      27.1  T
   7   -168.7533835 -0.347498E-08  0.954E-05    0.14      98.2  T
     SCC iter.                  ...        0 min,  0.121 sec
     gradient                   ...        0 min,  0.037 sec
 * total energy  :  -165.9588576 Eh     change       -0.4781630E-05 Eh
   gradient norm :     0.0001475 Eh/α   predicted     0.0000000E+00 (-100.00%)
   displ. norm   :     0.0104295 α      lambda       -0.3108370E-07
   maximum displ.:     0.0094779 α      in ANC's #1, #14, #13, ...

........................................................................
.............................. CYCLE  152 ..............................
........................................................................

 iter      E             dE          RMSdq      gap      omega  full diag
   1   -168.7534602 -0.168753E+03  0.731E-04    0.15       0.0  T
   2   -168.7534600  0.172848E-06  0.212E-03    0.15       4.4  T
   3   -168.7534601 -0.130649E-06  0.113E-03    0.15       8.3  T
   4   -168.7534602 -0.314014E-07  0.382E-04    0.15      24.5  T
   5   -168.7534602 -0.615151E-08  0.300E-04    0.15      31.3  T
     SCC iter.                  ...        0 min,  0.083 sec
     gradient                   ...        0 min,  0.037 sec
 * total energy  :  -165.9588583 Eh     change       -0.7611660E-06 Eh
   gradient norm :     0.0000913 Eh/α   predicted    -0.2703270E-06 ( -64.49%)
   displ. norm   :     0.0178775 α      lambda       -0.7955776E-06
   maximum displ.:     0.0143894 α      in ANC's #1, #14, #13, ...

   *** GEOMETRY OPTIMIZATION CONVERGED AFTER 152 ITERATIONS ***

------------------------------------------------------------------------
 total energy gain   :        -0.1913637 Eh     -120.0825 kcal/mol
 total RMSD          :         1.4695318 a0        0.7776 Å
 total power (kW/mol):        -3.3054298 (step)  -18.5852 (real)
------------------------------------------------------------------------

 ANCopt (total)                0 d,  0 h,  0 min, 27.034 sec
 optimizer setup                ...        0 min,  0.000 sec (  0.001%)
 model hessian                  ...        0 min,  0.180 sec (  0.666%)
 ANC generation                 ...        0 min,  0.090 sec (  0.331%)
 coordinate transformation      ...        0 min,  0.006 sec (  0.021%)
 single point calculation       ...        0 min, 26.696 sec ( 98.752%)
 optimization log               ...        0 min,  0.024 sec (  0.087%)
 hessian update                 ...        0 min,  0.008 sec (  0.030%)
 rational function              ...        0 min,  0.023 sec (  0.084%)

================
 final structure:
================
114
 xtb: 6.7.1 (edcfbbe)
N            2.05481810789716        0.03459890855487       -0.16509137964181
N            0.07266273995710       -2.02774674481381       -0.19135019101319
C            2.38155771876628        2.46255506358484       -0.27135684431417
C            2.83581351175242        1.15258961150519       -0.21360198708926
C            4.22084910530569        0.77814803091215       -0.14541738960437
H            5.03985667280772        1.47114522708887       -0.16945719106977
C            4.26027556298902       -0.57195375119437       -0.02823969086355
H            5.11811662925943       -1.21027314342032        0.06197962715662
C            2.90057295712639       -1.03361814240253       -0.05229465355281
C            2.52024566382768       -2.36510572768773       -0.01157964621888
C            1.18465796017995       -2.81912951629099       -0.14589515363609
C            0.82585591994216       -4.17499389949882       -0.31170959127952
H            1.51039202909276       -5.00080251673014       -0.32015692238813
C           -0.54171194287241       -4.20474221490410       -0.46914258742996
H           -1.16985046814180       -5.05963668544763       -0.62803962963951
C           -0.98996882544208       -2.86716680289858       -0.38079173656999
C            3.57075464655748       -3.39449974984646        0.15661561094178
C            3.83053726810706       -3.89089366054340        1.43667158811145
C            4.81716960246789       -4.84955201969125        1.59750674732153
C            5.54645288960125       -5.32843347340793        0.51676092271242
C            5.26830160017552       -4.82795126535141       -0.74580242947630
C            4.28895274764924       -3.86507685196247       -0.94216367840904
N           -2.02715673706964       -0.06248216642053       -0.22503299765000
N           -0.04616707076915        1.99784879606647       -0.10579377831204
C           -2.34924808112192       -2.48353929199349       -0.44344425145209
C           -2.80575544415604       -1.17702051807701       -0.34271318786744
C           -4.19239444957710       -0.80511554947814       -0.29737424347802
H           -5.00992693825467       -1.49605884658316       -0.37376746368638
C           -4.23596455775187        0.53881132377066       -0.12421215234428
H           -5.09643119619175        1.17311398937132       -0.03072067077473
C           -2.87642321249256        1.00040624802489       -0.09068916679076
C           -2.49822442601824        2.32873723959400        0.01767926494297
C           -1.15952966127816        2.78718771924320       -0.05819203286553
C           -0.79704912848902        4.14869311517996       -0.15588552838353
H           -1.48156295557195        4.97453460248423       -0.14837625728388
C            0.57438092024257        4.18433447867413       -0.27333380735241
H            1.20615622535414        5.04491064010188       -0.37781672424908
C            1.02085381506459        2.84396146364225       -0.22947699376544
C           -3.55383718157013        3.35097710362203        0.19675525758570
C           -3.84659368463430        3.80143156048533        1.48546073153868
C           -4.83724181727432        4.75638737203477        1.65547331758117
C           -5.53634021908017        5.27467791463536        0.57520463019293
C           -5.22570791542552        4.81792514299051       -0.69828774286587
C           -4.24355625637273        3.86186547300165       -0.90374353570825
Fe           0.00859695854186       -0.02202102418491        0.17935161958982
C           -3.35324864818321       -3.56367141931969       -0.58347344078302
C           -3.80549266947853       -4.24338342010957        0.54998484098374
C           -3.84159971499408       -3.89640622837648       -1.84682278811138
C           -4.74558672321919       -5.24950410403167        0.39924524533328
C           -4.78066044299953       -4.91082398744193       -1.96260608080737
H           -5.10046570978315       -5.77704590321122        1.27362447091659
C           -5.24337660589866       -5.59648933749313       -0.85024418350426
H           -5.15654125585595       -5.17058805406303       -2.94248216905080
C            3.38840476184554        3.54682251519337       -0.34086847918038
C            3.80731089785621        4.18349981029597        0.82778759376089
C            3.91361950771973        3.92549917038216       -1.57814826619337
C            4.75280559141242        5.19511180729162        0.74200016982567
C            4.85411566561317        4.94101741367858       -1.62851668527654
H            5.07977747413229        5.68697283839052        1.64747326323389
C            5.28561468444528        5.58611407528919       -0.47671355214430
H            5.26093985659562        5.23903947117813       -2.58488626237502
H            5.02463524379848       -5.23404390261194        2.58637352884380
H            5.82363635630758       -5.19495945292447       -1.59778712077295
H           -5.06731433278122        5.10441245556185        2.65278570886785
H           -5.75913455648142        5.21847220791722       -1.54916346418875
C            3.23979461491202        3.76827434083983        2.15093740438815
C            3.45135618239365        3.23831166680962       -2.82797822915929
C           -3.27513249791852       -3.87685327302490        1.90259073212199
C           -3.34552657227188       -3.16376272505028       -3.05726786796475
C           -3.09379668581291        3.25145927279432        2.65834661977073
C           -3.90866231884554        3.38518721248399       -2.28540989720850
C            3.04672422927829       -3.38246693820126        2.60797527569814
C            3.99180483121964       -3.33769305091626       -2.31400361077900
H           -3.62503241527615       -2.11168732644145       -3.00515401991242
H           -3.76351834567907       -3.59062807583961       -3.96559135157398
H           -2.25863695153817       -3.21303099181085       -3.11185011375142
H           -2.20568267470047       -4.07849967097139        1.95745107895253
H           -3.77747898551813       -4.44435329835436        2.68189611822365
H           -3.41563990787932       -2.81369503625097        2.09389344940721
H            3.90454359915114        3.68973753976750       -3.70707390947314
H            2.36750926902283        3.30268064392923       -2.91730650649680
H            3.71711672946350        2.18181280424184       -2.80121680897347
H            3.71910039023380        4.30756568234567        2.96405754892093
H            3.37661942041010        2.69899591258765        2.30778376513839
H            2.16890861363778        3.96718797290574        2.18304782319962
H           -4.47189200561477        3.93973861193646       -3.03187829513962
H           -4.14050354086765        2.32553386668753       -2.38971026691894
H           -2.84438664943198        3.50988472037508       -2.48165637431369
H            3.10828593000210       -2.29672610886574        2.67094041630419
H            3.41633370048776       -3.81041493176057        3.53638370251927
H            1.99348367756288       -3.64028933410872        2.49964091637496
H            2.93222698227033       -3.44843644319000       -2.54142216346588
H            4.57078523117780       -3.86885491036065       -3.06542211333208
H            4.23217054206003       -2.27648190974092       -2.37450021600100
H           -3.48689534606928        3.64762264972911        3.59121138949159
H           -2.03783516940364        3.51083862118773        2.58636867987239
H           -3.15813755457409        2.16429499959187        2.68200654213002
C           -6.61934541521402        6.29124971073371        0.77634176465622
C            6.60367158158571       -6.37048793477547        0.72501289458747
C            6.30005454195826        6.68611237097374       -0.56537383734151
C           -6.26092529865798       -6.68972230598793       -0.97823779518589
H            6.61145542855005        7.01024359299694        0.42428634063103
H            5.88175589316561        7.54268115104559       -1.09364869061812
H            7.17776717295977        6.35248693362373       -1.11687896864371
H           -6.51973696797253       -6.86183168482094       -2.01987587373714
H           -7.16779393540646       -6.42832551590386       -0.43385744429203
H           -5.87679311257142       -7.61763654828801       -0.55655907489866
H            7.12927098317626       -6.58433728910047       -0.20215089957788
H            6.15622243233233       -7.29438762214450        1.09053030238514
H            7.32675029692584       -6.03588383198171        1.46750650619641
H           -6.47954695282559        6.82824899482822        1.71135890621431
H           -7.59143676096592        5.79807160613349        0.81107534445802
H           -6.63635038437256        7.00650216962724       -0.04311253053472
Cl          -0.02210908017415       -0.06907465411096        2.32801397042913

 Bond Distances (Angstroems)
 ---------------------------
N1-C4=1.3646         N1-C9=1.3672         N1-Fe45=2.0758       N2-C11=1.3656        N2-C16=1.3674        N2-Fe45=2.0407       
C3-C4=1.3877         C3-C38=1.4138        C3-C54=1.4813        C4-N1=1.3646         C4-C3=1.3877         C4-C5=1.4364         
C5-C4=1.4364         C5-H6=1.0731         C5-C7=1.3558         H6-C5=1.0731         C7-C5=1.3558         C7-H8=1.0731         
C7-C9=1.4361         H8-C7=1.0731         C9-N1=1.3672         C9-C7=1.4361         C9-C10=1.3853        C10-C9=1.3853        
C10-C11=1.4170       C10-C17=1.4804       C11-N2=1.3656        C11-C10=1.4170       C11-C12=1.4123       C12-C11=1.4123       
C12-H13=1.0727       C12-C14=1.3769       H13-C12=1.0727       C14-C12=1.3769       C14-H15=1.0727       C14-C16=1.4135       
H15-C14=1.0727       C16-N2=1.3674        C16-C14=1.4135       C16-C25=1.4138       C17-C10=1.4804       C17-C18=1.3973       
C17-C22=1.3945       C18-C17=1.3973       C18-C19=1.3850       C18-C72=1.4983       C19-C18=1.3850       C19-C20=1.3890       
C19-H62=1.0811       C20-C19=1.3890       C20-C21=1.3863       C20-C99=1.4990       C21-C20=1.3863       C21-C22=1.3874       
C21-H63=1.0812       C22-C17=1.3945       C22-C21=1.3874       C22-C73=1.4995       N23-C26=1.3646       N23-C31=1.3671       
N23-Fe45=2.0759      N24-C33=1.3656       N24-C38=1.3674       N24-Fe45=2.0406      C25-C16=1.4138       C25-C26=1.3876       
C25-C46=1.4813       C26-N23=1.3646       C26-C25=1.3876       C26-C27=1.4364       C27-C26=1.4364       C27-H28=1.0731       
C27-C29=1.3557       H28-C27=1.0731       C29-C27=1.3557       C29-H30=1.0731       C29-C31=1.4362       H30-C29=1.0731       
C31-N23=1.3671       C31-C29=1.4362       C31-C32=1.3854       C32-C31=1.3854       C32-C33=1.4171       C32-C39=1.4803       
C33-N24=1.3656       C33-C32=1.4171       C33-C34=1.4123       C34-C33=1.4123       C34-H35=1.0727       C34-C36=1.3769       
H35-C34=1.0727       C36-C34=1.3769       C36-H37=1.0727       C36-C38=1.4135       H37-C36=1.0727       C38-C3=1.4138        
C38-N24=1.3674       C38-C36=1.4135       C39-C32=1.4803       C39-C40=1.3962       C39-C44=1.3956       C40-C39=1.3962       
C40-C41=1.3864       C40-C70=1.4983       C41-C40=1.3864       C41-C42=1.3872       C41-H64=1.0811       C42-C41=1.3872       
C42-C43=1.3881       C42-C98=1.4989       C43-C42=1.3881       C43-C44=1.3860       C43-H65=1.0812       C44-C39=1.3956       
C44-C43=1.3860       C44-C71=1.4995       Fe45-N1=2.0758       Fe45-N2=2.0407       Fe45-N23=2.0759      Fe45-N24=2.0406      
Fe45-Cl114=2.1494    C46-C25=1.4813       C46-C47=1.3969       C46-C48=1.3947       C47-C46=1.3969       C47-C49=1.3852       
C47-C68=1.4984       C48-C46=1.3947       C48-C50=1.3872       C48-C69=1.4993       C49-C47=1.3852       C49-H51=1.0811       
C49-C52=1.3890       C50-C48=1.3872       C50-C52=1.3862       C50-H53=1.0812       H51-C49=1.0811       C52-C49=1.3890       
C52-C50=1.3862       C52-C101=1.4990      H53-C50=1.0812       C54-C3=1.4813        C54-C55=1.3952       C54-C56=1.3965       
C55-C54=1.3952       C55-C57=1.3873       C55-C66=1.4984       C56-C54=1.3965       C56-C58=1.3850       C56-C67=1.4993       
C57-C55=1.3873       C57-H59=1.0811       C57-C60=1.3864       C58-C56=1.3850       C58-C60=1.3889       C58-H61=1.0812       
H59-C57=1.0811       C60-C57=1.3864       C60-C58=1.3889       C60-C100=1.4990      H61-C58=1.0812       H62-C19=1.0811       
H63-C21=1.0812       H64-C41=1.0811       H65-C43=1.0812       C66-C55=1.4984       C66-H83=1.0871       C66-H84=1.0893       
C66-H85=1.0897       C67-C56=1.4993       C67-H80=1.0872       C67-H81=1.0894       C67-H82=1.0897       C68-C47=1.4984       
C68-H77=1.0897       C68-H78=1.0871       C68-H79=1.0893       C69-C48=1.4993       C69-H74=1.0898       C69-H75=1.0872       
C69-H76=1.0894       C70-C40=1.4983       C70-H95=1.0871       C70-H96=1.0897       C70-H97=1.0893       C71-C44=1.4995       
C71-H86=1.0872       C71-H87=1.0897       C71-H88=1.0894       C72-C18=1.4983       C72-H89=1.0893       C72-H90=1.0871       
C72-H91=1.0897       C73-C22=1.4995       C73-H92=1.0894       C73-H93=1.0872       C73-H94=1.0898       H74-C69=1.0898       
H75-C69=1.0872       H76-C69=1.0894       H77-C68=1.0897       H78-C68=1.0871       H79-C68=1.0893       H80-C67=1.0872       
H81-C67=1.0894       H82-C67=1.0897       H83-C66=1.0871       H84-C66=1.0893       H85-C66=1.0897       H86-C71=1.0872       
H87-C71=1.0897       H88-C71=1.0894       H89-C72=1.0893       H90-C72=1.0871       H91-C72=1.0897       H92-C73=1.0894       
H93-C73=1.0872       H94-C73=1.0898       H95-C70=1.0871       H96-C70=1.0897       H97-C70=1.0893       C98-C42=1.4989       
C98-H111=1.0873      C98-H112=1.0906      C98-H113=1.0878      C99-C20=1.4990       C99-H108=1.0870      C99-H109=1.0897      
C99-H110=1.0891      C100-C60=1.4990      C100-H102=1.0869     C100-H103=1.0898     C100-H104=1.0890     C101-C52=1.4990      
C101-H105=1.0870     C101-H106=1.0895     C101-H107=1.0892     H102-C100=1.0869     H103-C100=1.0898     H104-C100=1.0890     
H105-C101=1.0870     H106-C101=1.0895     H107-C101=1.0892     H108-C99=1.0870      H109-C99=1.0897      H110-C99=1.0891      
H111-C98=1.0873      H112-C98=1.0906      H113-C98=1.0878      Cl114-Fe45=2.1494    
 C  H  Rav=1.0851 sigma=0.0059  Rmin=1.0727  Rmax=1.0906    52
 C  C  Rav=1.4223 sigma=0.0464  Rmin=1.3557  Rmax=1.4995    60
 N  C  Rav=1.3662 sigma=0.0011  Rmin=1.3646  Rmax=1.3674     8
 Fe N  Rav=2.0583 sigma=0.0176  Rmin=2.0406  Rmax=2.0759     4
 Fe Cl Rav=2.1494 sigma=0.0000  Rmin=2.1494  Rmax=2.1494     1

 selected bond angles (degree)
 --------------------
C9-N1-C4=106.80                Fe45-N1-C4=126.33              Fe45-N1-C9=125.09              C16-N2-C11=106.36              
Fe45-N2-C11=126.09             Fe45-N2-C16=127.17             C38-C3-C4=124.65               C54-C3-C4=118.06               
C54-C3-C38=117.27              C3-C4-N1=125.98                C5-C4-N1=109.67                C5-C4-C3=124.31                
H6-C5-C4=124.51                C7-C5-C4=106.96                C7-C5-H6=128.52                H8-C7-C5=128.53                
C9-C7-C5=106.93                C9-C7-H8=124.55                C7-C9-N1=109.63                C10-C9-N1=125.70               
C10-C9-C7=124.64               C11-C10-C9=124.33              C17-C10-C9=118.48              C17-C10-C11=117.18             

 selected dihedral angles (degree)
 ---------------------------------
C3-C4-N1-C9=182.86            C3-C4-N1-Fe45=348.16          C5-C4-N1-C9=  0.71            C5-C4-N1-Fe45=166.01          
N1-C4-C3-C38=  2.93           N1-C4-C3-C54=180.99           C5-C4-C3-C38=185.38           C5-C4-C3-C54=  3.44           
H6-C5-C4-N1=179.71            H6-C5-C4-C3=357.60            C7-C5-C4-N1=358.78            C7-C5-C4-C3=176.68            
H8-C7-C5-C4=180.89            H8-C7-C5-H6=359.91            C9-C7-C5-C4=  1.18            C9-C7-C5-H6=180.21            
C7-C9-N1-C4=  0.03            C7-C9-N1-Fe45=194.50          C10-C9-N1-C4=182.03           C10-C9-N1-Fe45= 16.49         
N1-C9-C7-C5=359.20            N1-C9-C7-H8=179.49            C10-C9-C7-C5=177.23           C10-C9-C7-H8=357.52           
C11-C10-C9-N1=  3.14          C11-C10-C9-C7=185.42          C17-C10-C9-N1=181.89          C17-C10-C9-C7=  4.18          
           -------------------------------------------------
          |                Final Singlepoint                |
           -------------------------------------------------

          ...................................................
          :                      SETUP                      :
          :.................................................:
          :  # basis functions                 312          :
          :  # atomic orbitals                 310          :
          :  # shells                          178          :
          :  # electrons                       311          :
          :  max. iterations                   250          :
          :  Hamiltonian                  GFN2-xTB          :
          :  restarted?                      false          :
          :  GBSA solvation                  false          :
          :  PC potential                    false          :
          :  electronic temp.          300.0000000     K    :
          :  accuracy                    1.0000000          :
          :  -> integral cutoff          0.2500000E+02      :
          :  -> integral neglect         0.1000000E-07      :
          :  -> SCF convergence          0.1000000E-05 Eh   :
          :  -> wf. convergence          0.1000000E-03 e    :
          :  Broyden damping             0.4000000          :
          :  net charge                          0          :
          :  unpaired electrons                  5          :
          ...................................................

 iter      E             dE          RMSdq      gap      omega  full diag
   1   -168.7534602 -0.168753E+03  0.116E-04    0.15       0.0  T
   2   -168.7534602  0.328541E-07  0.904E-04    0.15      10.4  T
   3   -168.7534602 -0.331897E-07  0.559E-05    0.15     167.7  T

   *** convergence criteria satisfied after 3 iterations ***

         #    Occupation            Energy/Eh            Energy/eV
      -------------------------------------------------------------
         1        2.0000           -1.0315068             -28.0687
       ...           ...                  ...                  ...
       152        1.9944           -0.3646053              -9.9214
       153        1.7969           -0.3609800              -9.8228
       154        1.2087           -0.3584152              -9.7530
       155        1.0000           -0.3485514              -9.4846
       156        1.0000           -0.3479428              -9.4680
       157        1.0000           -0.3176605              -8.6440
       158        0.9430           -0.2952627              -8.0345 (HOMO)
       159        0.0570           -0.2899324              -7.8895 (LUMO)
       160                         -0.2688308              -7.3153
       161                         -0.2541709              -6.9163
       162                         -0.2160804              -5.8798
       163                         -0.2152800              -5.8581
       ...                                ...                  ...
       310                          1.0520603              28.6280
      -------------------------------------------------------------
                  HL-Gap            0.0053303 Eh            0.1450 eV
             Fermi-level           -0.3261395 Eh           -8.8747 eV

 SCC (total)                   0 d,  0 h,  0 min,  0.096 sec
 SCC setup                      ...        0 min,  0.000 sec (  0.244%)
 Dispersion                     ...        0 min,  0.001 sec (  1.001%)
 classical contributions        ...        0 min,  0.000 sec (  0.163%)
 integral evaluation            ...        0 min,  0.006 sec (  6.508%)
 iterations                     ...        0 min,  0.050 sec ( 52.316%)
 molecular gradient             ...        0 min,  0.036 sec ( 37.429%)
 printout                       ...        0 min,  0.002 sec (  2.325%)

         :::::::::::::::::::::::::::::::::::::::::::::::::::::
         ::                     SUMMARY                     ::
         :::::::::::::::::::::::::::::::::::::::::::::::::::::
         :: total energy            -165.958858324757 Eh    ::
         :: gradient norm              0.000091005537 Eh/a0 ::
         :: HOMO-LUMO gap              0.145044979615 eV    ::
         ::.................................................::
         :: SCC energy              -168.749988383346 Eh    ::
         :: -> isotropic ES            0.034689360383 Eh    ::
         :: -> anisotropic ES          0.020522448539 Eh    ::
         :: -> anisotropic XC          0.081145556512 Eh    ::
         :: -> dispersion             -0.166025801471 Eh    ::
         :: repulsion energy           2.791130058589 Eh    ::
         :: add. restraining           0.000000000000 Eh    ::
         :: total charge              -0.000000000010 e     ::
         :::::::::::::::::::::::::::::::::::::::::::::::::::::

           -------------------------------------------------
          |                Property Printout                |
           -------------------------------------------------

    * Orbital Energies and Occupations

         #    Occupation            Energy/Eh            Energy/eV
      -------------------------------------------------------------
         1        2.0000           -1.0315068             -28.0687
       ...           ...                  ...                  ...
       146        2.0000           -0.3864222             -10.5151
       147        2.0000           -0.3862502             -10.5104
       148        2.0000           -0.3833900             -10.4326
       149        2.0000           -0.3811307             -10.3711
       150        2.0000           -0.3806329             -10.3575
       151        2.0000           -0.3788213             -10.3083
       152        1.9944           -0.3646053              -9.9214
       153        1.7969           -0.3609800              -9.8228
       154        1.2087           -0.3584152              -9.7530
       155        1.0000           -0.3485514              -9.4846
       156        1.0000           -0.3479428              -9.4680
       157        1.0000           -0.3176605              -8.6440
       158        0.9430           -0.2952627              -8.0345 (HOMO)
       159        0.0570           -0.2899324              -7.8895 (LUMO)
       160                         -0.2688308              -7.3153
       161                         -0.2541709              -6.9163
       162                         -0.2160804              -5.8798
       163                         -0.2152800              -5.8581
       164                         -0.2147372              -5.8433
       165                         -0.2136454              -5.8136
       166                         -0.2123438              -5.7782
       167                         -0.2122328              -5.7751
       168                         -0.2119163              -5.7665
       169                         -0.2116747              -5.7600
       ...                                ...                  ...
       310                          1.0520603              28.6280
      -------------------------------------------------------------
                  HL-Gap            0.0053303 Eh            0.1450 eV
             Fermi-level           -0.3261395 Eh           -8.8747 eV

     #   Z          covCN         q      C6AA      α(0)
     1   7 N        2.596    -0.228    26.013     7.575
     2   7 N        2.626    -0.213    25.659     7.523
     3   6 C        2.960    -0.001    28.049     8.687
     4   6 C        3.128     0.073    26.182     8.378
     5   6 C        3.014    -0.049    29.189     8.862
     6   1 H        0.926     0.034     2.529     2.487
     7   6 C        3.013    -0.048    29.171     8.860
     8   1 H        0.926     0.035     2.523     2.484
     9   6 C        3.129     0.072    26.194     8.379
    10   6 C        2.960     0.001    28.014     8.681
    11   6 C        3.141     0.066    26.290     8.390
    12   6 C        3.023    -0.059    29.441     8.900
    13   1 H        0.926     0.028     2.613     2.528
    14   6 C        3.025    -0.058    29.424     8.898
    15   1 H        0.926     0.028     2.610     2.526
    16   6 C        3.139     0.064    26.333     8.398
    17   6 C        2.993    -0.010    28.252     8.719
    18   6 C        2.968     0.014    27.699     8.633
    19   6 C        2.930    -0.055    29.362     8.887
    20   6 C        2.963     0.013    27.716     8.635
    21   6 C        2.929    -0.055    29.368     8.887
    22   6 C        2.967     0.012    27.753     8.641
    23   7 N        2.595    -0.228    26.013     7.575
    24   7 N        2.626    -0.213    25.658     7.523
    25   6 C        2.960    -0.001    28.049     8.687
    26   6 C        3.128     0.073    26.182     8.378
    27   6 C        3.014    -0.049    29.189     8.862
    28   1 H        0.926     0.034     2.530     2.488
    29   6 C        3.013    -0.048    29.172     8.860
    30   1 H        0.926     0.034     2.525     2.485
    31   6 C        3.129     0.072    26.193     8.379
    32   6 C        2.960     0.001    28.014     8.682
    33   6 C        3.141     0.066    26.290     8.390
    34   6 C        3.023    -0.059    29.441     8.900
    35   1 H        0.926     0.028     2.612     2.527
    36   6 C        3.025    -0.058    29.424     8.898
    37   1 H        0.926     0.028     2.610     2.526
    38   6 C        3.139     0.064    26.334     8.398
    39   6 C        2.993    -0.010    28.252     8.719
    40   6 C        2.968     0.014    27.699     8.633
    41   6 C        2.930    -0.054    29.350     8.885
    42   6 C        2.963     0.013    27.716     8.635
    43   6 C        2.930    -0.056    29.380     8.889
    44   6 C        2.966     0.012    27.752     8.641
    45  26 Fe       3.703     0.626     5.109     7.292
    46   6 C        2.993    -0.010    28.251     8.719
    47   6 C        2.967     0.014    27.709     8.634
    48   6 C        2.968     0.012    27.751     8.641
    49   6 C        2.930    -0.055    29.369     8.888
    50   6 C        2.929    -0.055    29.362     8.886
    51   1 H        0.926     0.032     2.554     2.499
    52   6 C        2.963     0.013    27.718     8.636
    53   1 H        0.926     0.030     2.583     2.513
    54   6 C        2.993    -0.010    28.251     8.719
    55   6 C        2.967     0.013    27.710     8.634
    56   6 C        2.967     0.012    27.749     8.641
    57   6 C        2.929    -0.054    29.350     8.885
    58   6 C        2.930    -0.056    29.380     8.889
    59   1 H        0.926     0.031     2.565     2.505
    60   6 C        2.963     0.013    27.718     8.636
    61   1 H        0.926     0.031     2.571     2.508
    62   1 H        0.926     0.033     2.548     2.496
    63   1 H        0.926     0.030     2.586     2.515
    64   1 H        0.926     0.032     2.556     2.500
    65   1 H        0.926     0.031     2.578     2.511
    66   6 C        3.758    -0.106    22.583     6.775
    67   6 C        3.758    -0.106    22.576     6.774
    68   6 C        3.758    -0.106    22.585     6.776
    69   6 C        3.758    -0.106    22.573     6.774
    70   6 C        3.758    -0.107    22.588     6.776
    71   6 C        3.758    -0.106    22.577     6.774
    72   6 C        3.758    -0.107    22.589     6.776
    73   6 C        3.758    -0.106    22.575     6.774
    74   1 H        0.925     0.043     2.407     2.426
    75   1 H        0.925     0.042     2.422     2.434
    76   1 H        0.925     0.043     2.407     2.426
    77   1 H        0.925     0.048     2.345     2.395
    78   1 H        0.925     0.042     2.416     2.431
    79   1 H        0.925     0.046     2.376     2.411
    80   1 H        0.925     0.042     2.422     2.434
    81   1 H        0.925     0.043     2.406     2.426
    82   1 H        0.925     0.043     2.407     2.426
    83   1 H        0.925     0.042     2.416     2.431
    84   1 H        0.925     0.046     2.377     2.411
    85   1 H        0.925     0.048     2.344     2.394
    86   1 H        0.925     0.042     2.423     2.434
    87   1 H        0.925     0.043     2.406     2.426
    88   1 H        0.925     0.043     2.411     2.428
    89   1 H        0.925     0.048     2.351     2.398
    90   1 H        0.925     0.043     2.412     2.429
    91   1 H        0.925     0.049     2.336     2.390
    92   1 H        0.925     0.043     2.410     2.428
    93   1 H        0.925     0.042     2.423     2.434
    94   1 H        0.925     0.043     2.407     2.426
    95   1 H        0.925     0.043     2.412     2.429
    96   1 H        0.925     0.049     2.335     2.390
    97   1 H        0.925     0.048     2.351     2.398
    98   6 C        3.758    -0.108    22.623     6.781
    99   6 C        3.758    -0.108    22.623     6.781
   100   6 C        3.758    -0.108    22.623     6.781
   101   6 C        3.758    -0.108    22.623     6.781
   102   1 H        0.925     0.041     2.439     2.442
   103   1 H        0.925     0.046     2.375     2.410
   104   1 H        0.925     0.044     2.392     2.419
   105   1 H        0.925     0.040     2.447     2.446
   106   1 H        0.925     0.045     2.379     2.412
   107   1 H        0.925     0.045     2.380     2.413
   108   1 H        0.925     0.040     2.447     2.446
   109   1 H        0.925     0.046     2.374     2.409
   110   1 H        0.925     0.045     2.385     2.415
   111   1 H        0.925     0.042     2.424     2.435
   112   1 H        0.924     0.046     2.367     2.406
   113   1 H        0.925     0.043     2.415     2.430
   114  17 Cl       0.786    -0.343   110.077    16.050

 Mol. C6AA /au·bohr⁶  :     162821.008951
 Mol. C8AA /au·bohr⁸  :    4077213.862013
 Mol. α(0) /au        :        644.571586


Wiberg/Mayer (AO) data.
largest (>0.10) Wiberg bond orders for each atom

 ---------------------------------------------------------------------------
     #   Z sym  total        # sym  WBO       # sym  WBO       # sym  WBO
 ---------------------------------------------------------------------------
     1   7 N    3.379 --     4 C    1.229     9 C    1.218    45 Fe   0.605
     2   7 N    3.429 --    11 C    1.237    16 C    1.230    45 Fe   0.648
     3   6 C    3.862 --     4 C    1.335    38 C    1.213    54 C    1.011
     4   6 C    3.933 --     3 C    1.335     1 N    1.229     5 C    1.168
     5   6 C    3.949 --     7 C    1.639     4 C    1.168     6 H    0.971
     6   1 H    0.998 --     5 C    0.971
     7   6 C    3.949 --     5 C    1.639     9 C    1.167     8 H    0.971
     8   1 H    0.998 --     7 C    0.971
     9   6 C    3.935 --    10 C    1.348     1 N    1.218     7 C    1.167
    10   6 C    3.861 --     9 C    1.348    11 C    1.197    17 C    1.012
    11   6 C    3.918 --    12 C    1.273     2 N    1.237    10 C    1.197
    12   6 C    3.922 --    14 C    1.486    11 C    1.273    13 H    0.972
    13   1 H    0.998 --    12 C    0.972
    14   6 C    3.919 --    12 C    1.486    16 C    1.269    15 H    0.972
    15   1 H    0.998 --    14 C    0.972
    16   6 C    3.920 --    14 C    1.269     2 N    1.230    25 C    1.213
    17   6 C    3.982 --    22 C    1.378    18 C    1.363    10 C    1.012
                            20 C    0.104
    18   6 C    3.980 --    19 C    1.425    17 C    1.363    72 C    1.027
                            21 C    0.101
    19   6 C    3.988 --    18 C    1.425    20 C    1.405    62 H    0.966
                            22 C    0.103
    20   6 C    3.987 --    21 C    1.417    19 C    1.405    99 C    1.024
                            17 C    0.104
    21   6 C    3.987 --    20 C    1.417    22 C    1.412    63 H    0.965
                            18 C    0.101
    22   6 C    3.981 --    21 C    1.412    17 C    1.378    73 C    1.024
                            19 C    0.103
    23   7 N    3.379 --    26 C    1.229    31 C    1.218    45 Fe   0.605
    24   7 N    3.429 --    33 C    1.237    38 C    1.230    45 Fe   0.648
    25   6 C    3.862 --    26 C    1.335    16 C    1.213    46 C    1.011
    26   6 C    3.933 --    25 C    1.335    23 N    1.229    27 C    1.168
    27   6 C    3.949 --    29 C    1.639    26 C    1.168    28 H    0.971
    28   1 H    0.998 --    27 C    0.971
    29   6 C    3.949 --    27 C    1.639    31 C    1.167    30 H    0.971
    30   1 H    0.998 --    29 C    0.971
    31   6 C    3.935 --    32 C    1.348    23 N    1.218    29 C    1.167
    32   6 C    3.861 --    31 C    1.348    33 C    1.197    39 C    1.012
    33   6 C    3.918 --    34 C    1.273    24 N    1.237    32 C    1.197
    34   6 C    3.922 --    36 C    1.486    33 C    1.273    35 H    0.972
    35   1 H    0.998 --    34 C    0.972
    36   6 C    3.919 --    34 C    1.486    38 C    1.269    37 H    0.972
    37   1 H    0.998 --    36 C    0.972
    38   6 C    3.920 --    36 C    1.269    24 N    1.230     3 C    1.213
    39   6 C    3.982 --    44 C    1.371    40 C    1.369    32 C    1.012
                            42 C    0.103
    40   6 C    3.980 --    41 C    1.416    39 C    1.369    70 C    1.027
                            43 C    0.102
    41   6 C    3.987 --    40 C    1.416    42 C    1.413    64 H    0.965
                            44 C    0.101
    42   6 C    3.987 --    41 C    1.413    43 C    1.408    98 C    1.025
                            39 C    0.103
    43   6 C    3.988 --    44 C    1.420    42 C    1.408    65 H    0.966
                            40 C    0.102
    44   6 C    3.981 --    43 C    1.420    39 C    1.371    71 C    1.024
                            41 C    0.101
    45  26 Fe   4.026 --   114 Cl   1.024    24 N    0.648     2 N    0.648
                             1 N    0.605    23 N    0.605
    46   6 C    3.982 --    48 C    1.377    47 C    1.365    25 C    1.011
                            52 C    0.104
    47   6 C    3.981 --    49 C    1.425    46 C    1.365    68 C    1.026
                            50 C    0.101
    48   6 C    3.980 --    50 C    1.412    46 C    1.377    69 C    1.025
                            49 C    0.103
    49   6 C    3.988 --    47 C    1.425    52 C    1.405    51 H    0.966
                            48 C    0.103
    50   6 C    3.987 --    52 C    1.417    48 C    1.412    53 H    0.965
                            47 C    0.101
    51   1 H    0.997 --    49 C    0.966
    52   6 C    3.987 --    50 C    1.417    49 C    1.405   101 C    1.024
                            46 C    0.104
    53   1 H    0.997 --    50 C    0.965
    54   6 C    3.982 --    55 C    1.375    56 C    1.367     3 C    1.011
                            60 C    0.104
    55   6 C    3.981 --    57 C    1.412    54 C    1.375    66 C    1.026
                            58 C    0.103
    56   6 C    3.980 --    58 C    1.425    54 C    1.367    67 C    1.024
                            57 C    0.101
    57   6 C    3.988 --    60 C    1.417    55 C    1.412    59 H    0.965
                            56 C    0.101
    58   6 C    3.988 --    56 C    1.425    60 C    1.405    61 H    0.966
                            55 C    0.103
    59   1 H    0.997 --    57 C    0.965
    60   6 C    3.987 --    57 C    1.417    58 C    1.405   100 C    1.024
                            54 C    0.104
    61   1 H    0.997 --    58 C    0.966
    62   1 H    0.996 --    19 C    0.966
    63   1 H    0.997 --    21 C    0.965
    64   1 H    0.997 --    41 C    0.965
    65   1 H    0.997 --    43 C    0.966
    66   6 C    3.994 --    55 C    1.026    83 H    0.985    84 H    0.972
                            85 H    0.969
    67   6 C    3.995 --    56 C    1.024    80 H    0.986    81 H    0.973
                            82 H    0.971
    68   6 C    3.994 --    47 C    1.026    78 H    0.985    79 H    0.972
                            77 H    0.969
    69   6 C    3.995 --    48 C    1.025    75 H    0.986    76 H    0.973
                            74 H    0.971
    70   6 C    3.994 --    40 C    1.027    95 H    0.985    97 H    0.971
                            96 H    0.968
    71   6 C    3.995 --    44 C    1.024    86 H    0.986    88 H    0.973
                            87 H    0.970
    72   6 C    3.994 --    18 C    1.027    90 H    0.985    89 H    0.971
                            91 H    0.968
    73   6 C    3.995 --    22 C    1.024    93 H    0.986    92 H    0.973
                            94 H    0.970
    74   1 H    0.998 --    69 C    0.971
    75   1 H    0.998 --    69 C    0.986
    76   1 H    0.998 --    69 C    0.973
    77   1 H    0.997 --    68 C    0.969
    78   1 H    0.998 --    68 C    0.985
    79   1 H    0.998 --    68 C    0.972
    80   1 H    0.998 --    67 C    0.986
    81   1 H    0.998 --    67 C    0.973
    82   1 H    0.998 --    67 C    0.971
    83   1 H    0.998 --    66 C    0.985
    84   1 H    0.998 --    66 C    0.972
    85   1 H    0.997 --    66 C    0.969
    86   1 H    0.998 --    71 C    0.986
    87   1 H    0.998 --    71 C    0.970
    88   1 H    0.998 --    71 C    0.973
    89   1 H    0.998 --    72 C    0.971
    90   1 H    0.998 --    72 C    0.985
    91   1 H    0.997 --    72 C    0.968
    92   1 H    0.998 --    73 C    0.973
    93   1 H    0.998 --    73 C    0.986
    94   1 H    0.998 --    73 C    0.970
    95   1 H    0.998 --    70 C    0.985
    96   1 H    0.997 --    70 C    0.968
    97   1 H    0.998 --    70 C    0.971
    98   6 C    3.996 --    42 C    1.025   111 H    0.983   113 H    0.981
                           112 H    0.968
    99   6 C    3.996 --    20 C    1.024   108 H    0.986   110 H    0.975
                           109 H    0.972
   100   6 C    3.996 --    60 C    1.024   102 H    0.986   104 H    0.975
                           103 H    0.971
   101   6 C    3.996 --    52 C    1.024   105 H    0.986   107 H    0.974
                           106 H    0.973
   102   1 H    0.998 --   100 C    0.986
   103   1 H    0.997 --   100 C    0.971
   104   1 H    0.998 --   100 C    0.975
   105   1 H    0.998 --   101 C    0.986
   106   1 H    0.997 --   101 C    0.973
   107   1 H    0.997 --   101 C    0.974
   108   1 H    0.998 --    99 C    0.986
   109   1 H    0.997 --    99 C    0.972
   110   1 H    0.998 --    99 C    0.975
   111   1 H    0.998 --    98 C    0.983
   112   1 H    0.997 --    98 C    0.968
   113   1 H    0.998 --    98 C    0.981
   114  17 Cl   1.142 --    45 Fe   1.024
 ---------------------------------------------------------------------------

Topologies differ in total number of bonds
Writing topology from bond orders to xtbtopo.mol

molecular dipole:
                 x           y           z       tot (Debye)
 q only:       -0.001       0.015      -0.935
   full:       -0.011       0.014      -1.210       3.075
molecular quadrupole (traceless):
                xx          xy          yy          xz          yz          zz
 q only:       11.099       0.048       5.496       0.148      -0.316     -16.595
  q+dip:       14.114       0.077       8.321       0.120      -0.644     -22.435
   full:       12.887       0.089       6.213       0.061      -0.744     -19.100

           -------------------------------------------------
          |                Geometry Summary                 |
           -------------------------------------------------

      molecular mass/u    :      872.3390242
   center of mass at/Å    :        0.0110709      -0.0178814      -0.0173532
  moments of inertia/u·Å² :        0.1325302E+05   0.1332899E+05   0.2373192E+05
rotational constants/cm⁻¹ :        0.1271984E-02   0.1264735E-02   0.7103357E-03

 * 105 selected distances

     #   Z          #   Z                                           value/Å
     1   7 N        4   6 C                                       1.3646284
     3   6 C        4   6 C                                       1.3876937
     4   6 C        5   6 C                                       1.4363773
     5   6 C        6   1 H                                       1.0731247
     5   6 C        7   6 C                                       1.3557508
     7   6 C        8   1 H                                       1.0730716
     1   7 N        9   6 C                                       1.3671548
     7   6 C        9   6 C                                       1.4361421
     9   6 C       10   6 C                                       1.3853397
     2   7 N       11   6 C                                       1.3656085
    10   6 C       11   6 C                                       1.4170297
    11   6 C       12   6 C                                       1.4123038
    12   6 C       13   1 H                                       1.0726701 (min)
    12   6 C       14   6 C                                       1.3769213
    14   6 C       15   1 H                                       1.0726840
     2   7 N       16   6 C                                       1.3673699
    14   6 C       16   6 C                                       1.4134527
    17   6 C       18   6 C                                       1.3972965
    18   6 C       19   6 C                                       1.3850406
    19   6 C       20   6 C                                       1.3889541
    20   6 C       21   6 C                                       1.3863323
    17   6 C       22   6 C                                       1.3944775
    21   6 C       22   6 C                                       1.3873750
    16   6 C       25   6 C                                       1.4137666
    23   7 N       26   6 C                                       1.3646467
    25   6 C       26   6 C                                       1.3876373
    26   6 C       27   6 C                                       1.4363624
    27   6 C       28   1 H                                       1.0731254
    27   6 C       29   6 C                                       1.3557372
    29   6 C       30   1 H                                       1.0730720
    23   7 N       31   6 C                                       1.3671262
    29   6 C       31   6 C                                       1.4361569
    31   6 C       32   6 C                                       1.3853670
    24   7 N       33   6 C                                       1.3656129
    32   6 C       33   6 C                                       1.4170523
    33   6 C       34   6 C                                       1.4123149
    34   6 C       35   1 H                                       1.0726742
    34   6 C       36   6 C                                       1.3769114
    36   6 C       37   1 H                                       1.0726827
     3   6 C       38   6 C                                       1.4137681
    24   7 N       38   6 C                                       1.3673837
    36   6 C       38   6 C                                       1.4134573
    39   6 C       40   6 C                                       1.3962012
    40   6 C       41   6 C                                       1.3864447
    41   6 C       42   6 C                                       1.3872074
    42   6 C       43   6 C                                       1.3881278
    39   6 C       44   6 C                                       1.3956422
    43   6 C       44   6 C                                       1.3859597
    46   6 C       47   6 C                                       1.3968755
    46   6 C       48   6 C                                       1.3947226
    47   6 C       49   6 C                                       1.3851998
    48   6 C       50   6 C                                       1.3871858
    49   6 C       51   1 H                                       1.0811007
    49   6 C       52   6 C                                       1.3890348
    50   6 C       52   6 C                                       1.3862152
    50   6 C       53   1 H                                       1.0811666
    54   6 C       55   6 C                                       1.3952053
    54   6 C       56   6 C                                       1.3964627
    55   6 C       57   6 C                                       1.3873280
    56   6 C       58   6 C                                       1.3850443
    57   6 C       59   1 H                                       1.0810734
    57   6 C       60   6 C                                       1.3863736
    58   6 C       60   6 C                                       1.3888815
    58   6 C       61   1 H                                       1.0811873
    19   6 C       62   1 H                                       1.0810799
    21   6 C       63   1 H                                       1.0811891
    41   6 C       64   1 H                                       1.0810583
    43   6 C       65   1 H                                       1.0811899
    69   6 C       74   1 H                                       1.0898175
    69   6 C       75   1 H                                       1.0871904
    69   6 C       76   1 H                                       1.0893741
    68   6 C       77   1 H                                       1.0896761
    68   6 C       78   1 H                                       1.0870719
    68   6 C       79   1 H                                       1.0893322
    67   6 C       80   1 H                                       1.0871861
    67   6 C       81   1 H                                       1.0894252
    67   6 C       82   1 H                                       1.0897408
    66   6 C       83   1 H                                       1.0870758
    66   6 C       84   1 H                                       1.0893477
    66   6 C       85   1 H                                       1.0896764
    71   6 C       86   1 H                                       1.0871845
    71   6 C       87   1 H                                       1.0897221
    71   6 C       88   1 H                                       1.0893783
    72   6 C       89   1 H                                       1.0893061
    72   6 C       90   1 H                                       1.0870571
    72   6 C       91   1 H                                       1.0897360
    73   6 C       92   1 H                                       1.0893524
    73   6 C       93   1 H                                       1.0871896
    73   6 C       94   1 H                                       1.0897728
    70   6 C       95   1 H                                       1.0870643
    70   6 C       96   1 H                                       1.0897309
    70   6 C       97   1 H                                       1.0893236
   100   6 C      102   1 H                                       1.0869494
   100   6 C      103   1 H                                       1.0898433
   100   6 C      104   1 H                                       1.0889644
   101   6 C      105   1 H                                       1.0870213
   101   6 C      106   1 H                                       1.0895362
   101   6 C      107   1 H                                       1.0892179
    99   6 C      108   1 H                                       1.0870231
    99   6 C      109   1 H                                       1.0896809
    99   6 C      110   1 H                                       1.0890821
    98   6 C      111   1 H                                       1.0872760
    98   6 C      112   1 H                                       1.0905929
    98   6 C      113   1 H                                       1.0878331
    45  26 Fe     114  17 Cl                                      2.1493970 (max)

 * 4 distinct bonds (by element types)

   Z      Z             #   av. dist./Å        max./Å        min./Å
   1 H    6 C          52     1.0850943     1.0905929     1.0726701
   6 C    6 C          44     1.3960712     1.4363773     1.3557372
   6 C    7 N           8     1.3661914     1.3673837     1.3646284
  17 Cl  26 Fe          1     2.1493970     2.1493970     2.1493970


optimized geometry written to: xtbopt.xyz


           -------------------------------------------------
          | TOTAL ENERGY             -165.958858324757 Eh   |
          | GRADIENT NORM               0.000091005537 Eh/α |
          | HOMO-LUMO GAP               0.145044979615 eV   |
           -------------------------------------------------

------------------------------------------------------------------------
 * finished run on 2026/09/18 at 10:12:24.523     
------------------------------------------------------------------------
 total:
 * wall-time:     0 d,  0 h,  0 min, 27.641 sec
 *  cpu-time:     0 d,  0 h,  0 min, 50.814 sec
 * ratio c/w:     1.838 speedup
 SCF:
 * wall-time:     0 d,  0 h,  0 min,  0.495 sec
 *  cpu-time:     0 d,  0 h,  0 min,  0.858 sec
 * ratio c/w:     1.731 speedup
 ANC optimizer:
 * wall-time:     0 d,  0 h,  0 min, 27.131 sec
 *  cpu-time:     0 d,  0 h,  0 min, 49.934 sec
 * ratio c/w:     1.840 speedup

normal termination of xtb
Note: The following floating-point exceptions are signalling: IEEE_UNDERFLOW_FLAG
